128_cspbbr3_3\128_cspbbr3_3.xyz
1.0
38.745962 0 0
0 38.745962 0
0 0 38.745962
Br Cs Pb 
108 54 27 
Cartesian
19.500367999999998 25.164976 10.591852
25.416517 13.616071999999999 16.558154
19.478184999999996 19.455085999999998 28.46801
22.223985 13.557889 13.465017999999999
25.432852999999998 10.593896999999998 13.342581
28.151594 13.358863 25.436543999999998
25.516996 13.591127999999998 10.479864999999998
28.471574 19.349587 13.5733
19.182536 28.527123 25.311642999999997
19.442928 28.514934999999998 19.387611999999997
28.476035 19.289188 19.447997
19.454553999999998 28.22207 13.249747999999999
19.528367 25.139235 28.152372999999997
28.40943 13.594776 19.53785
19.241846 22.268164 25.188108999999997
19.180732999999996 25.436757 22.205659999999998
28.528118 25.18625 25.407123
28.134863 19.264743 25.508152
16.205292 25.225685 19.535051
19.215518 22.342389999999998 19.238746999999996
28.372438 25.319098999999998 13.227739
16.505843 25.309674 13.686789
28.475523 25.428393 19.568599
19.219673 22.254969 13.601911999999999
16.519714 25.212303999999996 25.444882
22.260340999999997 25.467250999999997 19.256681999999998
22.497874 13.550563999999998 19.496446
28.150596999999998 13.314525999999999 13.255386999999999
25.488906999999998 22.444083999999997 19.563952999999998
25.215573999999997 25.256363 16.191468999999998
25.502553999999996 25.493598999999996 22.434598
22.474445 25.430028 13.552982999999998
25.543522 22.457732999999998 13.579783999999998
25.464053999999997 25.239213 10.222876
25.491152 22.442550999999998 25.256155
25.259073 19.210556999999998 28.397361999999998
22.090882999999998 25.206328999999997 25.393458
22.127428 19.216912 25.275982999999997
25.233192 16.216386 25.458768
25.268133 19.255764 22.484941999999997
25.122172 10.474668 19.529556999999997
25.190044999999998 25.323501 28.145056999999998
25.212239999999998 16.197063 19.326923
25.24561 19.115401999999996 16.467785
25.172795 28.164134999999998 13.409427999999998
25.269021 28.055981 19.231388
22.357329999999997 19.311963 13.682115999999999
25.131173999999998 16.449441999999998 13.216670999999998
25.210521999999997 19.315402 10.239486
25.292791 28.168059999999997 25.558917
25.118336999999997 13.515113 28.143579
22.260359 13.499951999999999 25.533898999999998
25.478163 10.435422999999998 25.135742
25.446807 13.268348 22.506338999999997
22.270867 19.219833 19.240472999999998
16.303403 19.529877999999997 25.156591
19.232350999999998 25.501472999999997 16.475181999999997
19.587902999999997 19.315334999999997 22.478536
13.475274999999998 28.401301999999998 13.273791999999998
13.292748 25.273442 28.436290999999997
10.38665 25.416322 25.488400999999996
13.579221999999998 22.464067 25.382734999999997
13.480732 25.466752999999997 22.177615
10.552869 25.204803 19.627007
19.510288 16.376113999999998 25.491751999999998
13.502515999999998 25.458296999999998 16.526555
10.595574999999998 25.159126999999998 13.240236
13.560120999999999 22.193261999999997 13.302622999999999
13.226897999999998 25.445249999999998 10.285953
13.603198999999998 19.221775 28.115385
10.710579 19.477888 25.303326
13.423594999999999 16.289585 25.060052
13.545784999999999 19.48751 22.536141999999998
10.604973 19.394661 19.228988
13.562090999999999 16.172383 19.318441
13.279903 13.611863999999999 10.305532
13.578423999999998 10.576457999999999 13.370133999999998
10.299418 13.382719999999999 13.290916999999999
13.416243999999999 13.187610999999999 16.581249
13.406217999999999 10.274185999999998 19.514319
10.359523999999999 13.527838999999998 19.188055
13.558454999999999 28.495628 19.537017999999996
13.491024 13.580080999999998 22.566660999999996
10.317120999999998 13.214930999999998 25.18732
13.331183 13.313640999999999 28.414696
13.323433999999999 19.125808999999997 10.33326
13.571085999999998 16.507178 13.461168999999998
10.473066 19.607498999999997 13.324214999999999
13.241681999999999 19.24007 16.387249999999998
13.588358 10.388315999999998 25.184948999999996
13.579844999999999 28.349774999999998 25.239689
13.642622 22.221173 19.371496
19.421236 19.498556 16.573679
19.346595999999998 16.653951 13.269319999999999
19.270668 13.602725999999999 28.145259
19.524758999999996 13.358049999999999 10.284615999999998
16.223201 13.328869999999998 25.175218
19.392257999999998 10.661060999999998 25.329361999999996
16.524497999999998 19.203933999999997 13.576353
19.20178 13.301845999999998 22.168427
16.499923 13.478198999999998 19.115513
19.186000999999997 16.314147 19.585383999999998
16.194034 19.547345 19.310149
19.26775 10.619189999999998 19.362873999999998
19.228377 19.234935999999998 10.611258999999999
19.512463999999998 10.233497999999999 13.459231999999998
16.548886 13.616840999999999 13.496309999999998
19.183599 13.455646999999999 16.348457
28.37317 16.698923 22.671867
27.790806 22.089778 28.278996
16.114683 15.951618 28.351591
22.414478 28.710953999999997 10.871018999999999
28.016569999999998 22.110584 22.432158
10.781196999999999 16.220395999999997 10.572123
22.272567 28.704746 16.590055
15.939003 16.610816 22.671325
28.273747999999998 28.559033999999997 16.031717
22.310387 27.938253 21.860211999999997
22.037663 28.708081999999997 28.160296
28.549654 22.566004 16.239998999999997
28.031249 10.338103999999998 16.813076
16.282231 16.756940999999998 16.513872
28.558311 10.688583999999999 21.953245
22.512197 22.339809 27.847244999999997
27.979616999999998 16.069350999999997 10.076573999999999
16.481802 22.854613999999998 10.507662999999999
28.591089999999998 22.751919 10.362974999999999
28.526158 16.683746999999997 16.117786
10.768607999999999 10.593913999999998 16.127751999999997
16.086281 22.719178999999997 16.050817
16.341704 9.972888 10.396488999999999
16.506259999999997 10.010055999999999 28.198912999999997
10.472610999999999 16.210299999999997 16.035815
22.670794 10.739306999999998 22.522754
10.115310999999998 28.656736 22.087947999999997
22.034675 10.712245999999999 16.689807
10.173760999999999 28.185834999999997 16.149048999999998
22.610273 10.578216999999999 27.881211999999998
16.602141 9.964991999999999 16.684417999999997
22.02124 16.355746999999997 10.710875999999999
10.213240999999998 22.063748999999998 27.867641
21.982369999999996 10.197439999999999 10.746948999999999
22.346623 15.897509 16.126911
10.911063999999998 22.011038 22.186220999999996
16.598411 28.366142999999997 28.688354
16.582497999999998 28.623965 22.132277
22.304688999999996 16.532928 22.903945
10.596937999999998 21.961658999999997 15.999789
16.690925999999997 10.755919999999998 22.162343
16.28176 28.248728 16.820579
22.686094999999998 16.592278 28.584971
10.237646999999999 21.875011 10.741024999999999
22.286046999999996 21.922458999999996 10.414672
16.52892 27.947457999999997 10.081762999999999
10.457543 16.769121 28.599179999999997
16.208481 22.835655 28.447274999999998
21.830759 22.442916999999998 16.421872999999998
10.837383999999998 16.786503 22.177348
22.742334999999997 22.178987 22.508975
16.05031 16.413344 9.971840999999998
15.880097 22.382226 22.59798
28.584066999999997 27.960805999999998 22.745513
13.464799999999999 13.629736999999999 13.149314999999998
25.124519999999997 25.418083 13.289437999999999
13.317469999999998 25.508012 13.52958
25.358787999999997 19.17909 25.214438
13.394894999999998 25.167668999999997 19.174118999999997
19.576690999999997 19.605325 25.374336
13.168914999999998 25.337708 25.106012999999997
25.203432999999997 19.153197 13.245397999999998
25.344374 13.611404999999998 25.512083999999998
25.284912 25.424338999999996 19.58317
19.241045 13.365886 13.644564999999998
19.425924 13.323311999999998 19.166832
25.467250999999997 13.232668999999998 13.23021
19.433085 13.253715 25.50495
19.350308 25.501155999999998 25.51476
19.443579999999997 19.475395999999996 13.156042
19.580557999999996 25.341053 19.125624
19.260139 19.205022999999997 19.664659
19.547289 25.324168999999998 13.267010999999998
25.005785 13.459731999999999 19.415625
13.481278999999999 19.644295999999997 25.08908
25.072006 19.399189999999997 19.536383
13.559785999999999 19.223387 13.194514999999999
13.656033999999998 13.349258999999998 25.540675999999998
13.263721999999998 13.634880999999998 19.16181
25.301254 25.487063999999997 25.152867
13.643404999999998 19.099519 19.359125
