3_train/229_cspbbr3_MA-AbzO_3_0.20\229_cspbbr3_MA-AbzO_3_0.20.xyz
1.0
43.622974 0 0
0 43.622974 0
0 0 43.622974
Br C Cs H N O Pb 
96 94 44 132 22 24 27 
Cartesian
15.861486999999999 15.861486999999999 12.886486999999999
15.861486999999999 12.886486999999999 15.861486999999999
15.861486999999999 15.861486999999999 18.836486999999998
15.861486999999999 12.886486999999999 21.811487
12.886486999999999 15.861486999999999 21.811487
15.861486999999999 15.861486999999999 24.786486999999997
15.861486999999999 12.886486999999999 27.761487
12.886486999999999 15.861486999999999 27.761487
15.861486999999999 15.861486999999999 30.736487
15.861486999999999 21.811487 12.886486999999999
15.861486999999999 18.836486999999998 15.861486999999999
12.886486999999999 21.811487 15.861486999999999
15.861486999999999 21.811487 18.836486999999998
15.861486999999999 18.836486999999998 21.811487
12.886486999999999 21.811487 21.811487
15.861486999999999 21.811487 24.786486999999997
15.861486999999999 18.836486999999998 27.761487
12.886486999999999 21.811487 27.761487
15.861486999999999 21.811487 30.736487
15.861486999999999 27.761487 12.886486999999999
15.861486999999999 24.786486999999997 15.861486999999999
12.886486999999999 27.761487 15.861486999999999
15.861486999999999 27.761487 18.836486999999998
15.861486999999999 24.786486999999997 21.811487
15.861486999999999 27.761487 24.786486999999997
15.861486999999999 24.786486999999997 27.761487
12.886486999999999 27.761487 27.761487
15.861486999999999 27.761487 30.736487
15.861486999999999 30.736487 21.811487
15.861486999999999 30.736487 27.761487
21.811487 12.886486999999999 15.861486999999999
18.836486999999998 15.861486999999999 15.861486999999999
21.811487 15.861486999999999 18.836486999999998
21.811487 12.886486999999999 21.811487
18.836486999999998 15.861486999999999 21.811487
21.811487 15.861486999999999 24.786486999999997
21.811487 12.886486999999999 27.761487
18.836486999999998 15.861486999999999 27.761487
21.811487 15.861486999999999 30.736487
21.811487 21.811487 12.886486999999999
21.811487 18.836486999999998 15.861486999999999
18.836486999999998 21.811487 15.861486999999999
21.811487 21.811487 18.836486999999998
21.811487 18.836486999999998 21.811487
18.836486999999998 21.811487 21.811487
21.811487 21.811487 24.786486999999997
21.811487 18.836486999999998 27.761487
18.836486999999998 21.811487 27.761487
21.811487 27.761487 12.886486999999999
21.811487 24.786486999999997 15.861486999999999
18.836486999999998 27.761487 15.861486999999999
21.811487 27.761487 18.836486999999998
21.811487 24.786486999999997 21.811487
18.836486999999998 27.761487 21.811487
21.811487 27.761487 24.786486999999997
21.811487 24.786486999999997 27.761487
18.836486999999998 27.761487 27.761487
21.811487 27.761487 30.736487
21.811487 30.736487 15.861486999999999
21.811487 30.736487 21.811487
27.761487 15.861486999999999 12.886486999999999
27.761487 12.886486999999999 15.861486999999999
24.786486999999997 15.861486999999999 15.861486999999999
27.761487 15.861486999999999 18.836486999999998
24.786486999999997 15.861486999999999 21.811487
27.761487 15.861486999999999 24.786486999999997
24.786486999999997 15.861486999999999 27.761487
27.761487 21.811487 12.886486999999999
27.761487 18.836486999999998 15.861486999999999
24.786486999999997 21.811487 15.861486999999999
27.761487 21.811487 18.836486999999998
27.761487 18.836486999999998 21.811487
24.786486999999997 21.811487 21.811487
27.761487 21.811487 24.786486999999997
27.761487 18.836486999999998 27.761487
24.786486999999997 21.811487 27.761487
27.761487 21.811487 30.736487
27.761487 24.786486999999997 15.861486999999999
24.786486999999997 27.761487 15.861486999999999
27.761487 27.761487 18.836486999999998
27.761487 24.786486999999997 21.811487
24.786486999999997 27.761487 21.811487
27.761487 27.761487 24.786486999999997
27.761487 24.786486999999997 27.761487
24.786486999999997 27.761487 27.761487
27.761487 27.761487 30.736487
27.761487 30.736487 15.861486999999999
27.761487 30.736487 21.811487
27.761487 30.736487 27.761487
30.736487 15.861486999999999 15.861486999999999
30.736487 15.861486999999999 21.811487
30.736487 21.811487 21.811487
30.736487 21.811487 27.761487
30.736487 27.761487 15.861486999999999
30.736487 27.761487 21.811487
30.736487 27.761487 27.761487
21.882717 23.044867 34.331516
22.024724 22.996177 32.943687
21.811487 21.811487 32.241088
21.29422 20.692439 34.381508999999994
21.493515 21.890559 35.041377
21.811487 21.811487 30.736487
21.506500999999997 20.617219 32.978227000000004
27.832717 17.094867 34.331516
27.974724 17.046177 32.943687
27.761487 15.861486999999999 32.241088
27.24422 14.742439 34.381508999999994
27.443515 15.940558999999999 35.041377
27.761487 15.861486999999999 30.736487
27.456501 14.667219 32.978227000000004
21.740257 17.094867 9.291457999999999
21.598249999999997 17.046177 10.679286999999999
21.811487 15.861486999999999 11.381885999999998
22.328754 14.742439 9.241464999999998
22.129459 15.940558999999999 8.581596999999999
21.811487 15.861486999999999 12.886486999999999
22.116473 14.667219 10.644746999999999
27.690257 28.994867 9.291457999999999
27.54825 28.946177 10.679286999999999
27.761487 27.761487 11.381885999999998
28.278754 26.642439 9.241464999999998
28.079458999999996 27.840559 8.581596999999999
27.761487 27.761487 12.886486999999999
28.066473 26.567218999999998 10.644746999999999
9.291457999999999 17.094867 15.932716999999998
10.679286999999999 17.046177 16.074724
11.381885999999998 15.861486999999999 15.861486999999999
9.241464999999998 14.742439 15.34422
8.581596999999999 15.940558999999999 15.543515
12.886486999999999 15.861486999999999 15.861486999999999
10.644746999999999 14.667219 15.556500999999999
9.291457999999999 28.994867 21.882717
10.679286999999999 28.946177 22.024724
11.381885999999998 27.761487 21.811487
9.241464999999998 26.642439 21.29422
8.581596999999999 27.840559 21.493515
12.886486999999999 27.761487 21.811487
10.644746999999999 26.567218999999998 21.506500999999997
34.331516 17.094867 27.690257
32.943687 17.046177 27.54825
32.241088 15.861486999999999 27.761487
34.381508999999994 14.742439 28.278754
35.041377 15.940558999999999 28.079458999999996
30.736487 15.861486999999999 27.761487
32.978227000000004 14.667219 28.066473
34.331516 23.044867 15.790256999999999
32.943687 22.996177 15.648249999999999
32.241088 21.811487 15.861486999999999
34.381508999999994 20.692439 16.378754
35.041377 21.890559 16.179458999999998
30.736487 21.811487 15.861486999999999
32.978227000000004 20.617219 16.166473
27.832717 9.291457999999999 28.994867
27.974724 10.679286999999999 28.946177
27.761487 11.381885999999998 27.761487
27.24422 9.241464999999998 26.642439
27.443515 8.581596999999999 27.840559
27.761487 12.886486999999999 27.761487
27.456501 10.644746999999999 26.567218999999998
27.832717 9.291457999999999 23.044867
27.974724 10.679286999999999 22.996177
27.761487 11.381885999999998 21.811487
27.24422 9.241464999999998 20.692439
27.443515 8.581596999999999 21.890559
27.761487 12.886486999999999 21.811487
27.456501 10.644746999999999 20.617219
21.882717 34.331516 26.528107
22.024724 32.943687 26.576797
21.811487 32.241088 27.761487
21.29422 34.381508999999994 28.880535
21.493515 35.041377 27.682415
21.811487 30.736487 27.761487
21.506500999999997 32.978227000000004 28.955755
15.932716999999998 34.331516 14.628106999999998
16.074724 32.943687 14.676796999999999
15.861486999999999 32.241088 15.861486999999999
15.34422 34.381508999999994 16.980535
15.543515 35.041377 15.782414999999999
15.861486999999999 30.736487 15.861486999999999
15.556500999999999 32.978227000000004 17.055754999999998
32.212148 18.836486999999998 24.786486999999997
24.786486999999997 11.410826 24.786486999999997
11.843036999999999 18.836486999999998 31.779937
18.836486999999998 24.786486999999997 32.212148
32.212148 24.786486999999997 18.836486999999998
31.779937 18.836486999999998 11.843036999999999
31.779937 18.836486999999998 31.779937
18.836486999999998 11.410826 24.786486999999997
24.786486999999997 24.786486999999997 32.212148
11.410826 24.786486999999997 24.786486999999997
12.886486999999999 12.886486999999999 18.836486999999998
12.886486999999999 12.886486999999999 24.786486999999997
12.886486999999999 18.836486999999998 12.886486999999999
12.886486999999999 18.836486999999998 18.836486999999998
12.886486999999999 18.836486999999998 24.786486999999997
12.886486999999999 24.786486999999997 12.886486999999999
12.886486999999999 24.786486999999997 18.836486999999998
12.886486999999999 24.786486999999997 30.736487
12.886486999999999 30.736487 18.836486999999998
12.886486999999999 30.736487 24.786486999999997
18.836486999999998 12.886486999999999 12.886486999999999
18.836486999999998 12.886486999999999 18.836486999999998
18.836486999999998 12.886486999999999 30.736487
18.836486999999998 18.836486999999998 12.886486999999999
18.836486999999998 18.836486999999998 18.836486999999998
18.836486999999998 18.836486999999998 24.786486999999997
18.836486999999998 18.836486999999998 30.736487
18.836486999999998 24.786486999999997 12.886486999999999
18.836486999999998 24.786486999999997 18.836486999999998
18.836486999999998 24.786486999999997 24.786486999999997
18.836486999999998 30.736487 12.886486999999999
18.836486999999998 30.736487 18.836486999999998
18.836486999999998 30.736487 24.786486999999997
18.836486999999998 30.736487 30.736487
24.786486999999997 12.886486999999999 12.886486999999999
24.786486999999997 12.886486999999999 18.836486999999998
24.786486999999997 12.886486999999999 30.736487
24.786486999999997 18.836486999999998 12.886486999999999
24.786486999999997 18.836486999999998 18.836486999999998
24.786486999999997 18.836486999999998 24.786486999999997
24.786486999999997 18.836486999999998 30.736487
24.786486999999997 24.786486999999997 12.886486999999999
24.786486999999997 24.786486999999997 18.836486999999998
24.786486999999997 24.786486999999997 24.786486999999997
24.786486999999997 30.736487 18.836486999999998
24.786486999999997 30.736487 24.786486999999997
24.786486999999997 30.736487 30.736487
30.736487 12.886486999999999 18.836486999999998
30.736487 18.836486999999998 18.836486999999998
30.736487 24.786486999999997 12.886486999999999
30.736487 24.786486999999997 24.786486999999997
30.736487 24.786486999999997 30.736487
30.736487 30.736487 18.836486999999998
30.736487 30.736487 24.786486999999997
21.005094 19.791238999999997 34.927487
21.353914 21.940658 36.122974
22.03874 23.983585 34.865303999999995
22.255304 23.893946 32.366549
21.054101 18.620722 32.743952
21.622637 19.53239 31.27656
26.955094 13.841238999999998 34.927487
27.303914 15.990658 36.122974
27.988739999999996 18.033585 34.865303999999995
28.205303999999998 17.943945999999997 32.366549
27.004101 12.670721999999998 32.743952
27.572636999999997 13.582389999999998 31.27656
22.61788 13.841238999999998 8.695487
22.26906 15.990658 7.499999999999999
21.584234 18.033585 8.75767
21.367669999999997 17.943945999999997 11.256425
22.568873 12.670721999999998 10.879021999999999
22.000337 13.582389999999998 12.346414
28.56788 25.741238999999997 8.695487
28.21906 27.890658 7.499999999999999
27.534234 29.933584999999997 8.75767
27.31767 29.843946 11.256425
28.518873 24.570722 10.879021999999999
27.950337 25.48239 12.346414
8.695487 13.841238999999998 15.055093999999999
7.499999999999999 15.990658 15.403913999999999
8.75767 18.033585 16.088739999999998
11.256425 17.943945999999997 16.305304
10.879021999999999 12.670721999999998 15.104101
12.346414 13.582389999999998 15.672636999999998
8.695487 25.741238999999997 21.005094
7.499999999999999 27.890658 21.353914
8.75767 29.933584999999997 22.03874
11.256425 29.843946 22.255304
10.879021999999999 24.570722 21.054101
12.346414 25.48239 21.622637
34.927487 13.841238999999998 28.56788
36.122974 15.990658 28.21906
34.865303999999995 18.033585 27.534234
32.366549 17.943945999999997 27.31767
32.743952 12.670721999999998 28.518873
31.27656 13.582389999999998 27.950337
34.927487 19.791238999999997 16.667879999999997
36.122974 21.940658 16.31906
34.865303999999995 23.983585 15.634234
32.366549 23.893946 15.41767
32.743952 18.620722 16.618873
31.27656 19.53239 16.050337
26.955094 8.695487 25.741238999999997
27.303914 7.499999999999999 27.890658
27.988739999999996 8.75767 29.933584999999997
28.205303999999998 11.256425 29.843946
27.004101 10.879021999999999 24.570722
27.572636999999997 12.346414 25.48239
26.955094 8.695487 19.791238999999997
27.303914 7.499999999999999 21.940658
27.988739999999996 8.75767 23.983585
28.205303999999998 11.256425 23.893946
27.004101 10.879021999999999 18.620722
27.572636999999997 12.346414 19.53239
21.005094 34.927487 29.781734999999998
21.353914 36.122974 27.632316
22.03874 34.865303999999995 25.589389
22.255304 32.366549 25.679028
21.054101 32.743952 30.952251999999998
21.622637 31.27656 30.040584
15.055093999999999 34.927487 17.881735
15.403913999999999 36.122974 15.732315999999999
16.088739999999998 34.865303999999995 13.689388999999998
16.305304 32.366549 13.779027999999998
15.104101 32.743952 19.052252
15.672636999999998 31.27656 18.140583999999997
32.546069 17.822702999999997 25.015325
32.546069 19.1452 23.794105
32.546069 19.541558 25.550031
30.361745 19.770795999999997 24.575588999999997
30.361745 18.551975 25.701071
30.361745 18.18669 24.082801
24.132102 11.076905 25.593894
24.414444 11.076905 23.81607
25.812914 11.076905 24.949496999999997
25.389571 13.261229 24.042377
25.129363 13.261229 25.680829
23.840526999999998 13.261229 24.636256
12.007351 17.965032 32.416486
11.940358999999999 19.762641 32.349494
10.873048999999998 18.781788 31.282183999999997
12.782429999999998 19.639625 30.102465
12.844169999999998 17.982939 30.164205
13.827808999999998 18.886898 31.147842999999998
19.772025 24.333836 32.546069
18.760725 25.823012 32.546069
17.976710999999998 24.202612 32.546069
17.97429 25.203651999999998 30.361745
18.906309999999998 23.83122 30.361745
19.628861 25.324589 30.361745
32.546069 23.777188999999996 19.084360999999998
32.546069 25.076471 17.838472
32.546069 25.505802 19.586627999999997
30.361745 25.716662 18.608044999999997
30.361745 24.519236 19.756262999999997
30.361745 24.123563 18.145153
32.557952 19.538497999999997 12.148817
32.174998 17.821796 11.765863
31.315213999999997 19.149168 10.906078999999998
29.972089 18.18951 12.652054
30.325021 19.771631999999997 13.004987
31.117403 18.548319 13.797367999999999
31.338293 19.238236999999998 32.693816
32.108914999999996 17.805526999999998 31.923194
32.600956 19.465697 31.431153
31.096133 18.466231999999998 29.846875999999998
30.385924 19.786625 30.557084999999997
29.932456 18.256603 31.010552
19.874142 11.076905 24.844776999999997
18.267179 11.076905 25.655976999999996
18.368139999999997 11.076905 23.858707
17.880179 13.261229 24.732765999999998
19.361164 13.261229 23.985159999999997
19.268117 13.261229 25.641533999999996
25.231821999999998 25.72553 32.546069
23.750584 24.702637 32.546069
25.377055 23.931293999999998 32.546069
24.376064 23.92106 30.361745
25.741179999999996 24.863764 30.361745
24.242217 25.574637 30.361745
11.076905 25.544914 24.075914
11.076905 23.791898999999997 24.484956999999998
11.076905 25.022648 25.79859
13.261229 24.087517 25.441354999999998
13.261229 25.703104 25.064379
13.261229 24.568839999999998 23.853727
21.481384 19.438620999999998 32.315816
27.431383999999998 13.488620999999998 32.315816
22.141589999999997 13.488620999999998 11.307158
28.09159 25.388620999999997 11.307158
11.307158 13.488620999999998 15.531384
11.307158 25.388620999999997 21.481384
32.315816 13.488620999999998 28.09159
32.315816 19.438620999999998 16.191589999999998
27.431383999999998 11.307158 25.388620999999997
27.431383999999998 11.307158 19.438620999999998
21.481384 32.315816 30.134352999999997
15.531384 32.315816 18.234353
30.736487 18.836486999999998 24.786486999999997
24.786486999999997 12.886486999999999 24.786486999999997
12.886486999999999 18.836486999999998 30.736487
18.836486999999998 24.786486999999997 30.736487
30.736487 24.786486999999997 18.836486999999998
30.736487 18.836486999999998 12.886486999999999
30.736487 18.836486999999998 30.736487
18.836486999999998 12.886486999999999 24.786486999999997
24.786486999999997 24.786486999999997 30.736487
12.886486999999999 24.786486999999997 24.786486999999997
21.825335999999997 22.919979 30.132794
21.773455 20.69982 30.103229
27.775336 16.969979 30.132794
27.723454999999998 14.74982 30.103229
21.797638 16.969979 13.490179999999999
21.849518999999997 14.74982 13.519744999999999
27.747638 28.869978999999997 13.490179999999999
27.799519 26.64982 13.519744999999999
13.490179999999999 16.969979 15.875335999999999
13.519744999999999 14.74982 15.823455
13.490179999999999 28.869978999999997 21.825335999999997
13.519744999999999 26.64982 21.773455
30.132794 16.969979 27.747638
30.103229 14.74982 27.799519
30.132794 22.919979 15.847638
30.103229 20.69982 15.899518999999998
27.775336 13.490179999999999 28.869978999999997
27.723454999999998 13.519744999999999 26.64982
27.775336 13.490179999999999 22.919979
27.723454999999998 13.519744999999999 20.69982
21.825335999999997 30.132794 26.652995
21.773455 30.103229 28.873154
15.875335999999999 30.132794 14.752994999999999
15.823455 30.103229 16.973154
15.861486999999999 15.861486999999999 15.861486999999999
15.861486999999999 15.861486999999999 21.811487
15.861486999999999 15.861486999999999 27.761487
15.861486999999999 21.811487 15.861486999999999
15.861486999999999 21.811487 21.811487
15.861486999999999 21.811487 27.761487
15.861486999999999 27.761487 15.861486999999999
15.861486999999999 27.761487 21.811487
15.861486999999999 27.761487 27.761487
21.811487 15.861486999999999 15.861486999999999
21.811487 15.861486999999999 21.811487
21.811487 15.861486999999999 27.761487
21.811487 21.811487 15.861486999999999
21.811487 21.811487 21.811487
21.811487 21.811487 27.761487
21.811487 27.761487 15.861486999999999
21.811487 27.761487 21.811487
21.811487 27.761487 27.761487
27.761487 15.861486999999999 15.861486999999999
27.761487 15.861486999999999 21.811487
27.761487 15.861486999999999 27.761487
27.761487 21.811487 15.861486999999999
27.761487 21.811487 21.811487
27.761487 21.811487 27.761487
27.761487 27.761487 15.861486999999999
27.761487 27.761487 21.811487
27.761487 27.761487 27.761487
