3_train/190_cspbbr3_MA-SDS_3_0.20\190_cspbbr3_MA-SDS_3_0.20.xyz
1.0
61.921354 0 0
0 61.921354 0
0 0 61.921354
Br C Cs H N O Pb S 
96 154 44 360 10 36 27 12 
Cartesian
25.010677 25.010677 22.035677
22.035677 25.010677 25.010677
25.010677 25.010677 27.985677
25.010677 22.035677 30.960677
25.010677 25.010677 33.935677
25.010677 22.035677 36.910677
22.035677 25.010677 36.910677
25.010677 25.010677 39.885677
25.010677 27.985677 25.010677
22.035677 30.960677 25.010677
25.010677 30.960677 27.985677
25.010677 27.985677 30.960677
22.035677 30.960677 30.960677
25.010677 30.960677 33.935677
25.010677 27.985677 36.910677
22.035677 30.960677 36.910677
25.010677 33.935677 25.010677
22.035677 36.910677 25.010677
25.010677 36.910677 27.985677
25.010677 33.935677 30.960677
25.010677 36.910677 33.935677
25.010677 33.935677 36.910677
22.035677 36.910677 36.910677
25.010677 36.910677 39.885677
25.010677 39.885677 25.010677
25.010677 39.885677 30.960677
30.960677 25.010677 22.035677
30.960677 22.035677 25.010677
27.985677 25.010677 25.010677
30.960677 25.010677 27.985677
30.960677 22.035677 30.960677
27.985677 25.010677 30.960677
30.960677 25.010677 33.935677
27.985677 25.010677 36.910677
30.960677 25.010677 39.885677
30.960677 30.960677 22.035677
30.960677 27.985677 25.010677
27.985677 30.960677 25.010677
30.960677 30.960677 27.985677
30.960677 27.985677 30.960677
27.985677 30.960677 30.960677
30.960677 30.960677 33.935677
30.960677 27.985677 36.910677
27.985677 30.960677 36.910677
30.960677 30.960677 39.885677
30.960677 36.910677 22.035677
30.960677 33.935677 25.010677
27.985677 36.910677 25.010677
30.960677 36.910677 27.985677
30.960677 33.935677 30.960677
27.985677 36.910677 30.960677
30.960677 36.910677 33.935677
30.960677 33.935677 36.910677
27.985677 36.910677 36.910677
30.960677 36.910677 39.885677
30.960677 39.885677 25.010677
30.960677 39.885677 36.910677
36.910677 25.010677 22.035677
36.910677 22.035677 25.010677
33.935677 25.010677 25.010677
36.910677 25.010677 27.985677
36.910677 22.035677 30.960677
33.935677 25.010677 30.960677
36.910677 25.010677 33.935677
36.910677 22.035677 36.910677
33.935677 25.010677 36.910677
36.910677 25.010677 39.885677
36.910677 30.960677 22.035677
36.910677 27.985677 25.010677
33.935677 30.960677 25.010677
36.910677 30.960677 27.985677
36.910677 27.985677 30.960677
33.935677 30.960677 30.960677
36.910677 30.960677 33.935677
36.910677 27.985677 36.910677
33.935677 30.960677 36.910677
36.910677 30.960677 39.885677
36.910677 36.910677 22.035677
36.910677 33.935677 25.010677
33.935677 36.910677 25.010677
36.910677 36.910677 27.985677
36.910677 33.935677 30.960677
33.935677 36.910677 30.960677
36.910677 36.910677 33.935677
36.910677 33.935677 36.910677
33.935677 36.910677 36.910677
36.910677 39.885677 25.010677
36.910677 39.885677 30.960677
36.910677 39.885677 36.910677
39.885677 25.010677 25.010677
39.885677 25.010677 36.910677
39.885677 30.960677 25.010677
39.885677 30.960677 30.960677
39.885677 36.910677 25.010677
39.885677 36.910677 30.960677
39.885677 36.910677 36.910677
26.123088 31.700677 42.27402
24.787046 32.119492 42.766763
24.790211 31.999926000000002 44.316304
23.43548 32.429371 44.885816
23.405883 32.351684 46.411606
22.066568 32.803463 46.994440000000004
22.038772 32.763187 48.521183
20.713229 33.241196 49.110575000000004
20.692104 33.234574 50.638156
19.374219 33.736272 51.226103
19.347671 33.750941 52.754432
18.025292999999998 34.264684 53.321368
38.023088 37.650677 42.27402
36.687046 38.069492 42.766763
36.690211 37.949926 44.316304
35.335480000000004 38.379371 44.885816
35.305883 38.301683999999995 46.411606
33.966568 38.753462999999996 46.994440000000004
33.938772 38.713187000000005 48.521183
32.613229000000004 39.191196000000005 49.110575000000004
32.592104 39.184574 50.638156
31.274219000000002 39.686272 51.226103
31.247671 39.700941 52.754432
29.925293 40.214684 53.321368
23.898266 31.700677 19.647334
25.234308 32.119492 19.154591
25.231143 31.999926000000002 17.60505
26.585874 32.429371 17.035538
26.615471 32.351684 15.509748
27.954786 32.803463 14.926914
27.982582 32.763187 13.400171
29.308125 33.241196 12.810779
29.329250000000002 33.234574 11.283198
30.647135 33.736272 10.695250999999999
30.673683 33.750941 9.166922
31.996060999999997 34.264684 8.599986
23.898266 37.650677 19.647334
25.234308 38.069492 19.154591
25.231143 37.949926 17.60505
26.585874 38.379371 17.035538
26.615471 38.301683999999995 15.509748
27.954786 38.753462999999996 14.926914
27.982582 38.713187000000005 13.400171
29.308125 39.191196000000005 12.810779
29.329250000000002 39.184574 11.283198
30.647135 39.686272 10.695250999999999
30.673683 39.700941 9.166922
31.996060999999997 40.214684 8.599986
19.647334 25.750677 32.073088
19.154591 26.169491999999998 30.737046
17.60505 26.049926 30.740211000000002
17.035538 26.479371 29.38548
15.509748 26.401684 29.355883
14.926914 26.853462999999998 28.016568
13.400171 26.813187 27.988772
12.810779 27.291196 26.663229
11.283198 27.284574 26.642104
10.695250999999999 27.786272 25.324219
9.166922 27.800941 25.297671
8.599986 28.314684 23.975293
19.647334 37.650677 32.073088
19.154591 38.069492 30.737046
17.60505 37.949926 30.740211000000002
17.035538 38.379371 29.38548
15.509748 38.301683999999995 29.355883
14.926914 38.753462999999996 28.016568
13.400171 38.713187000000005 27.988772
12.810779 39.191196000000005 26.663229
11.283198 39.184574 26.642104
10.695250999999999 39.686272 25.324219
9.166922 39.700941 25.297671
8.599986 40.214684 23.975293
42.27402 31.700677 35.798266
42.766763 32.119492 37.134308
44.316304 31.999926000000002 37.131143
44.885816 32.429371 38.485873999999995
46.411606 32.351684 38.515471
46.994440000000004 32.803463 39.854786000000004
48.521183 32.763187 39.882582
49.110575000000004 33.241196 41.208124999999995
50.638156 33.234574 41.22925
51.226103 33.736272 42.547135
52.754432 33.750941 42.573683
53.321368 34.264684 43.896061
42.27402 25.750677 29.848266
42.766763 26.169491999999998 31.184308
44.316304 26.049926 31.181143
44.885816 26.479371 32.535874
46.411606 26.401684 32.565471
46.994440000000004 26.853462999999998 33.904786
48.521183 26.813187 33.932582
49.110575000000004 27.291196 35.258125
50.638156 27.284574 35.27925
51.226103 27.786272 36.597135
52.754432 27.800941 36.623683
53.321368 28.314684 37.946061
26.123088 19.647334 25.750677
24.787046 19.154591 26.169491999999998
24.790211 17.60505 26.049926
23.43548 17.035538 26.479371
23.405883 15.509748 26.401684
22.066568 14.926914 26.853462999999998
22.038772 13.400171 26.813187
20.713229 12.810779 27.291196
20.692104 11.283198 27.284574
19.374219 10.695250999999999 27.786272
19.347671 9.166922 27.800941
18.025292999999998 8.599986 28.314684
32.073088 19.647334 37.650677
30.737046 19.154591 38.069492
30.740211000000002 17.60505 37.949926
29.38548 17.035538 38.379371
29.355883 15.509748 38.301683999999995
28.016568 14.926914 38.753462999999996
27.988772 13.400171 38.713187000000005
26.663229 12.810779 39.191196000000005
26.642104 11.283198 39.184574
25.324219 10.695250999999999 39.686272
25.297671 9.166922 39.700941
23.975293 8.599986 40.214684
32.073088 42.27402 30.220677000000002
30.737046 42.766763 29.801862
30.740211000000002 44.316304 29.921428
29.38548 44.885816 29.491982999999998
29.355883 46.411606 29.56967
28.016568 46.994440000000004 29.117891
27.988772 48.521183 29.158167
26.663229 49.110575000000004 28.680158
26.642104 50.638156 28.68678
25.324219 51.226103 28.185082
25.297671 52.754432 28.170413
23.975293 53.321368 27.65667
26.123088 42.27402 36.170677
24.787046 42.766763 35.751862
24.790211 44.316304 35.871428
23.43548 44.885816 35.441983
23.405883 46.411606 35.51967
22.066568 46.994440000000004 35.067891
22.038772 48.521183 35.108167
20.713229 49.110575000000004 34.630158
20.692104 50.638156 34.63678
19.374219 51.226103 34.135082
19.347671 52.754432 34.120413
18.025292999999998 53.321368 33.60667
20.560016 27.985677 33.935677
20.992227 33.935677 20.992227
20.992227 40.929127 33.935677
27.985677 20.560016 27.985677
27.985677 33.935677 41.361338
27.985677 41.361338 33.935677
33.935677 20.992227 40.929127
33.935677 41.361338 27.985677
41.361338 27.985677 27.985677
41.361338 33.935677 33.935677
22.035677 22.035677 27.985677
22.035677 22.035677 33.935677
22.035677 27.985677 22.035677
22.035677 27.985677 27.985677
22.035677 27.985677 39.885677
22.035677 33.935677 27.985677
22.035677 33.935677 33.935677
22.035677 33.935677 39.885677
22.035677 39.885677 27.985677
27.985677 22.035677 22.035677
27.985677 22.035677 39.885677
27.985677 27.985677 22.035677
27.985677 27.985677 27.985677
27.985677 27.985677 33.935677
27.985677 27.985677 39.885677
27.985677 33.935677 22.035677
27.985677 33.935677 27.985677
27.985677 33.935677 33.935677
27.985677 39.885677 22.035677
27.985677 39.885677 27.985677
27.985677 39.885677 39.885677
33.935677 22.035677 22.035677
33.935677 22.035677 27.985677
33.935677 22.035677 33.935677
33.935677 27.985677 22.035677
33.935677 27.985677 27.985677
33.935677 27.985677 33.935677
33.935677 33.935677 22.035677
33.935677 33.935677 27.985677
33.935677 33.935677 33.935677
33.935677 33.935677 39.885677
33.935677 39.885677 22.035677
33.935677 39.885677 33.935677
33.935677 39.885677 39.885677
39.885677 22.035677 27.985677
39.885677 22.035677 33.935677
39.885677 27.985677 22.035677
39.885677 27.985677 33.935677
39.885677 27.985677 39.885677
39.885677 33.935677 22.035677
39.885677 33.935677 27.985677
39.885677 33.935677 39.885677
39.885677 39.885677 27.985677
39.885677 39.885677 33.935677
26.373770999999998 30.636599 42.343854
26.967907 32.364449 42.488031
23.996012999999998 31.476835 42.353629
24.57327 33.160877 42.484691
25.590457 32.630559 44.73818
25.010677 30.960677 44.611813
22.640158 31.792107 44.461988
23.214005 33.461141 44.562222
23.619782999999998 31.317251 46.735351
24.2153 32.977962 46.828312000000004
21.25655 32.168955 46.592012000000004
21.847360000000002 33.830589 46.650842000000004
22.246828999999998 31.734189999999998 48.866024
22.860787000000002 33.387178 48.916616999999995
19.892009 32.608439000000004 48.727852
20.501719 34.263224 48.746959
20.893417 32.210901 51.002981
21.52294 33.85834 51.015509
18.544891 33.10841 50.851723
19.173661 34.755798999999996 50.848436
19.545842999999998 32.731761 53.129804
20.180363 34.375234 53.123032
17.181561 33.639575 52.988982
17.823347 35.293356 52.983452
18.023088 34.269261 54.421354
38.273770999999996 36.586599 42.343854
38.867907 38.314448999999996 42.488031
35.896012999999996 37.426835 42.353629
36.47327 39.110877 42.484691
37.490457 38.580559 44.73818
36.910677 36.910677 44.611813
34.540158 37.742107 44.461988
35.114005 39.411141 44.562222
35.519783000000004 37.267251 46.735351
36.1153 38.927962 46.828312000000004
33.156549999999996 38.118955 46.592012000000004
33.74736 39.780589 46.650842000000004
34.146829 37.68419 48.866024
34.760787 39.337177999999994 48.916616999999995
31.792009 38.558439 48.727852
32.401719 40.213224 48.746959
32.793417 38.160900999999996 51.002981
33.42294 39.80834 51.015509
30.444891 39.058409999999995 50.851723
31.073661 40.705799 50.848436
31.445843 38.681760999999995 53.129804
32.080363 40.325233999999995 53.123032
29.081561 39.589574999999996 52.988982
29.723347 41.243356 52.983452
29.923088 40.219261 54.421354
23.647582999999997 30.636599 19.5775
23.053447 32.364449 19.433323
26.025340999999997 31.476835 19.567725
25.448084 33.160877 19.436663
24.430897 32.630559 17.183174
25.010677 30.960677 17.309541
27.381196 31.792107 17.459366
26.807349 33.461141 17.359132
26.401571 31.317251 15.186003
25.806054 32.977962 15.093042
28.764803999999998 32.168955 15.329342
28.173994 33.830589 15.270512
27.774525 31.734189999999998 13.05533
27.160567 33.387178 13.004737
30.129345 32.608439000000004 13.193502
29.519635 34.263224 13.174395
29.127937 32.210901 10.918372999999999
28.498414 33.85834 10.905845
31.476463 33.10841 11.069631
30.847693 34.755798999999996 11.072918
30.475510999999997 32.731761 8.791549999999999
29.840991 34.375234 8.798321999999999
32.839793 33.639575 8.932371999999999
32.198007000000004 35.293356 8.937902
31.998266 34.269261 7.5
23.647582999999997 36.586599 19.5775
23.053447 38.314448999999996 19.433323
26.025340999999997 37.426835 19.567725
25.448084 39.110877 19.436663
24.430897 38.580559 17.183174
25.010677 36.910677 17.309541
27.381196 37.742107 17.459366
26.807349 39.411141 17.359132
26.401571 37.267251 15.186003
25.806054 38.927962 15.093042
28.764803999999998 38.118955 15.329342
28.173994 39.780589 15.270512
27.774525 37.68419 13.05533
27.160567 39.337177999999994 13.004737
30.129345 38.558439 13.193502
29.519635 40.213224 13.174395
29.127937 38.160900999999996 10.918372999999999
28.498414 39.80834 10.905845
31.476463 39.058409999999995 11.069631
30.847693 40.705799 11.072918
30.475510999999997 38.681760999999995 8.791549999999999
29.840991 40.325233999999995 8.798321999999999
32.839793 39.589574999999996 8.932371999999999
32.198007000000004 41.243356 8.937902
31.998266 40.219261 7.5
19.5775 24.686599 32.323771
19.433323 26.414448999999998 32.917907
19.567725 25.526835 29.946013
19.436663 27.210877 30.52327
17.183174 26.680559 31.540457
17.309541 25.010677 30.960677
17.459366 25.842107 28.590158
17.359132 27.511141 29.164005
15.186003 25.367251 29.569783
15.093042 27.027962 30.165300000000002
15.329342 26.218955 27.20655
15.270512 27.880589 27.797359999999998
13.05533 25.78419 28.196829
13.004737 27.437178 28.810786999999998
13.193502 26.658439 25.842008999999997
13.174395 28.313223999999998 26.451719
10.918372999999999 26.260901 26.843417
10.905845 27.90834 27.47294
11.069631 27.15841 24.494891
11.072918 28.805799 25.123661
8.791549999999999 26.781761 25.495843
8.798321999999999 28.425234 26.130363
8.932371999999999 27.689574999999998 23.131560999999998
8.937902 29.343356 23.773347
7.5 28.319261 23.973088
19.5775 36.586599 32.323771
19.433323 38.314448999999996 32.917907
19.567725 37.426835 29.946013
19.436663 39.110877 30.52327
17.183174 38.580559 31.540457
17.309541 36.910677 30.960677
17.459366 37.742107 28.590158
17.359132 39.411141 29.164005
15.186003 37.267251 29.569783
15.093042 38.927962 30.165300000000002
15.329342 38.118955 27.20655
15.270512 39.780589 27.797359999999998
13.05533 37.68419 28.196829
13.004737 39.337177999999994 28.810786999999998
13.193502 38.558439 25.842008999999997
13.174395 40.213224 26.451719
10.918372999999999 38.160900999999996 26.843417
10.905845 39.80834 27.47294
11.069631 39.058409999999995 24.494891
11.072918 40.705799 25.123661
8.791549999999999 38.681760999999995 25.495843
8.798321999999999 40.325233999999995 26.130363
8.932371999999999 39.589574999999996 23.131560999999998
8.937902 41.243356 23.773347
7.5 40.219261 23.973088
42.343854 30.636599 35.547583
42.488031 32.364449 34.953447
42.353629 31.476835 37.925341
42.484691 33.160877 37.348084
44.73818 32.630559 36.330897
44.611813 30.960677 36.910677
44.461988 31.792107 39.281196
44.562222 33.461141 38.707349
46.735351 31.317251 38.301570999999996
46.828312000000004 32.977962 37.706054
46.592012000000004 32.168955 40.664804000000004
46.650842000000004 33.830589 40.073994
48.866024 31.734189999999998 39.674525
48.916616999999995 33.387178 39.060567
48.727852 32.608439000000004 42.029345
48.746959 34.263224 41.419635
51.002981 32.210901 41.027937
51.015509 33.85834 40.398414
50.851723 33.10841 43.376463
50.848436 34.755798999999996 42.747693
53.129804 32.731761 42.375511
53.123032 34.375234 41.740991
52.988982 33.639575 44.739793
52.983452 35.293356 44.098006999999996
54.421354 34.269261 43.898266
42.343854 24.686599 29.597583
42.488031 26.414448999999998 29.003447
42.353629 25.526835 31.975341
42.484691 27.210877 31.398083999999997
44.73818 26.680559 30.380896999999997
44.611813 25.010677 30.960677
44.461988 25.842107 33.331196
44.562222 27.511141 32.757349
46.735351 25.367251 32.351571
46.828312000000004 27.027962 31.756054
46.592012000000004 26.218955 34.714804
46.650842000000004 27.880589 34.123993999999996
48.866024 25.78419 33.724525
48.916616999999995 27.437178 33.110567
48.727852 26.658439 36.079345
48.746959 28.313223999999998 35.469635
51.002981 26.260901 35.077937
51.015509 27.90834 34.448414
50.851723 27.15841 37.426463
50.848436 28.805799 36.797692999999995
53.129804 26.781761 36.425511
53.123032 28.425234 35.790991
52.988982 27.689574999999998 38.789793
52.983452 29.343356 38.148007
54.421354 28.319261 37.948266000000004
26.373770999999998 19.5775 24.686599
26.967907 19.433323 26.414448999999998
23.996012999999998 19.567725 25.526835
24.57327 19.436663 27.210877
25.590457 17.183174 26.680559
25.010677 17.309541 25.010677
22.640158 17.459366 25.842107
23.214005 17.359132 27.511141
23.619782999999998 15.186003 25.367251
24.2153 15.093042 27.027962
21.25655 15.329342 26.218955
21.847360000000002 15.270512 27.880589
22.246828999999998 13.05533 25.78419
22.860787000000002 13.004737 27.437178
19.892009 13.193502 26.658439
20.501719 13.174395 28.313223999999998
20.893417 10.918372999999999 26.260901
21.52294 10.905845 27.90834
18.544891 11.069631 27.15841
19.173661 11.072918 28.805799
19.545842999999998 8.791549999999999 26.781761
20.180363 8.798321999999999 28.425234
17.181561 8.932371999999999 27.689574999999998
17.823347 8.937902 29.343356
18.023088 7.5 28.319261
32.323771 19.5775 36.586599
32.917907 19.433323 38.314448999999996
29.946013 19.567725 37.426835
30.52327 19.436663 39.110877
31.540457 17.183174 38.580559
30.960677 17.309541 36.910677
28.590158 17.459366 37.742107
29.164005 17.359132 39.411141
29.569783 15.186003 37.267251
30.165300000000002 15.093042 38.927962
27.20655 15.329342 38.118955
27.797359999999998 15.270512 39.780589
28.196829 13.05533 37.68419
28.810786999999998 13.004737 39.337177999999994
25.842008999999997 13.193502 38.558439
26.451719 13.174395 40.213224
26.843417 10.918372999999999 38.160900999999996
27.47294 10.905845 39.80834
24.494891 11.069631 39.058409999999995
25.123661 11.072918 40.705799
25.495843 8.791549999999999 38.681760999999995
26.130363 8.798321999999999 40.325233999999995
23.131560999999998 8.932371999999999 39.589574999999996
23.773347 8.937902 41.243356
23.973088 7.5 40.219261
32.323771 42.343854 31.284755
32.917907 42.488031 29.556905
29.946013 42.353629 30.444519
30.52327 42.484691 28.760477
31.540457 44.73818 29.290795
30.960677 44.611813 30.960677
28.590158 44.461988 30.129247
29.164005 44.562222 28.460213
29.569783 46.735351 30.604103000000002
30.165300000000002 46.828312000000004 28.943392
27.20655 46.592012000000004 29.752399
27.797359999999998 46.650842000000004 28.090764999999998
28.196829 48.866024 30.187164
28.810786999999998 48.916616999999995 28.534176
25.842008999999997 48.727852 29.312915
26.451719 48.746959 27.65813
26.843417 51.002981 29.710453
27.47294 51.015509 28.063014
24.494891 50.851723 28.812944
25.123661 50.848436 27.165554999999998
25.495843 53.129804 29.189593
26.130363 53.123032 27.546120000000002
23.131560999999998 52.988982 28.281779
23.773347 52.983452 26.627997999999998
23.973088 54.421354 27.652093
26.373770999999998 42.343854 37.234755
26.967907 42.488031 35.506905
23.996012999999998 42.353629 36.394519
24.57327 42.484691 34.710477
25.590457 44.73818 35.240795
25.010677 44.611813 36.910677
22.640158 44.461988 36.079247
23.214005 44.562222 34.410213
23.619782999999998 46.735351 36.554103
24.2153 46.828312000000004 34.893392
21.25655 46.592012000000004 35.702399
21.847360000000002 46.650842000000004 34.040765
22.246828999999998 48.866024 36.137164
22.860787000000002 48.916616999999995 34.484176
19.892009 48.727852 35.262915
20.501719 48.746959 33.60813
20.893417 51.002981 35.660453000000004
21.52294 51.015509 34.013014
18.544891 50.851723 34.762944
19.173661 50.848436 33.115555
19.545842999999998 53.129804 35.139593
20.180363 53.123032 33.49612
17.181561 52.988982 34.231779
17.823347 52.983452 32.577998
18.023088 54.421354 33.602092999999996
20.226095 27.755795 32.922129
20.226095 27.22286 34.641534
20.226095 28.978376 34.243367
22.410419 28.197537 34.869768
22.410419 28.688693 33.285155
22.410419 27.0708 33.652108
21.369649 33.363608 20.14257
20.09902 33.470282 21.413199
20.799659 34.973141 20.71256
21.735218 34.462899 22.866101
22.906236999999997 34.364588 21.695083
22.260524 32.979545 22.340795
21.476845 41.88598 33.732682
20.271433000000002 40.680569 33.154458
20.520049999999998 40.929186 34.919891
21.636426999999998 38.956461000000004 34.122759
22.74734 40.067374 34.655652
22.518213 39.838246999999996 33.028620000000004
29.016953 20.226095 28.114497
27.358477 20.226095 28.814377999999998
27.581601 20.226095 27.028156
27.035248 22.410419 27.866955
28.563708 22.410419 27.221942
28.358075 22.410419 28.868133999999998
28.940891 33.526177000000004 41.695259
27.862707999999998 34.967667 41.695259
27.153432 33.313187 41.695259
27.105346 34.313074 39.510935
28.099007 32.98459 39.510935
28.752678 34.509367 39.510935
28.052858999999998 41.695259 32.89856
27.053916 41.695259 34.396054
28.850256 41.695259 34.512417
27.923762 39.510935 34.891489
28.844392 39.510935 33.511391
27.188876999999998 39.510935 33.404151
33.409212 21.389734 41.798868999999996
33.422881000000004 20.116905 40.526039999999995
34.974938 20.76169 41.170825
34.42087 21.716708 39.036743
34.408272 22.889754 40.209789
32.977889 22.295517 39.615550999999996
34.380508 41.695259 27.046395
32.89982 41.695259 28.070082
34.526703 41.695259 28.840553
33.525718 39.510935 28.851323999999998
34.890329 39.510935 27.907888
33.390984 39.510935 27.197819
41.695259 28.975676 28.301948
41.695259 27.216779 28.684905999999998
41.695259 27.764575999999998 26.970178
39.510935 27.073289 27.6942
39.510935 28.694297 27.341264
39.510935 28.189445 28.921567
41.695259 34.799316 33.357531
41.695259 34.004547 34.972683
41.695259 33.003168 33.476817
39.510935 33.139742999999996 34.468499
39.510935 33.872206 32.979967
39.510935 34.795082 34.358565
22.035677 27.985677 33.935677
22.035677 33.935677 22.035677
22.035677 39.885677 33.935677
27.985677 22.035677 27.985677
27.985677 33.935677 39.885677
27.985677 39.885677 33.935677
33.935677 22.035677 39.885677
33.935677 39.885677 27.985677
39.885677 27.985677 27.985677
39.885677 33.935677 33.935677
25.829603 33.306065000000004 40.063845
25.010677 30.960677 39.885677
27.463162 31.4194 39.989682
37.729603 39.256065 40.063845
36.910677 36.910677 39.885677
39.363162 37.3694 39.989682
24.191751 33.306065000000004 21.857509
25.010677 30.960677 22.035677
22.558192 31.4194 21.931672
24.191751 39.256065 21.857509
25.010677 36.910677 22.035677
22.558192 37.3694 21.931672
21.857509 27.356065 31.779603
22.035677 25.010677 30.960677
21.931672 25.4694 33.413162
21.857509 39.256065 31.779603
22.035677 36.910677 30.960677
21.931672 37.3694 33.413162
40.063845 33.306065000000004 36.091751
39.885677 30.960677 36.910677
39.989682 31.4194 34.458192
40.063845 27.356065 30.141751
39.885677 25.010677 30.960677
39.989682 25.4694 28.508192
25.829603 21.857509 27.356065
25.010677 22.035677 25.010677
27.463162 21.931672 25.4694
31.779603 21.857509 39.256065
30.960677 22.035677 36.910677
33.413162 21.931672 37.3694
31.779603 40.063845 28.615289
30.960677 39.885677 30.960677
33.413162 39.989682 30.501953999999998
25.829603 40.063845 34.565289
25.010677 39.885677 36.910677
27.463162 39.989682 36.451954
25.010677 25.010677 25.010677
25.010677 25.010677 30.960677
25.010677 25.010677 36.910677
25.010677 30.960677 25.010677
25.010677 30.960677 30.960677
25.010677 30.960677 36.910677
25.010677 36.910677 25.010677
25.010677 36.910677 30.960677
25.010677 36.910677 36.910677
30.960677 25.010677 25.010677
30.960677 25.010677 30.960677
30.960677 25.010677 36.910677
30.960677 30.960677 25.010677
30.960677 30.960677 30.960677
30.960677 30.960677 36.910677
30.960677 36.910677 25.010677
30.960677 36.910677 30.960677
30.960677 36.910677 36.910677
36.910677 25.010677 25.010677
36.910677 25.010677 30.960677
36.910677 25.010677 36.910677
36.910677 30.960677 25.010677
36.910677 30.960677 30.960677
36.910677 30.960677 36.910677
36.910677 36.910677 25.010677
36.910677 36.910677 30.960677
36.910677 36.910677 36.910677
26.093813 31.882013 40.191752
37.993813 37.832013 40.191752
23.927540999999998 31.882013 21.729602
23.927540999999998 37.832013 21.729602
21.729602 25.932012999999998 32.043813
21.729602 37.832013 32.043813
40.191752 31.882013 35.827541
40.191752 25.932012999999998 29.877541
26.093813 21.729602 25.932012999999998
32.043813 21.729602 37.832013
32.043813 40.191752 30.039341
26.093813 40.191752 35.989340999999996
