1_train/31_cspbbr3_methylammonium_3_0.50\31_cspbbr3_methylammonium_3_0.50.xyz
1.0
41.851702 0 0
0 41.851702 0
0 0 41.851702
Br C Cs H N Pb 
108 23 31 138 23 27 
Cartesian
26.744498999999998 14.924738999999999 11.739496999999998
27.068945 29.836968999999996 20.983928999999996
21.06445 26.99259 29.746574000000003
21.058544999999995 29.681589000000002 26.724736999999998
21.058009 29.753724999999996 21.081444999999995
26.673744999999997 11.899336 15.041029
20.771141 29.737091999999997 15.152652999999999
23.725249999999996 26.947967 20.912698
29.823425 20.901066 15.180622999999999
21.112978999999996 23.968025999999995 26.736669999999997
20.897903 26.791899 23.734642
26.694361 26.916261 23.857912999999996
29.851259 20.770596999999995 20.816193
18.01657 26.739211999999995 20.768192
21.1642 23.758994 20.843595999999998
20.938092999999995 26.696092 17.736733
26.759071 24.042966999999997 26.678188
24.030437 26.783592 26.701099
18.230168 26.835544999999996 15.008377999999999
20.901854 23.749441999999995 15.124470999999998
18.096230999999996 26.763709999999996 26.82777
23.721832 14.918062999999998 15.037327
29.717204000000002 14.914784 15.164817999999999
26.920499999999997 27.026843 18.099365
27.012094999999995 20.799064 29.960896999999996
23.782095999999996 21.062247 26.879509999999996
27.043113999999996 17.858790999999997 26.715176999999997
26.773634 21.011095999999995 23.670316
27.087184 26.962854999999998 11.988575999999998
23.862963999999998 20.778675 20.796521
26.786446999999995 23.781757999999996 15.117080999999999
26.946020999999995 17.902146000000002 21.183264
26.940582999999997 21.131507999999997 18.007550000000002
23.949047 26.980522 15.170784
29.733413999999996 15.122824 21.120174999999996
23.768535 20.999911999999995 14.73561
26.907337999999996 17.686757999999998 14.929599
26.838417 30.075375 26.870247
27.010391 20.808551 11.855151
21.052456 26.698139999999995 12.115381999999999
26.987395 15.087857 30.025897999999998
24.000096999999997 15.138311999999999 27.085769
26.713615999999995 12.059496999999999 27.094932999999997
26.776798999999997 15.039045999999999 23.752955999999998
23.888576 15.138074999999999 21.071678999999996
26.996246 11.971108 20.73162
26.751765999999996 14.871559999999999 18.153321999999996
30.042392 15.059339999999999 27.023384
26.852387999999998 24.128575999999995 21.003749
20.784134 18.119225999999998 26.843612999999998
20.887724 21.056728999999997 29.725682
15.127183999999998 23.850944999999996 26.782995
15.134652999999998 26.937677 23.686763999999997
11.908691 26.697970999999995 20.948631
14.931422999999999 23.841623999999996 20.709838999999995
14.909940999999998 26.72495 18.176156999999996
11.924914999999999 26.742242999999995 14.801138
15.137607 24.084033999999996 14.994667999999999
15.082856 26.762374 12.094323999999999
14.745913 20.922936 29.821185999999997
12.058924999999999 21.080832 26.708039999999997
14.850343999999998 18.094730999999996 26.770117999999997
15.128594999999999 21.035454 24.072037
12.059259999999998 21.093902999999997 20.818636999999995
29.861105000000002 20.961368999999998 27.070578999999995
14.898857999999999 18.047055 20.737603999999997
12.169065999999999 21.105184 15.047229
15.10769 17.998601 15.149517
14.765167 21.033069999999995 11.931928
14.822975999999999 15.109447 30.034661999999997
12.063011 15.171109999999999 26.71279
14.992894999999999 12.085693 27.151097
14.723550999999999 14.887393 23.847753999999995
12.153072 15.129432999999999 20.978741
14.793887 12.181551999999998 21.078350999999998
14.93311 14.767565 18.146322999999995
11.810747999999998 14.945229 15.128986999999999
15.024242999999998 12.187064999999999 14.816339999999999
15.033921 14.794289999999998 11.859426
15.136897 21.023759999999996 18.064371
14.880797999999999 27.030015999999996 29.794992999999998
11.829087 26.811768 26.98867
21.085733999999995 15.017961999999999 29.762701
18.004975 21.118953999999995 26.958618
26.975974 27.02167 29.943880999999998
20.694232999999997 20.781548 23.952055
17.823422 21.180442 20.962773
20.809585 17.873654000000002 20.672829999999998
21.049743999999997 20.92899 18.219251999999997
29.695239 26.715688999999998 14.900747999999998
18.131724 21.064827 14.914197
20.917662999999997 17.795622 14.721216
21.080436 20.908390999999995 12.152443
15.050248999999999 29.791617000000002 15.197560999999999
18.021810000000002 14.797921999999998 26.793358999999995
20.772607 11.917171 27.021617
26.862563 29.720931 14.763086
17.86601 15.112454999999999 21.072345999999996
14.734376 29.777397999999998 21.080366999999995
29.637729 27.078345 26.829550999999995
14.907319999999999 29.964618 27.022467
21.045774 14.876071 23.756965
20.839594999999996 15.128316 12.157290999999999
20.786375 12.076001999999999 15.071466999999998
29.698895 27.002967999999996 20.941195
20.761068 14.853599999999998 17.932845
21.111514 11.797728 20.969181
17.961661999999997 14.792103 14.982196
17.896133 10.582949 23.970999
17.987633 23.822527 31.325119
23.874265 10.890723 10.918688
10.93845 23.877590999999995 30.968431000000002
30.863363 23.949684999999995 30.984372
18.020398999999998 10.503972 17.929035
30.803893000000002 17.958644 10.964303999999998
10.58325 23.925508999999998 23.940000999999995
10.494772999999999 18.037079 23.910671999999998
17.929985000000002 10.973837999999999 30.974666999999997
23.860188 10.953805999999998 30.828077999999998
11.030956 10.962067999999999 23.934714999999997
10.556966 23.964073999999997 17.9088
31.282935000000002 23.84113 23.898095999999995
17.969734 31.272396 18.02158
10.600553999999999 17.973275 17.933937999999998
18.021389 31.389637999999998 23.850417999999998
10.891072 17.995978 30.845486
23.824880999999998 30.827343999999997 10.926257
10.902774999999998 17.965144 10.897716999999998
23.865237 30.918774 30.960426999999996
11.039809 10.936272999999998 17.895321
23.977899999999998 10.506075999999998 23.926161
29.886421999999996 24.384223 18.186467999999998
29.473987 18.164752999999997 18.167279
29.429482999999998 23.881811999999996 11.733213
30.106271 30.130915 24.165129999999998
30.247498999999998 18.286105999999997 23.668346
29.899188000000002 12.368488999999999 24.341771
29.529718000000003 11.889391 17.700955
29.689667 18.433425999999997 29.986601
23.798888999999996 30.107303 18.275432000000002
29.963743 29.473571 18.345912
18.077992000000002 29.626640000000002 11.676426
23.991409999999995 23.967706999999997 23.364407999999997
24.235523 24.174548 29.432262
12.177425 29.85548 18.271538
12.244204 29.699626000000002 23.620819999999995
17.559613 11.606629 12.247145
18.273438999999996 17.993561999999997 11.725541
18.294005999999996 17.837162 18.225527
17.663381 18.207389999999997 24.216620999999996
18.34126 18.014784999999996 29.579358
17.706372 24.064757 12.244428999999998
11.574456999999999 23.719009 11.721227999999998
18.215382999999996 23.603052999999996 23.932117999999996
17.655707999999997 24.38959 17.775146999999997
23.631859 23.639285 12.037346999999999
23.571371999999997 17.933002000000002 24.121472999999995
23.501548999999997 18.142491 17.608331
24.119209999999995 24.27357 18.15853
24.163019999999996 11.525549 17.702998
17.539777 30.052017 30.173856
23.572921 17.985321 11.723925
24.573828999999996 12.362998 24.556233999999996
12.881022 11.684961 24.281196
10.807775999999999 10.629083999999999 24.908493
11.341430999999998 10.160124999999999 23.28197
11.674029999999998 12.832991999999999 24.470662999999995
12.225838 12.299216 22.941534999999995
18.755747999999997 11.184990999999998 31.592875999999997
10.063730999999999 11.414067999999999 23.507186999999995
12.568586 11.909377 18.795623999999997
24.307184999999997 12.835152999999998 30.199461
12.368616999999999 18.858412 23.634873
18.881631 29.481029 23.730377999999995
23.327870999999995 30.505103 10.120538
23.489826 31.770685999999998 11.405686999999999
24.909796 31.034943999999996 10.640066
24.479174 30.170780999999998 12.807875999999998
22.972839999999998 12.348339999999999 24.155879
24.321711999999998 28.990707999999998 11.667440999999998
24.135971999999995 12.353162999999999 22.979296999999995
24.948982 10.756732999999999 31.163413
23.344153999999996 11.316063999999999 31.736294
23.486568999999996 10.050979 30.435164
22.924572999999995 12.176981 29.505491
24.473044 11.696648 29.056599999999996
22.977717 29.679133999999998 12.311684999999999
17.007568999999997 11.002497 31.451597
10.204343 24.311775999999995 18.866054
17.195835 11.8349 29.162763999999996
17.151345999999997 31.669083 17.314290999999997
18.1543 29.479684 17.028526
17.076181 29.500903 18.304767
18.713147 29.499204 18.565368
10.189601999999999 18.298522 18.930192999999996
10.181311999999998 18.564195999999995 17.134929999999997
18.944967999999996 31.619644 17.586272
10.219557 16.9131 17.784844999999997
12.396521 17.378833 18.676828
12.362119 18.871516 18.059222
18.361433999999996 31.652588 22.917201999999996
16.948507 31.649872000000002 24.072789999999998
18.600772999999997 31.680771 24.678857999999998
17.608004 29.460381999999996 24.823096999999997
12.350748999999999 17.604114 17.085662
17.750906999999998 31.633733999999997 18.947223
23.169502 10.215276 23.191576999999995
29.499363000000002 23.694463 22.981051
18.843243 12.020582 29.299796999999998
17.81694 12.903939999999999 30.262396000000003
23.601484999999997 10.162802 24.921011
12.372069 17.750557999999998 24.796884999999996
10.150566 24.49834 17.083202
10.15491 22.880113 17.872452
12.341603999999998 23.467253 17.10787
12.388556999999999 23.365238999999995 18.711796
12.393049999999999 24.828952 18.048508999999996
24.879864999999995 10.204590999999999 23.616971999999997
31.655389999999997 22.931759999999997 23.632746999999995
31.655582000000003 24.611072 23.181188
31.668444 24.188148999999996 24.936620999999995
29.463355999999997 24.843857 24.138038
29.478958 23.189138 24.590249999999997
18.078705999999997 10.017781 30.383134999999996
12.400621 17.247788 23.228941999999996
17.906557 12.403834 24.839875999999997
10.21702 18.191876 22.878656
28.981277999999996 18.29708 11.617738
30.069179 18.563274999999997 12.808606999999999
29.683715999999997 16.982984000000002 12.345070999999999
17.502065 24.820039 31.688778
17.366118999999998 23.063947 31.633350999999998
19.011243999999998 23.800039999999996 31.691753999999996
31.033549999999998 18.948378999999996 10.627452
18.391511 23.019278999999997 29.480582
16.983809 23.953767999999997 29.478085
23.92548 28.922528999999997 30.229884
24.396017999999998 11.367151999999999 10.040723999999999
24.482593 10.075968 11.338762
22.840846999999997 10.718153 10.776266
23.431112 11.648943999999998 12.841999999999999
18.481367 24.712306999999996 29.479250999999998
30.567197 17.327666999999998 10.162481999999999
31.819190999999996 17.566923 11.372029
12.232280999999999 18.87511 29.547272
11.559268 12.964291 17.924695
12.607679 11.950373999999998 17.09852
11.432519999999998 10.000271999999999 17.945076
11.386052999999999 18.434911 10.084947
10.679068999999998 16.938322999999997 10.718666999999998
10.059083 18.494174 11.375034
11.648551 17.467481999999997 12.836063
12.252578 18.931619999999995 12.226925
12.865505999999998 17.440013999999998 11.697605
10.324912999999999 11.081727999999998 17.067845
11.292539 18.564009 31.744073999999998
10.084717 18.365415999999996 30.479217999999996
10.809346 16.91355 31.168540999999998
11.696456 17.426799 29.013080000000002
12.857147999999999 17.562998 30.210521999999997
23.370213 12.862597 11.711341999999998
24.814589999999995 12.283242999999999 12.231008999999998
23.061206 29.932662999999998 29.290321
10.381934 22.972881 30.780823999999996
24.833332999999996 30.768490999999997 31.448220999999997
10.168467999999999 24.278101 24.853192
10.185528 24.540501 23.104237999999995
10.183055 22.856691999999995 23.810263999999997
12.410976999999999 23.516442999999995 23.043169999999996
12.35628 23.300827999999996 24.694069
12.376949 24.811563 24.012465999999996
22.997329 30.755851999999997 31.53474
17.047970999999997 10.195445 24.35631
17.975659 10.218767999999999 22.841871999999995
18.851067 10.155422 24.437151999999998
18.774901 12.393239 23.436530999999995
10.345699 11.053336 18.840094999999998
17.173644 12.378853 23.362575
10.211111999999998 18.702478 24.614677999999998
18.217931999999998 12.361049999999999 18.909086000000002
10.189046 16.990094999999997 24.199276999999995
18.565768999999996 12.382005999999999 17.242936999999998
17.654065 10.230167999999999 16.961799
11.465319 23.875727999999995 31.892426
10.322199 24.773776999999995 30.766945999999997
12.591327 24.711326999999997 29.890518999999998
11.5901 23.927352999999997 28.918213
12.63051 23.101031999999996 29.923035999999996
24.686955999999995 29.973833 29.176941
30.734034 23.0349 31.57517
31.883096000000002 23.803041 30.36678
30.77935 24.848143 31.438426
29.964733000000003 24.653901999999995 29.20348
28.909087999999997 23.957718999999997 30.242736
29.898669999999996 23.00163 29.281985
23.867325 31.85022 30.413491999999998
18.937657 10.171292 18.191145
17.213327999999997 10.193702 18.725584999999995
17.025464 12.340122 17.738273999999997
17.381394999999998 29.500320000000002 23.172492
17.888416999999997 29.913790999999996 17.955700999999998
23.955008 12.047388 12.056453
11.983586999999998 23.841449999999995 23.947635
18.001809 23.844896 29.837269999999997
29.870720999999996 23.848183 29.897112
17.909574999999997 12.044175999999998 17.905583
23.861374999999995 12.039373 29.932784999999996
29.884639999999997 18.017396999999995 11.932697
11.946824 12.053814999999998 17.905454
29.89226 23.9518 23.837168999999996
11.957196 18.014654999999998 17.946109999999997
17.972971 12.0764 23.937038
23.899305 11.944838999999998 23.962634
11.923494999999999 17.940202999999997 29.822007999999997
11.978931 17.972354 23.800557999999995
23.944919999999996 29.777676999999997 29.811904999999996
12.079443999999999 17.921646 12.016658999999999
17.994472000000002 12.067732 29.824976999999997
23.906368999999998 29.932926000000002 11.979714
17.92232 29.792459 23.983809
11.926214 23.887938999999996 18.009968
11.972911 23.964481 29.822680999999996
12.021422999999999 11.982012999999998 23.831644999999995
15.147554999999999 15.093867 15.132655999999999
14.875734999999999 27.161946 15.168007
26.687008999999996 21.189662999999996 20.857943
14.884099999999998 26.763304999999995 20.593067999999995
15.145532 26.955841 26.711515
27.089413999999998 15.08246 26.887743
20.747485999999995 14.67288 14.981596999999999
27.100589999999997 14.935985999999998 20.907035999999998
20.734958 15.041322999999998 20.815522
26.881453999999998 15.130723999999999 15.230801
20.785661999999995 14.967082999999999 27.060562999999995
20.882070999999996 20.712396999999996 15.143337999999998
21.071303999999998 26.929474 26.59979
20.862341 20.800607 21.170007
20.709465 20.866931 26.898618999999997
20.751531999999997 27.048448999999998 20.89403
27.054975 21.143465 26.839309
14.775906999999998 20.953255 26.982234
26.972933999999995 21.009335999999998 15.204941
20.720945 26.653877 14.786045999999999
26.713679 26.724460999999998 14.839718
14.734855 20.864593 15.044955
14.894552 15.224048999999999 20.829285999999996
26.822924999999998 27.051119999999997 21.211864999999996
27.044258 26.730694 26.685051
15.035148 21.145286 21.048625
15.067585 14.772822 27.026005999999995
