3_train/200_cspbbr3_MA-Pyr-2-COO_3_0.40\200_cspbbr3_MA-Pyr-2-COO_3_0.40.xyz
1.0
42.109188 0 0
0 42.109188 0
0 0 42.109188
Br C Cs H N O Pb 
84 139 35 210 43 48 27 
Cartesian
15.104593999999999 15.104593999999999 12.129593999999999
15.104593999999999 12.129593999999999 15.104593999999999
12.129593999999999 15.104593999999999 15.104593999999999
15.104593999999999 15.104593999999999 18.079594
15.104593999999999 15.104593999999999 24.029593999999996
15.104593999999999 12.129593999999999 27.004593999999997
15.104593999999999 15.104593999999999 29.979594
15.104593999999999 21.054594 12.129593999999999
15.104593999999999 18.079594 15.104593999999999
15.104593999999999 21.054594 18.079594
15.104593999999999 18.079594 21.054594
12.129593999999999 21.054594 21.054594
15.104593999999999 21.054594 24.029593999999996
15.104593999999999 18.079594 27.004593999999997
12.129593999999999 21.054594 27.004593999999997
15.104593999999999 21.054594 29.979594
15.104593999999999 27.004593999999997 12.129593999999999
15.104593999999999 24.029593999999996 15.104593999999999
12.129593999999999 27.004593999999997 15.104593999999999
15.104593999999999 27.004593999999997 18.079594
15.104593999999999 24.029593999999996 21.054594
12.129593999999999 27.004593999999997 21.054594
15.104593999999999 27.004593999999997 24.029593999999996
15.104593999999999 24.029593999999996 27.004593999999997
15.104593999999999 27.004593999999997 29.979594
21.054594 15.104593999999999 12.129593999999999
21.054594 12.129593999999999 15.104593999999999
18.079594 15.104593999999999 15.104593999999999
21.054594 15.104593999999999 18.079594
18.079594 15.104593999999999 21.054594
21.054594 15.104593999999999 24.029593999999996
18.079594 15.104593999999999 27.004593999999997
21.054594 18.079594 15.104593999999999
18.079594 21.054594 15.104593999999999
21.054594 21.054594 18.079594
21.054594 18.079594 21.054594
18.079594 21.054594 21.054594
21.054594 21.054594 24.029593999999996
21.054594 18.079594 27.004593999999997
18.079594 21.054594 27.004593999999997
21.054594 21.054594 29.979594
21.054594 27.004593999999997 12.129593999999999
21.054594 24.029593999999996 15.104593999999999
18.079594 27.004593999999997 15.104593999999999
21.054594 27.004593999999997 18.079594
21.054594 24.029593999999996 21.054594
18.079594 27.004593999999997 21.054594
21.054594 27.004593999999997 24.029593999999996
21.054594 24.029593999999996 27.004593999999997
18.079594 27.004593999999997 27.004593999999997
21.054594 29.979594 15.104593999999999
21.054594 29.979594 21.054594
21.054594 29.979594 27.004593999999997
27.004593999999997 12.129593999999999 15.104593999999999
24.029593999999996 15.104593999999999 15.104593999999999
27.004593999999997 15.104593999999999 18.079594
27.004593999999997 12.129593999999999 21.054594
24.029593999999996 15.104593999999999 21.054594
27.004593999999997 15.104593999999999 24.029593999999996
24.029593999999996 15.104593999999999 27.004593999999997
27.004593999999997 18.079594 15.104593999999999
24.029593999999996 21.054594 15.104593999999999
27.004593999999997 21.054594 18.079594
27.004593999999997 18.079594 21.054594
24.029593999999996 21.054594 21.054594
27.004593999999997 21.054594 24.029593999999996
27.004593999999997 18.079594 27.004593999999997
24.029593999999996 21.054594 27.004593999999997
27.004593999999997 21.054594 29.979594
27.004593999999997 24.029593999999996 15.104593999999999
24.029593999999996 27.004593999999997 15.104593999999999
27.004593999999997 27.004593999999997 18.079594
27.004593999999997 24.029593999999996 21.054594
24.029593999999996 27.004593999999997 21.054594
27.004593999999997 27.004593999999997 24.029593999999996
27.004593999999997 24.029593999999996 27.004593999999997
24.029593999999996 27.004593999999997 27.004593999999997
27.004593999999997 29.979594 15.104593999999999
27.004593999999997 29.979594 21.054594
29.979594 15.104593999999999 15.104593999999999
29.979594 15.104593999999999 27.004593999999997
29.979594 21.054594 15.104593999999999
29.979594 27.004593999999997 15.104593999999999
29.979594 27.004593999999997 27.004593999999997
26.547643 27.192785999999998 33.658679
26.009569 27.368812 32.376357
27.004593999999997 27.004593999999997 31.450865999999998
27.856735 26.714334 33.502663
27.004593999999997 27.004593999999997 29.979594
20.764556 15.504717 33.658679
20.399093999999998 15.93709 32.376357
21.054594 15.104593999999999 31.450865999999998
21.627339 14.410074 33.502663
21.054594 15.104593999999999 29.979594
21.548707 27.013129999999997 33.658679
22.112459 27.065016999999997 32.376357
21.054594 27.004593999999997 31.450865999999998
20.157229 26.932967999999995 33.502663
21.054594 27.004593999999997 29.979594
27.363144999999996 15.444684999999998 33.658679
27.743756999999995 15.863783 32.376357
27.004593999999997 15.104593999999999 31.450865999999998
26.391338999999995 14.445569999999998 33.502663
27.004593999999997 15.104593999999999 29.979594
20.754962999999996 20.661603 8.450508999999998
20.379151 20.238196 9.732831
21.054594 21.054594 10.658321999999998
21.643969 21.735057999999995 8.606525
21.054594 21.054594 12.129593999999999
27.416362999999997 21.327846 8.450508999999998
27.910074 21.6049 9.732831
27.004593999999997 21.054594 10.658321999999998
26.224939 20.604557 8.606525
27.004593999999997 21.054594 12.129593999999999
26.921253999999998 26.517485 8.450508999999998
26.784509 25.968112999999995 9.732831
27.004593999999997 27.004593999999997 10.658321999999998
27.211422999999996 27.880730999999997 8.606525
27.004593999999997 27.004593999999997 12.129593999999999
26.670361 14.740577 8.450508999999998
26.257487999999995 14.353219999999999 9.732831
27.004593999999997 15.104593999999999 10.658321999999998
27.653588999999997 15.728453 8.606525
27.004593999999997 15.104593999999999 12.129593999999999
8.450508999999998 15.149339999999999 21.546751
9.732831 15.242427 22.105181
10.658321999999998 15.104593999999999 21.054594
8.606525 14.967357999999999 20.164897
12.129593999999999 15.104593999999999 21.054594
8.450508999999998 26.898958999999998 26.521828999999997
9.732831 26.737114 25.979321
10.658321999999998 27.004593999999997 27.004593999999997
8.606525 27.251464 27.870301999999995
12.129593999999999 27.004593999999997 27.004593999999997
8.450508999999998 15.302178 26.551625
9.732831 15.489274 26.017299
10.658321999999998 15.104593999999999 27.004593999999997
8.606525 14.796805999999998 27.850561
12.129593999999999 15.104593999999999 27.004593999999997
8.450508999999998 21.028543 14.611094
9.732831 20.956699999999998 14.049536
10.658321999999998 21.054594 15.104593999999999
8.606525 21.157992999999998 15.998854999999999
12.129593999999999 21.054594 15.104593999999999
33.658679 21.12773 20.565849
32.376357 21.252958 20.013737999999996
31.450865999999998 21.054594 21.054594
33.502663 20.866130999999996 21.934863999999997
29.979594 21.054594 21.054594
33.658679 27.498627 21.042265999999998
32.376357 28.064067 21.070310999999997
31.450865999999998 27.004593999999997 21.054594
33.502663 26.105005 21.020908999999996
29.979594 27.004593999999997 21.054594
33.658679 14.895610999999999 20.606769
32.376357 14.695053999999999 20.077348999999998
31.450865999999998 15.104593999999999 21.054594
33.502663 15.433689999999999 21.892502
29.979594 15.104593999999999 21.054594
33.658679 20.974914999999996 27.492314999999998
32.376357 20.8423 28.042699
31.450865999999998 21.054594 27.004593999999997
33.502663 21.254835999999997 26.126928
29.979594 21.054594 27.004593999999997
14.943204 8.450508999999998 20.587502999999998
14.79866 9.732831 20.040131
15.104593999999999 10.658321999999998 21.054594
15.344975 8.606525 21.922126
15.104593999999999 12.129593999999999 21.054594
21.139106999999996 8.450508999999998 21.541500999999997
21.194136 9.732831 22.104954999999997
21.054594 10.658321999999998 21.054594
20.956230999999995 8.606525 20.159765
21.054594 12.129593999999999 21.054594
27.245582 8.450508999999998 26.573147999999996
27.557679 9.732831 26.100808999999998
27.004593999999997 10.658321999999998 27.004593999999997
26.517469999999996 8.606525 27.761631
27.004593999999997 12.129593999999999 27.004593999999997
20.573462 8.450508999999998 27.117433
20.01419 9.732831 27.205315
21.054594 10.658321999999998 27.004593999999997
21.942139999999995 8.606525 26.854076
21.054594 12.129593999999999 27.004593999999997
14.684512 33.658679 14.844302999999998
14.182408999999998 32.376357 14.582765
15.104593999999999 31.450865999999998 15.104593999999999
15.897891 33.502663 15.530123
15.104593999999999 29.979594 15.104593999999999
14.610773 33.658679 21.073617999999996
14.04825 32.376357 21.137462
15.104593999999999 31.450865999999998 21.054594
16.000236 33.502663 20.963932999999997
15.104593999999999 29.979594 21.054594
15.212803999999998 33.658679 26.522399999999998
15.295304999999999 32.376357 25.962308
15.104593999999999 31.450865999999998 27.004593999999997
14.962613999999999 33.502663 27.893546
15.104593999999999 29.979594 27.004593999999997
27.424614999999996 33.658679 26.744203
27.882245999999995 32.376357 26.410913
27.004593999999997 31.450865999999998 27.004593999999997
26.270533 33.502663 27.525697
27.004593999999997 29.979594 27.004593999999997
24.029593999999996 24.029593999999996 10.653932999999999
24.029593999999996 24.029593999999996 31.455255
24.029593999999996 31.023044 11.086143999999999
31.023044 18.079594 11.086143999999999
18.079594 24.029593999999996 31.455255
18.079594 31.455255 24.029593999999996
24.029593999999996 10.653932999999999 24.029593999999996
31.023044 31.023044 18.079594
18.079594 31.023044 11.086143999999999
11.086143999999999 18.079594 31.023044
11.086143999999999 18.079594 11.086143999999999
31.023044 31.023044 24.029593999999996
31.023044 11.086143999999999 24.029593999999996
11.086143999999999 11.086143999999999 18.079594
31.455255 24.029593999999996 24.029593999999996
11.086143999999999 24.029593999999996 31.023044
10.653932999999999 18.079594 18.079594
31.023044 11.086143999999999 18.079594
11.086143999999999 31.023044 24.029593999999996
12.129593999999999 12.129593999999999 24.029593999999996
12.129593999999999 18.079594 24.029593999999996
12.129593999999999 24.029593999999996 12.129593999999999
12.129593999999999 24.029593999999996 18.079594
12.129593999999999 29.979594 18.079594
18.079594 12.129593999999999 12.129593999999999
18.079594 12.129593999999999 18.079594
18.079594 12.129593999999999 24.029593999999996
18.079594 12.129593999999999 29.979594
18.079594 18.079594 18.079594
18.079594 18.079594 24.029593999999996
18.079594 18.079594 29.979594
18.079594 24.029593999999996 12.129593999999999
18.079594 24.029593999999996 18.079594
18.079594 24.029593999999996 24.029593999999996
18.079594 29.979594 18.079594
18.079594 29.979594 29.979594
24.029593999999996 12.129593999999999 12.129593999999999
24.029593999999996 12.129593999999999 18.079594
24.029593999999996 12.129593999999999 29.979594
24.029593999999996 18.079594 12.129593999999999
24.029593999999996 18.079594 18.079594
24.029593999999996 18.079594 24.029593999999996
24.029593999999996 18.079594 29.979594
24.029593999999996 24.029593999999996 18.079594
24.029593999999996 24.029593999999996 24.029593999999996
24.029593999999996 29.979594 18.079594
24.029593999999996 29.979594 24.029593999999996
24.029593999999996 29.979594 29.979594
29.979594 18.079594 18.079594
29.979594 18.079594 24.029593999999996
29.979594 18.079594 29.979594
29.979594 24.029593999999996 12.129593999999999
29.979594 24.029593999999996 18.079594
29.979594 24.029593999999996 29.979594
28.597273 26.431421 34.245388
26.060144 27.385992 34.609187999999996
25.020185999999995 27.723462999999995 32.106038
28.963498 26.262938999999996 31.73549
22.108967 13.780415 34.245388
20.451155999999997 15.925149999999999 34.609187999999996
19.743370999999996 16.758480999999996 32.106038
22.332147 13.444709999999999 31.73549
19.365222 26.898874 34.245388
22.072849999999995 27.029182999999996 34.609187999999996
23.16135 27.131982999999998 32.106038
18.962209 26.908238999999995 31.73549
25.830410999999998 13.885394 34.245388
27.73876 15.810604 34.609187999999996
28.471883 16.621733999999996 32.106038
25.526936 13.620045 31.73549
22.140684999999998 22.352885 7.8637999999999995
20.431486 20.248873 7.499999999999999
19.703753 19.432904 10.00315
22.371919 22.683093999999997 10.373698
25.553342999999998 20.183374999999998 7.8637999999999995
27.857126 21.611942999999997 7.499999999999999
28.811873999999996 22.144726 10.00315
25.226752999999995 19.947055999999996 10.373698
27.365181999999997 28.658417 7.8637999999999995
26.825933999999997 26.001832999999998 7.499999999999999
26.559317 24.941494999999996 10.00315
27.417017 29.058192 10.373698
28.204597999999997 16.298388 7.8637999999999995
26.310578999999997 14.359079 7.499999999999999
25.511440999999998 13.612903 10.00315
28.464993 16.606125 10.373698
7.8637999999999995 14.875278999999999 19.377522999999997
7.499999999999999 15.203783999999999 22.068304999999995
10.00315 15.386127 23.146336999999995
10.373698 14.855065999999999 18.974908
7.8637999999999995 27.440796 28.640099999999997
7.499999999999999 26.780043999999997 26.011102
10.00315 26.464985 24.964135
10.373698 27.510947 29.037072000000002
7.8637999999999995 14.498667 28.585102
7.499999999999999 15.505405999999999 26.068218
10.00315 15.864272999999999 25.035447999999995
10.373698 14.322660999999998 28.947770999999996
7.8637999999999995 21.220147999999995 16.789155
7.499999999999999 20.993916 14.08785
10.00315 20.852584999999998 13.00368
10.373698 21.225079 17.192247000000002
34.245388 20.728667 22.715595
34.609187999999996 21.212246999999998 20.048316
32.106038 21.456634 18.982635000000002
31.73549 20.685203 23.116366999999997
34.245388 25.312266 21.020275999999996
34.609187999999996 28.022979999999997 21.036181
32.106038 29.114849 21.092943999999996
31.73549 24.910007 21.046642999999996
34.245388 15.750321 22.619262999999997
34.609187999999996 14.680216 20.128661
32.106038 14.295331 19.105302000000002
31.73549 15.935448 22.977362999999997
34.245388 21.402749999999997 25.34811
34.609187999999996 20.883469999999996 28.008668999999998
32.106038 20.624825 29.070979
31.73549 21.451580999999997 24.947955999999998
15.584490999999998 7.8637999999999995 22.677816999999997
14.778578 7.499999999999999 20.089626
14.501949999999999 10.00315 19.031855999999998
15.731463999999999 10.373698 23.053191999999996
20.840812999999997 7.8637999999999995 19.375472000000002
21.221883999999996 7.499999999999999 22.059314999999998
21.325564 10.00315 23.147731
20.755846 10.373698 18.981406
26.113205999999998 7.8637999999999995 28.443545
27.507382 7.499999999999999 26.118786999999998
28.11229 10.00315 25.208025999999997
25.931039 10.373698 28.80316
22.718342999999997 7.8637999999999995 26.692996
20.061374999999998 7.499999999999999 27.230346999999995
18.980882 10.00315 27.397492
23.106766 10.373698 26.585130999999997
16.582282999999997 34.245388 15.930176999999999
14.235111999999999 34.609187999999996 14.574076
13.264228999999998 32.106038 14.071295999999998
16.916075999999997 31.73549 16.156207000000002
16.791339999999998 34.245388 20.913033
14.087089999999998 34.609187999999996 21.100794
13.001017 32.106038 21.226681
17.194462 31.73549 20.91384
14.809002 34.245388 28.671261
15.320789999999999 34.609187999999996 26.009251
15.477542 32.106038 24.927202
14.704875999999999 31.73549 29.060702999999997
25.607741999999995 34.245388 27.960605
27.866577999999997 34.609187999999996 26.461976999999997
28.748838999999997 32.106038 25.816209
25.256797999999996 31.73549 28.158963
23.450486999999995 23.166598999999998 10.320011999999998
23.571771999999996 24.962612999999997 10.320011999999998
25.066522999999997 23.95957 10.320011999999998
24.563302 24.824934 12.504335999999999
24.451524999999997 23.169719 12.504335999999999
23.073954999999998 24.094128999999995 12.504335999999999
24.069209999999998 22.991059 31.789175999999998
24.909183999999996 24.583169999999996 31.789175999999998
23.110388 24.514553 31.789175999999998
23.993083999999996 24.986713 29.604852
23.218958999999998 23.519416 29.604852
24.876739 23.582653 29.604852
23.155637999999996 30.861465000000003 10.45233
23.979495 31.993197000000002 11.584062
24.953649 30.922823 10.513687999999998
24.835037 30.081131 12.761095999999998
24.075764999999997 29.038120999999997 11.718086
23.177979999999998 30.024582000000002 12.704547999999999
31.983472 17.903883 11.574337
30.789406 17.280354 10.380270999999999
31.004607 19.054544999999997 10.595472
29.047083 18.241529999999997 11.727049
30.147540999999997 18.816176999999996 12.827506
29.94921 17.181074 12.629175
19.037253999999997 23.625845999999996 31.789175999999998
17.95042 25.060826 31.789175999999998
17.251108000000002 23.40211 31.789175999999998
17.197009 24.401689999999995 29.604852
18.198642 23.079205 29.604852
18.843131 24.607886999999998 29.604852
18.77664 31.789175999999998 23.258716999999997
17.063471999999997 31.789175999999998 23.811372999999996
18.398671 31.789175999999998 25.018692
17.437193 29.604852 24.740038999999996
19.016058 29.604852 24.230706999999995
17.785531 29.604852 23.118035999999996
24.836608 10.320011999999998 23.374724999999998
24.193219999999997 10.320011999999998 25.055923
23.058954 10.320011999999998 23.658133999999997
23.285846 12.504335999999999 24.633123999999995
23.878794999999997 12.504335999999999 23.083723999999997
24.924141 12.504335999999999 24.371933999999996
30.955999 31.562323999999997 19.02633
31.990498000000002 30.527825 17.977522999999998
30.830987999999998 31.687336000000002 17.234929
29.994006999999996 29.435215 17.207076999999998
29.040608 30.388615 18.173664
30.109218999999996 29.320003999999997 18.858041999999998
17.492769 30.652630000000002 10.243495
17.630159999999997 31.921782999999998 11.512647999999999
19.115853 31.203072 10.793935999999999
18.620416 30.273593999999996 12.953558999999998
18.493794 29.103935999999997 11.783901
17.124572 29.766303999999998 12.446269999999998
11.218822 18.97854 31.627957000000002
10.115139 18.081801999999996 30.524274
11.216118999999999 17.178440000000002 31.625253999999998
12.054693 17.25112 29.374727999999998
13.071852999999999 18.07756 30.391888
12.057184 18.910102000000002 29.377218999999997
10.405097999999999 18.906759 11.294954999999998
11.579023999999999 18.210935 10.121029
10.565957 17.121088 11.134096
12.804625 17.317273999999998 11.984528999999998
11.722729 17.95855 13.066424999999999
12.656376999999999 18.962958 12.132776999999999
31.268226 31.250096999999997 25.068805999999995
31.891014 30.627308999999997 23.498886999999996
30.618245 31.900078 23.52109
29.706257 29.722965000000002 23.071850999999995
29.132292999999997 30.296929999999996 24.518696999999996
30.305282999999996 29.123939 24.498233999999997
31.285812 10.876676999999999 25.068200999999995
30.609822 10.200686999999999 23.54293
31.881850999999997 11.472715999999998 23.477651
29.690050999999997 12.370016 23.072407999999996
30.313046 12.993011 24.478105999999997
29.140738 11.820702999999998 24.538266999999998
10.115205999999999 11.584845999999999 18.065305000000002
11.226187 10.473866 17.186771999999998
11.208686 10.491366999999999 18.986705999999998
13.071791 11.717362999999999 18.092762999999998
12.047905 12.741247999999999 18.902423999999996
12.064034 12.725119 17.243595
31.789175999999998 23.225629999999995 23.370984
31.789175999999998 25.001948999999996 23.662644999999998
31.789175999999998 23.861202999999996 25.055152
29.604852 24.770531 24.636572
29.604852 23.133466999999996 24.367776
29.604852 24.184784 23.084434
10.143149 23.745385999999996 30.552284
11.377506 23.305954 31.786640999999996
11.029423999999999 25.037442 31.438558999999998
13.046038 24.291522 30.366073
11.908449 24.696503999999997 29.228482999999997
12.229243 23.100755999999997 29.549278
10.320011999999998 17.058194 17.887585
10.320011999999998 18.424008999999998 19.060156999999997
10.320011999999998 18.756577999999998 17.29104
12.504335999999999 19.020921 18.256549999999997
12.504335999999999 17.762178999999996 17.175902999999998
12.504335999999999 17.455682 18.806328999999998
31.98335 11.574214 18.256309
30.788852 10.379717 18.878182
31.005283 10.596148 17.104290999999996
29.047196 11.727160999999999 17.916731999999996
30.148051000000002 12.828017 17.343611
29.948586999999996 12.628551999999999 18.978439
10.160640999999998 30.569775999999997 24.389623
11.415191 31.824326 24.693900999999997
10.974246999999998 31.383381999999997 23.005258999999995
13.029917999999999 30.349952000000002 23.697789
11.873718 29.193753 23.417366
12.280093999999998 29.600129000000003 24.973627
28.115589999999997 26.618789999999997 32.169114
21.797450999999995 14.192825 32.169114
19.881711 26.917977 32.169114
26.198321999999997 14.248391 32.169114
21.819285 21.948129 9.940074
25.989533 20.460617 9.940074
27.268006 28.150793 9.940074
27.847612999999996 15.924641 9.940074
9.940074 14.932203999999999 19.891219999999997
9.940074 27.320397 28.137478
9.940074 14.695939 28.107389999999995
9.940074 21.182744 16.273668999999998
32.169114 20.815207 22.206049999999998
32.169114 25.829099999999997 21.017561
32.169114 15.541023999999998 22.146696
32.169114 21.30939 25.856448999999998
15.425355999999999 9.940074 22.186084
20.919154999999996 9.940074 19.886341
26.374077999999997 9.940074 27.997372
22.212927999999998 9.940074 26.801075999999995
16.137667999999998 32.169114 15.666659
16.275374 32.169114 20.943095999999997
14.912218999999999 32.169114 28.164831
26.041567999999998 32.169114 27.679679
24.029593999999996 24.029593999999996 12.129593999999999
24.029593999999996 24.029593999999996 29.979594
24.029593999999996 29.979594 12.129593999999999
29.979594 18.079594 12.129593999999999
18.079594 24.029593999999996 29.979594
18.079594 29.979594 24.029593999999996
24.029593999999996 12.129593999999999 24.029593999999996
29.979594 29.979594 18.079594
18.079594 29.979594 12.129593999999999
12.129593999999999 18.079594 29.979594
12.129593999999999 18.079594 12.129593999999999
29.979594 29.979594 24.029593999999996
29.979594 12.129593999999999 24.029593999999996
12.129593999999999 12.129593999999999 18.079594
29.979594 24.029593999999996 24.029593999999996
12.129593999999999 24.029593999999996 29.979594
12.129593999999999 18.079594 18.079594
29.979594 12.129593999999999 18.079594
12.129593999999999 29.979594 24.029593999999996
26.387648 27.932176999999996 29.376072999999998
27.62829 26.095250999999998 29.357506
21.016695999999996 16.217965 29.376072999999998
21.107814999999995 14.0032 29.357506
21.988907999999995 26.397889999999997 29.376072999999998
20.121319999999997 27.591876999999997 29.357506
28.103336999999996 15.288433999999999 29.376072999999998
25.919737999999995 14.907136999999999 29.357506
20.989779 19.942465 12.733115
21.134437999999996 22.154379 12.751681999999999
27.429899 22.084229 12.733115
26.569128999999997 20.041542999999997 12.751681999999999
27.462655999999996 25.989108 12.733115
26.565571 28.016107999999996 12.751681999999999
26.838589999999996 14.003015999999999 12.733115
27.184438 16.192509 12.751681999999999
12.733115 14.568036 22.030882
12.751681999999999 15.62186 20.080768
12.733115 27.415509 25.969131999999995
12.751681999999999 26.612514999999995 28.035213
12.733115 16.044714 26.406926999999996
12.751681999999999 14.18257 27.609386999999998
12.733115 21.627787999999995 14.149356
12.751681999999999 20.500771 16.058104999999998
29.376072999999998 20.575398 20.048907999999997
29.357506 21.514671999999997 22.056706999999996
29.376072999999998 27.912467 20.408994
29.357506 26.096941 21.680746999999997
29.376072999999998 14.149650999999999 20.480907
29.357506 16.041627 21.635861999999996
29.376072999999998 21.520269999999996 28.016610999999997
29.357506 20.607985999999997 25.996406
14.214329 12.733115 20.384922
15.976258999999999 12.751681999999999 21.729948
21.826138 12.733115 21.858180999999995
20.30232 12.751681999999999 20.248376999999998
26.911338999999998 12.733115 25.894487999999996
27.081224 12.751681999999999 28.104608
20.297496 12.733115 27.821805999999995
21.815444 12.751681999999999 26.206466
14.647416999999999 29.376072999999998 14.088709
15.571409 29.357506 16.103586
14.15761 29.376072999999998 20.467861999999997
16.050126 29.357506 21.621932
15.914491 29.376072999999998 26.239675999999996
14.313816 29.357506 27.773080999999998
28.117796 29.376072999999998 27.047184
25.902231999999998 29.357506 26.978152
15.104593999999999 15.104593999999999 15.104593999999999
15.104593999999999 15.104593999999999 21.054594
15.104593999999999 15.104593999999999 27.004593999999997
15.104593999999999 21.054594 15.104593999999999
15.104593999999999 21.054594 21.054594
15.104593999999999 21.054594 27.004593999999997
15.104593999999999 27.004593999999997 15.104593999999999
15.104593999999999 27.004593999999997 21.054594
15.104593999999999 27.004593999999997 27.004593999999997
21.054594 15.104593999999999 15.104593999999999
21.054594 15.104593999999999 21.054594
21.054594 15.104593999999999 27.004593999999997
21.054594 21.054594 15.104593999999999
21.054594 21.054594 21.054594
21.054594 21.054594 27.004593999999997
21.054594 27.004593999999997 15.104593999999999
21.054594 27.004593999999997 21.054594
21.054594 27.004593999999997 27.004593999999997
27.004593999999997 15.104593999999999 15.104593999999999
27.004593999999997 15.104593999999999 21.054594
27.004593999999997 15.104593999999999 27.004593999999997
27.004593999999997 21.054594 15.104593999999999
27.004593999999997 21.054594 21.054594
27.004593999999997 21.054594 27.004593999999997
27.004593999999997 27.004593999999997 15.104593999999999
27.004593999999997 27.004593999999997 21.054594
27.004593999999997 27.004593999999997 27.004593999999997
