3_train/223_cspbbr3_MA-BzO_3_0.20\223_cspbbr3_MA-BzO_3_0.20.xyz
1.0
43.838651999999996 0 0
0 43.838651999999996 0
0 0 43.838651999999996
Br C Cs H N O Pb 
96 94 44 120 10 24 27 
Cartesian
15.969325999999999 15.969325999999999 12.994326
15.969325999999999 12.994326 15.969325999999999
15.969325999999999 15.969325999999999 18.944325999999997
15.969325999999999 12.994326 21.919325999999998
12.994326 15.969325999999999 21.919325999999998
15.969325999999999 15.969325999999999 24.894326
15.969325999999999 12.994326 27.869326
12.994326 15.969325999999999 27.869326
15.969325999999999 15.969325999999999 30.844326000000002
15.969325999999999 21.919325999999998 12.994326
15.969325999999999 18.944325999999997 15.969325999999999
12.994326 21.919325999999998 15.969325999999999
15.969325999999999 21.919325999999998 18.944325999999997
15.969325999999999 18.944325999999997 21.919325999999998
12.994326 21.919325999999998 21.919325999999998
15.969325999999999 21.919325999999998 24.894326
15.969325999999999 18.944325999999997 27.869326
12.994326 21.919325999999998 27.869326
15.969325999999999 21.919325999999998 30.844326000000002
15.969325999999999 24.894326 15.969325999999999
12.994326 27.869326 15.969325999999999
15.969325999999999 27.869326 18.944325999999997
15.969325999999999 24.894326 21.919325999999998
15.969325999999999 27.869326 24.894326
15.969325999999999 24.894326 27.869326
12.994326 27.869326 27.869326
15.969325999999999 27.869326 30.844326000000002
15.969325999999999 30.844326000000002 15.969325999999999
15.969325999999999 30.844326000000002 21.919325999999998
15.969325999999999 30.844326000000002 27.869326
21.919325999999998 15.969325999999999 12.994326
18.944325999999997 15.969325999999999 15.969325999999999
21.919325999999998 15.969325999999999 18.944325999999997
21.919325999999998 12.994326 21.919325999999998
18.944325999999997 15.969325999999999 21.919325999999998
21.919325999999998 15.969325999999999 24.894326
21.919325999999998 12.994326 27.869326
18.944325999999997 15.969325999999999 27.869326
21.919325999999998 15.969325999999999 30.844326000000002
21.919325999999998 21.919325999999998 12.994326
21.919325999999998 18.944325999999997 15.969325999999999
18.944325999999997 21.919325999999998 15.969325999999999
21.919325999999998 21.919325999999998 18.944325999999997
21.919325999999998 18.944325999999997 21.919325999999998
18.944325999999997 21.919325999999998 21.919325999999998
21.919325999999998 21.919325999999998 24.894326
21.919325999999998 18.944325999999997 27.869326
18.944325999999997 21.919325999999998 27.869326
21.919325999999998 21.919325999999998 30.844326000000002
21.919325999999998 27.869326 12.994326
21.919325999999998 24.894326 15.969325999999999
18.944325999999997 27.869326 15.969325999999999
21.919325999999998 27.869326 18.944325999999997
21.919325999999998 24.894326 21.919325999999998
18.944325999999997 27.869326 21.919325999999998
21.919325999999998 27.869326 24.894326
21.919325999999998 24.894326 27.869326
18.944325999999997 27.869326 27.869326
21.919325999999998 30.844326000000002 15.969325999999999
21.919325999999998 30.844326000000002 21.919325999999998
27.869326 15.969325999999999 12.994326
27.869326 12.994326 15.969325999999999
24.894326 15.969325999999999 15.969325999999999
27.869326 15.969325999999999 18.944325999999997
27.869326 12.994326 21.919325999999998
24.894326 15.969325999999999 21.919325999999998
27.869326 15.969325999999999 24.894326
24.894326 15.969325999999999 27.869326
27.869326 15.969325999999999 30.844326000000002
27.869326 18.944325999999997 15.969325999999999
24.894326 21.919325999999998 15.969325999999999
27.869326 21.919325999999998 18.944325999999997
27.869326 18.944325999999997 21.919325999999998
24.894326 21.919325999999998 21.919325999999998
27.869326 21.919325999999998 24.894326
27.869326 18.944325999999997 27.869326
24.894326 21.919325999999998 27.869326
27.869326 21.919325999999998 30.844326000000002
27.869326 27.869326 12.994326
27.869326 24.894326 15.969325999999999
24.894326 27.869326 15.969325999999999
27.869326 27.869326 18.944325999999997
27.869326 24.894326 21.919325999999998
24.894326 27.869326 21.919325999999998
27.869326 27.869326 24.894326
27.869326 24.894326 27.869326
24.894326 27.869326 27.869326
27.869326 30.844326000000002 21.919325999999998
27.869326 30.844326000000002 27.869326
30.844326000000002 15.969325999999999 15.969325999999999
30.844326000000002 15.969325999999999 21.919325999999998
30.844326000000002 15.969325999999999 27.869326
30.844326000000002 21.919325999999998 15.969325999999999
30.844326000000002 21.919325999999998 21.919325999999998
30.844326000000002 27.869326 21.919325999999998
30.844326000000002 27.869326 27.869326
27.801781 26.673282999999998 34.554175
27.809018000000002 26.652344999999997 33.155752
27.869326 27.869326 32.478695
27.919226000000002 29.087756 34.542055
27.856094 27.884348000000003 35.246705
27.869326 27.869326 30.844326000000002
27.925897999999997 29.092798000000002 33.144039
23.087722999999997 28.133769 34.554175
23.105857999999998 28.146492000000002 33.155752
21.919325999999998 27.869326 32.478695
20.734267 27.581756 34.542055
21.908529 27.852469 35.246705
21.919325999999998 27.869326 30.844326000000002
20.727583 27.586782 33.144039
29.066214000000002 21.86891 9.284476999999999
29.086337999999998 21.859648999999997 10.6829
27.869326 21.919325999999998 11.359957
26.651895000000003 21.989502 9.296596999999998
27.855679000000002 21.933971 8.591947
27.869326 21.919325999999998 12.994326
26.646222 21.983359 10.694612999999999
14.771766 27.838818000000003 9.284476999999999
14.751062 27.846699 10.6829
15.969325999999999 27.869326 11.359957
17.188716999999997 27.881504999999997 9.296596999999998
15.983931 27.855635999999997 8.591947
15.969325999999999 27.869326 12.994326
17.193962 27.888018000000002 10.694612999999999
9.284476999999999 26.69323 21.691557000000003
10.6829 26.671509 21.695912
11.359957 27.869326 21.919325999999998
9.296596999999998 29.069978999999996 22.132621999999998
8.591947 27.885990999999997 21.908234
12.994326 27.869326 21.919325999999998
10.694612999999999 29.074077000000003 22.139910999999998
9.284476999999999 16.936726 15.262772
10.6829 16.94832 15.243895
11.359957 15.969325999999999 15.969325999999999
9.296596999999998 14.995814 16.703722
8.591947 15.966108 15.989084
12.994326 15.969325999999999 15.969325999999999
10.694612999999999 14.987684 16.701763
34.554175 21.230601999999998 28.8495
33.155752 21.21194 28.861437000000002
32.478695 21.919325999999998 27.869326
34.542055 22.635775000000002 26.882531999999998
35.246705 21.939022 27.865747
30.844326000000002 21.919325999999998 27.869326
33.144039 22.633668 26.874439000000002
34.554175 26.671517 15.951049
33.155752 26.651151 15.942331
32.478695 27.869326 15.969325999999999
34.542055 29.088200999999998 16.006805
35.246705 27.883361999999998 15.9836
30.844326000000002 27.869326 15.969325999999999
33.144039 29.093708 16.000512
27.408501 9.284476999999999 26.763559
27.408375 10.6829 26.741405999999998
27.869326 11.359957 27.869326
28.320940999999998 9.296596999999998 29.002069
27.861832 8.591947 27.887889
27.869326 12.994326 27.869326
28.328908 10.694612999999999 29.004609000000002
23.062924000000002 9.284476999999999 15.612582999999999
23.084992999999997 10.6829 15.614503999999998
21.919325999999998 11.359957 15.969325999999999
20.749719 9.296596999999998 16.314407
21.901533999999998 8.591947 15.960149999999999
21.919325999999998 12.994326 15.969325999999999
20.746453 10.694612999999999 16.322105
28.486358000000003 34.554175 14.942509
28.489710000000002 33.155752 14.920611
27.869326 32.478695 15.969325999999999
27.257475999999997 34.542055 17.024172999999998
27.874035 35.246705 15.988783
27.869326 30.844326000000002 15.969325999999999
27.249223 33.144039 17.025525000000002
20.997731 34.554175 28.634666000000003
20.987333999999997 33.155752 28.654227
21.919325999999998 32.478695 27.869326
22.845289 34.542055 27.075819000000003
21.921309 35.246705 27.849406000000002
21.919325999999998 30.844326000000002 27.869326
22.853524999999998 33.144039 27.077267999999997
24.894326 32.319987 18.944325999999997
24.894326 11.518664999999999 24.894326
32.319987 18.944325999999997 18.944325999999997
31.887776000000002 18.944325999999997 11.950876
11.950876 24.894326 31.887776000000002
11.518664999999999 18.944325999999997 18.944325999999997
11.518664999999999 18.944325999999997 24.894326
18.944325999999997 11.518664999999999 18.944325999999997
32.319987 18.944325999999997 24.894326
11.950876 11.950876 24.894326
12.994326 12.994326 18.944325999999997
12.994326 18.944325999999997 12.994326
12.994326 18.944325999999997 30.844326000000002
12.994326 24.894326 12.994326
12.994326 24.894326 18.944325999999997
12.994326 24.894326 24.894326
12.994326 30.844326000000002 18.944325999999997
12.994326 30.844326000000002 24.894326
18.944325999999997 12.994326 12.994326
18.944325999999997 12.994326 24.894326
18.944325999999997 12.994326 30.844326000000002
18.944325999999997 18.944325999999997 12.994326
18.944325999999997 18.944325999999997 18.944325999999997
18.944325999999997 18.944325999999997 24.894326
18.944325999999997 18.944325999999997 30.844326000000002
18.944325999999997 24.894326 12.994326
18.944325999999997 24.894326 18.944325999999997
18.944325999999997 24.894326 24.894326
18.944325999999997 24.894326 30.844326000000002
18.944325999999997 30.844326000000002 12.994326
18.944325999999997 30.844326000000002 18.944325999999997
18.944325999999997 30.844326000000002 30.844326000000002
24.894326 12.994326 12.994326
24.894326 12.994326 18.944325999999997
24.894326 12.994326 30.844326000000002
24.894326 18.944325999999997 12.994326
24.894326 18.944325999999997 18.944325999999997
24.894326 18.944325999999997 24.894326
24.894326 18.944325999999997 30.844326000000002
24.894326 24.894326 12.994326
24.894326 24.894326 18.944325999999997
24.894326 24.894326 24.894326
24.894326 30.844326000000002 12.994326
24.894326 30.844326000000002 24.894326
24.894326 30.844326000000002 30.844326000000002
30.844326000000002 12.994326 18.944325999999997
30.844326000000002 12.994326 24.894326
30.844326000000002 18.944325999999997 30.844326000000002
30.844326000000002 24.894326 12.994326
30.844326000000002 24.894326 18.944325999999997
30.844326000000002 24.894326 24.894326
30.844326000000002 24.894326 30.844326000000002
30.844326000000002 30.844326000000002 18.944325999999997
30.844326000000002 30.844326000000002 24.894326
27.962549000000003 30.040366 35.074540999999996
27.848351 27.889924999999998 36.338651999999996
27.752175 25.72674 35.097378
27.768380999999998 25.714371 32.605855999999996
27.97224 30.022909999999996 32.582131
19.806561000000002 27.361067 35.074540999999996
21.905299 27.843488999999998 36.338651999999996
24.011327 28.346747 35.097378
24.018755 28.365732 32.605855999999996
19.820673 27.375191 32.582131
25.699643000000002 22.040080000000003 8.764111
27.850889000000002 21.942225 7.499999999999999
30.013045999999996 21.825181999999998 8.741273999999999
30.023761 21.807839 11.232795999999999
25.716061000000003 22.028719000000002 11.256521
18.142210999999996 27.895335000000003 8.764111
15.989267 27.847724 7.499999999999999
13.824141 27.818520999999997 8.741273999999999
13.81228 27.835101 11.232795999999999
18.125062999999997 27.905562000000003 11.256521
8.764111 30.008110000000002 22.303652999999997
7.499999999999999 27.892559 21.901311
8.741273999999999 25.761955 21.515115
11.232795999999999 25.747518999999997 21.529510000000002
11.256521 29.989508999999998 22.310909000000002
8.764111 14.231957 17.274566
7.499999999999999 15.966709 15.998607999999999
8.741273999999999 17.699880999999998 14.700633
11.232795999999999 17.699160999999997 14.680259999999999
11.256521 14.239301999999999 17.256
35.074540999999996 23.192539000000004 26.108351
36.338651999999996 21.948555 27.866173000000003
35.097378 20.68253 29.622818000000002
32.605855999999996 20.662146 29.622472000000002
32.582131 23.174111000000003 26.116034999999997
35.074540999999996 30.041468000000002 16.03181
36.338651999999996 27.888370000000002 15.991722
35.097378 25.723851000000003 15.932746
32.605855999999996 25.712674999999997 15.915695999999999
32.582131 30.024751000000002 16.020893
28.678092999999997 8.764111 29.886254
27.85638 7.499999999999999 27.895721
27.047435 8.741273999999999 25.887182000000003
27.058615000000003 11.232795999999999 25.870134
28.681438999999997 11.256521 29.866571
19.836329 8.764111 16.588381
21.894239 7.499999999999999 15.953997999999999
23.968899 8.741273999999999 15.333991
23.984841000000003 11.232795999999999 15.346697999999998
19.855620000000002 11.256521 16.593531
26.775298 35.074540999999996 17.846879
27.878287999999998 36.338651999999996 15.997326
28.971269 35.097378 14.128098
28.962691999999997 32.605855999999996 14.109603
26.774856 32.582131 17.826918999999997
23.572173999999997 35.074540999999996 26.458582
21.920116999999998 36.338651999999996 27.839937999999997
20.271006999999997 35.097378 29.243169
20.272993 32.605855999999996 29.263458999999997
23.565997000000003 32.582131 26.477569000000003
25.451259 32.653908 18.066857999999996
23.85595 32.653908 18.900742
25.375769 32.653908 19.865378
24.381054 30.469583999999998 19.753005
25.851298999999997 30.469583999999998 18.984493
24.450625000000002 30.469583999999998 18.095480000000002
23.897413999999998 11.184743999999998 25.188080999999997
25.138382999999997 11.184743999999998 23.884098
25.647181000000003 11.184743999999998 25.610799999999998
25.813085 13.369067999999999 24.623601
24.669401999999998 13.369067999999999 25.825358
24.200491 13.369067999999999 24.23402
32.653908 18.119414999999996 19.576501999999998
32.653908 18.809302 17.913843999999997
32.653908 19.904262 19.342633
30.469583999999998 19.704569 18.361710000000002
30.469583999999998 19.068765 19.894024
30.469583999999998 18.059644 18.577244
32.832648999999996 18.669634000000002 12.423513999999999
31.601301999999997 18.213627 11.192167
31.937730000000002 19.949717 11.528593999999998
29.926150999999997 19.197484 12.606116
31.060966999999998 19.617742 13.740931999999999
30.750912999999997 18.017752 13.430878
11.857416999999998 23.874805000000002 32.266552
12.267755999999999 25.578806 32.676891
11.019103 25.229366 31.428238
13.127834 25.833920999999997 30.447868
12.749664 24.263505000000002 30.069698000000002
13.900428999999999 24.585552 31.220463000000002
11.184743999999998 19.616726 18.151859
11.184743999999998 17.92183 18.758243999999998
11.184743999999998 19.294423000000002 19.922874
13.369067999999999 18.324638999999998 19.674667999999997
13.369067999999999 19.886663999999996 19.11582
13.369067999999999 18.621674999999996 18.042491
11.184743999999998 18.708168 25.90643
11.184743999999998 19.938913 24.592793
11.184743999999998 18.185896999999997 24.183756000000002
13.369067999999999 19.161969999999997 23.961565999999998
13.369067999999999 18.02771 25.172221
13.369067999999999 19.643298 25.549191
17.925691999999998 11.184743999999998 18.738146
19.632199999999997 11.184743999999998 18.165253
19.275086 11.184743999999998 19.929578999999997
19.883104 13.369067999999999 19.134343
18.310378 13.369067999999999 19.662323
18.639496 13.369067999999999 18.036312
32.653908 19.952443 25.146962000000002
32.653908 18.221477999999998 25.641063000000003
32.653908 18.659056999999997 23.894953
30.469583999999998 18.01524 24.661495000000002
30.469583999999998 19.610507 24.20613
30.469583999999998 19.207231 25.815353
11.139599999999998 12.289916999999999 24.247402
12.398495999999998 11.031020999999999 24.513365999999998
11.606179 11.823338 25.92221
13.789377 12.729239999999999 25.490535
12.629172999999998 13.889444999999998 25.245421
13.359376 13.159240999999998 23.947023
24.894326 30.844326000000002 18.944325999999997
24.894326 12.994326 24.894326
30.844326000000002 18.944325999999997 18.944325999999997
30.844326000000002 18.944325999999997 12.994326
12.994326 24.894326 30.844326000000002
12.994326 18.944325999999997 18.944325999999997
12.994326 18.944325999999997 24.894326
18.944325999999997 12.994326 18.944325999999997
30.844326000000002 18.944325999999997 24.894326
12.994326 12.994326 24.894326
27.821917 26.706432 30.411575999999997
27.91485 29.029807999999996 30.40587
23.050311 28.143997 30.411575999999997
20.791179 27.593507000000002 30.40587
29.031245 21.852131999999997 13.427076
26.709992999999997 21.988158 13.432782
14.805522 27.857919000000003 13.427076
17.130660999999996 27.878923999999998 13.432782
13.427076 26.723370000000003 21.715967999999997
13.432782 29.013146 22.120492
13.427076 16.898327000000002 15.268236
13.432782 15.043384999999999 16.670343
30.411575999999997 21.235362 28.811008
30.40587 22.603273 26.930706
30.411575999999997 26.706021999999997 15.933338
30.40587 29.030088999999997 16.007021
27.438499999999998 13.427076 26.788141000000003
28.297573 13.432782 28.948861
23.035676000000002 13.427076 15.640184999999999
20.804857 13.432782 16.296052
28.453096000000002 30.411575999999997 14.962458
27.288348 30.40587 16.974938
21.035716 30.411575999999997 28.626824
22.799886 30.40587 27.112091
15.969325999999999 15.969325999999999 15.969325999999999
15.969325999999999 15.969325999999999 21.919325999999998
15.969325999999999 15.969325999999999 27.869326
15.969325999999999 21.919325999999998 15.969325999999999
15.969325999999999 21.919325999999998 21.919325999999998
15.969325999999999 21.919325999999998 27.869326
15.969325999999999 27.869326 15.969325999999999
15.969325999999999 27.869326 21.919325999999998
15.969325999999999 27.869326 27.869326
21.919325999999998 15.969325999999999 15.969325999999999
21.919325999999998 15.969325999999999 21.919325999999998
21.919325999999998 15.969325999999999 27.869326
21.919325999999998 21.919325999999998 15.969325999999999
21.919325999999998 21.919325999999998 21.919325999999998
21.919325999999998 21.919325999999998 27.869326
21.919325999999998 27.869326 15.969325999999999
21.919325999999998 27.869326 21.919325999999998
21.919325999999998 27.869326 27.869326
27.869326 15.969325999999999 15.969325999999999
27.869326 15.969325999999999 21.919325999999998
27.869326 15.969325999999999 27.869326
27.869326 21.919325999999998 15.969325999999999
27.869326 21.919325999999998 21.919325999999998
27.869326 21.919325999999998 27.869326
27.869326 27.869326 15.969325999999999
27.869326 27.869326 21.919325999999998
27.869326 27.869326 27.869326
