3_train/256_cspbbr3_MA-1T_3_0.20\256_cspbbr3_MA-1T_3_0.20.xyz
1.0
40.040402 0 0
0 40.040402 0
0 0 40.040402
Br C Cs H N Pb S 
96 58 44 108 10 27 12 
Cartesian
14.070200999999999 11.095201 14.070200999999999
14.070200999999999 14.070200999999999 17.045201
14.070200999999999 11.095201 20.020201
11.095201 14.070200999999999 20.020201
14.070200999999999 14.070200999999999 22.995200999999998
14.070200999999999 11.095201 25.970201
11.095201 14.070200999999999 25.970201
14.070200999999999 14.070200999999999 28.945201
14.070200999999999 20.020201 11.095201
14.070200999999999 17.045201 14.070200999999999
11.095201 20.020201 14.070200999999999
14.070200999999999 20.020201 17.045201
14.070200999999999 17.045201 20.020201
11.095201 20.020201 20.020201
14.070200999999999 20.020201 22.995200999999998
14.070200999999999 17.045201 25.970201
11.095201 20.020201 25.970201
14.070200999999999 20.020201 28.945201
14.070200999999999 25.970201 11.095201
14.070200999999999 22.995200999999998 14.070200999999999
11.095201 25.970201 14.070200999999999
14.070200999999999 25.970201 17.045201
14.070200999999999 22.995200999999998 20.020201
11.095201 25.970201 20.020201
14.070200999999999 25.970201 22.995200999999998
14.070200999999999 22.995200999999998 25.970201
14.070200999999999 25.970201 28.945201
14.070200999999999 28.945201 14.070200999999999
14.070200999999999 28.945201 25.970201
20.020201 14.070200999999999 11.095201
20.020201 11.095201 14.070200999999999
17.045201 14.070200999999999 14.070200999999999
20.020201 14.070200999999999 17.045201
20.020201 11.095201 20.020201
17.045201 14.070200999999999 20.020201
20.020201 14.070200999999999 22.995200999999998
17.045201 14.070200999999999 25.970201
20.020201 20.020201 11.095201
20.020201 17.045201 14.070200999999999
17.045201 20.020201 14.070200999999999
20.020201 20.020201 17.045201
20.020201 17.045201 20.020201
17.045201 20.020201 20.020201
20.020201 20.020201 22.995200999999998
20.020201 17.045201 25.970201
17.045201 20.020201 25.970201
20.020201 20.020201 28.945201
20.020201 22.995200999999998 14.070200999999999
17.045201 25.970201 14.070200999999999
20.020201 25.970201 17.045201
20.020201 22.995200999999998 20.020201
17.045201 25.970201 20.020201
20.020201 25.970201 22.995200999999998
20.020201 22.995200999999998 25.970201
17.045201 25.970201 25.970201
20.020201 28.945201 14.070200999999999
20.020201 28.945201 20.020201
20.020201 28.945201 25.970201
25.970201 14.070200999999999 11.095201
22.995200999999998 14.070200999999999 14.070200999999999
25.970201 14.070200999999999 17.045201
25.970201 11.095201 20.020201
22.995200999999998 14.070200999999999 20.020201
25.970201 14.070200999999999 22.995200999999998
25.970201 11.095201 25.970201
22.995200999999998 14.070200999999999 25.970201
25.970201 14.070200999999999 28.945201
25.970201 20.020201 11.095201
25.970201 17.045201 14.070200999999999
22.995200999999998 20.020201 14.070200999999999
25.970201 20.020201 17.045201
25.970201 17.045201 20.020201
22.995200999999998 20.020201 20.020201
25.970201 20.020201 22.995200999999998
25.970201 17.045201 25.970201
22.995200999999998 20.020201 25.970201
25.970201 20.020201 28.945201
25.970201 25.970201 11.095201
25.970201 22.995200999999998 14.070200999999999
22.995200999999998 25.970201 14.070200999999999
25.970201 25.970201 17.045201
25.970201 22.995200999999998 20.020201
22.995200999999998 25.970201 20.020201
25.970201 25.970201 22.995200999999998
25.970201 22.995200999999998 25.970201
22.995200999999998 25.970201 25.970201
25.970201 25.970201 28.945201
25.970201 28.945201 14.070200999999999
25.970201 28.945201 20.020201
28.945201 14.070200999999999 20.020201
28.945201 14.070200999999999 25.970201
28.945201 20.020201 14.070200999999999
28.945201 20.020201 20.020201
28.945201 20.020201 25.970201
28.945201 25.970201 20.020201
28.945201 25.970201 25.970201
20.020201 25.970201 31.504766
20.02149 27.337222 31.109324
20.0228 27.487864 29.741304
20.019052 25.112204000000002 30.428715999999998
20.020201 14.070200999999999 31.504766
20.02149 15.437221999999998 31.109324
20.0228 15.587864 29.741304
20.019052 13.212204 30.428715999999998
14.070200999999999 14.070200999999999 8.535636
14.068912 15.437221999999998 8.931078
14.067601999999999 15.587864 10.299097999999999
14.071349999999999 13.212204 9.611685999999999
20.020201 25.970201 8.535636
20.018912 27.337222 8.931078
20.017602 27.487864 10.299097999999999
20.02135 25.112204000000002 9.611685999999999
8.535636 14.070200999999999 14.070200999999999
8.931078 15.437221999999998 14.071489999999999
10.299097999999999 15.587864 14.072799999999999
9.611685999999999 13.212204 14.069052
8.535636 25.970201 25.970201
8.931078 27.337222 25.97149
10.299097999999999 27.487864 25.9728
9.611685999999999 25.112204000000002 25.969052
31.504766 14.070200999999999 14.070200999999999
31.109324 15.437221999999998 14.068912
29.741304 15.587864 14.067601999999999
30.428715999999998 13.212204 14.071349999999999
31.504766 25.970201 14.070200999999999
31.109324 27.337222 14.068912
29.741304 27.487864 14.067601999999999
30.428715999999998 25.112204000000002 14.071349999999999
25.970201 8.535636 14.070200999999999
25.97149 8.931078 15.437221999999998
25.9728 10.299097999999999 15.587864
25.969052 9.611685999999999 13.212204
20.020201 8.535636 25.970201
20.02149 8.931078 27.337222
20.0228 10.299097999999999 27.487864
20.019052 9.611685999999999 25.112204000000002
25.970201 31.504766 25.970201
25.97149 31.109324 24.60318
25.9728 29.741304 24.452538
25.969052 30.428715999999998 26.828197999999997
14.070200999999999 31.504766 20.020201
14.071489999999999 31.109324 18.65318
14.072799999999999 29.741304 18.502538
14.069052 30.428715999999998 20.878198
10.051751 17.045201 29.988651
17.045201 29.988651 10.051751
22.995200999999998 29.988651 29.988651
10.051751 29.988651 22.995200999999998
22.995200999999998 22.995200999999998 30.420862
9.61954 22.995200999999998 22.995200999999998
22.995200999999998 10.051751 10.051751
22.995200999999998 17.045201 30.420862
17.045201 22.995200999999998 9.61954
29.988651 10.051751 22.995200999999998
11.095201 11.095201 17.045201
11.095201 11.095201 22.995200999999998
11.095201 17.045201 11.095201
11.095201 17.045201 17.045201
11.095201 17.045201 22.995200999999998
11.095201 22.995200999999998 11.095201
11.095201 22.995200999999998 17.045201
11.095201 22.995200999999998 28.945201
11.095201 28.945201 17.045201
17.045201 11.095201 11.095201
17.045201 11.095201 17.045201
17.045201 11.095201 22.995200999999998
17.045201 11.095201 28.945201
17.045201 17.045201 17.045201
17.045201 17.045201 22.995200999999998
17.045201 17.045201 28.945201
17.045201 22.995200999999998 17.045201
17.045201 22.995200999999998 22.995200999999998
17.045201 22.995200999999998 28.945201
17.045201 28.945201 22.995200999999998
17.045201 28.945201 28.945201
22.995200999999998 11.095201 17.045201
22.995200999999998 11.095201 22.995200999999998
22.995200999999998 11.095201 28.945201
22.995200999999998 17.045201 11.095201
22.995200999999998 17.045201 17.045201
22.995200999999998 17.045201 22.995200999999998
22.995200999999998 22.995200999999998 11.095201
22.995200999999998 22.995200999999998 17.045201
22.995200999999998 22.995200999999998 22.995200999999998
22.995200999999998 28.945201 11.095201
22.995200999999998 28.945201 17.045201
22.995200999999998 28.945201 22.995200999999998
28.945201 11.095201 17.045201
28.945201 17.045201 11.095201
28.945201 17.045201 17.045201
28.945201 17.045201 22.995200999999998
28.945201 17.045201 28.945201
28.945201 22.995200999999998 11.095201
28.945201 22.995200999999998 17.045201
28.945201 22.995200999999998 22.995200999999998
28.945201 22.995200999999998 28.945201
28.945201 28.945201 17.045201
28.945201 28.945201 22.995200999999998
20.02065 28.176606 31.804361
20.02858 28.406025 29.160581999999998
20.021635 25.631026000000002 32.540402
20.018435 24.025781 30.428451
20.02065 16.276606 31.804361
20.02858 16.506025 29.160581999999998
20.021635 13.731026 32.540402
20.018435 12.125781 30.428451
14.069752 16.276606 8.236041
14.061822 16.506025 10.879819999999999
14.068767 13.731026 7.5
14.071966999999999 12.125781 9.611951
20.019752 28.176606 8.236041
20.011822 28.406025 10.879819999999999
20.018767 25.631026000000002 7.5
20.021967 24.025781 9.611951
8.236041 16.276606 14.070649999999999
10.879819999999999 16.506025 14.078579999999999
7.5 13.731026 14.071634999999999
9.611951 12.125781 14.068435
8.236041 28.176606 25.97065
10.879819999999999 28.406025 25.978579999999997
7.5 25.631026000000002 25.971635
9.611951 24.025781 25.968435
31.804361 16.276606 14.069752
29.160581999999998 16.506025 14.061822
32.540402 13.731026 14.068767
30.428451 12.125781 14.071966999999999
31.804361 28.176606 14.069752
29.160581999999998 28.406025 14.061822
32.540402 25.631026000000002 14.068767
30.428451 24.025781 14.071966999999999
25.97065 8.236041 16.276606
25.978579999999997 10.879819999999999 16.506025
25.971635 7.5 13.731026
25.968435 9.611951 12.125781
20.02065 8.236041 28.176606
20.02858 10.879819999999999 28.406025
20.021635 7.5 25.631026000000002
20.018435 9.611951 24.025781
25.97065 31.804361 23.763796
25.978579999999997 29.160581999999998 23.534377
25.971635 32.540402 26.309375999999997
25.968435 30.428451 27.914621
14.070649999999999 31.804361 17.813796
14.078579999999999 29.160581999999998 17.584377
14.071634999999999 32.540402 20.359376
14.068435 30.428451 21.964620999999998
9.455202 16.139495 29.864337
10.550479 17.056617 30.959614
9.44122 17.93949 29.850355
11.692359 17.879904 29.012394
10.682946999999999 17.034679 28.002981
11.705245 16.221019 29.02528
16.535474 30.865199 10.456064
18.084429 30.216696 9.807561
16.5157 29.592411 9.183274999999998
17.514968 28.089994 10.769959
16.087443 28.687658 11.367624
17.533192 29.263002999999998 11.942967999999999
22.485474 29.584338 30.865199
24.034429 30.232841 30.216696
22.465700000000002 30.857127 29.592411
23.464968 29.270443 28.089994
22.037443 28.672778 28.687658
23.483192 28.097434 29.263002999999998
9.107917 29.517052 23.2752
10.340955999999998 30.750091 23.721974
9.998028 30.407163 21.988429
12.012419 29.332454 22.737152
10.876044 28.196079 22.325404
11.192087999999998 28.512123 23.923047
22.485474 22.089495 30.754783
24.034429 23.006617 30.754783
22.465700000000002 23.88949 30.754783
23.464968 23.829904 28.570459
22.037443 22.984679 28.570459
23.483192 22.171018999999998 28.570459
9.285619 22.089495 22.485474
9.285619 23.006617 24.034429
9.285619 23.88949 22.465700000000002
11.469943 23.829904 23.464968
11.469943 22.984679 22.037443
11.469943 22.171018999999998 23.483192
22.485474 10.456064 9.175203
24.034429 9.807561 9.823706
22.465700000000002 9.183274999999998 10.447990999999998
23.464968 10.769959 11.950408
22.037443 11.367624 11.352744
23.483192 11.942967999999999 10.777398999999999
22.485474 16.139495 30.754783
24.034429 17.056617 30.754783
22.465700000000002 17.93949 30.754783
23.464968 17.879904 28.570459
22.037443 17.034679 28.570459
23.483192 16.221019 28.570459
17.554928 22.089495 9.285619
16.005972999999997 23.006617 9.285619
17.574702 23.88949 9.285619
16.575434 23.829904 11.469943
18.002959 22.984679 11.469943
16.557209999999998 22.171018999999998 11.469943
29.517052 9.107917 22.715202
30.750091 10.340955999999998 22.268428
30.407163 9.998028 24.001973
29.332454 12.012419 23.253249999999998
28.196079 10.876044 23.664998
28.512123 11.192087999999998 22.067355
11.095201 17.045201 28.945201
17.045201 28.945201 11.095201
22.995200999999998 28.945201 28.945201
11.095201 28.945201 22.995200999999998
22.995200999999998 22.995200999999998 28.945201
11.095201 22.995200999999998 22.995200999999998
22.995200999999998 11.095201 11.095201
22.995200999999998 17.045201 28.945201
17.045201 22.995200999999998 11.095201
28.945201 11.095201 22.995200999999998
14.070200999999999 14.070200999999999 14.070200999999999
14.070200999999999 14.070200999999999 20.020201
14.070200999999999 14.070200999999999 25.970201
14.070200999999999 20.020201 14.070200999999999
14.070200999999999 20.020201 20.020201
14.070200999999999 20.020201 25.970201
14.070200999999999 25.970201 14.070200999999999
14.070200999999999 25.970201 20.020201
14.070200999999999 25.970201 25.970201
20.020201 14.070200999999999 14.070200999999999
20.020201 14.070200999999999 20.020201
20.020201 14.070200999999999 25.970201
20.020201 20.020201 14.070200999999999
20.020201 20.020201 20.020201
20.020201 20.020201 25.970201
20.020201 25.970201 14.070200999999999
20.020201 25.970201 20.020201
20.020201 25.970201 25.970201
25.970201 14.070200999999999 14.070200999999999
25.970201 14.070200999999999 20.020201
25.970201 14.070200999999999 25.970201
25.970201 20.020201 14.070200999999999
25.970201 20.020201 20.020201
25.970201 20.020201 25.970201
25.970201 25.970201 14.070200999999999
25.970201 25.970201 20.020201
25.970201 25.970201 25.970201
20.020201 25.970201 28.945201
20.020201 14.070200999999999 28.945201
14.070200999999999 14.070200999999999 11.095201
20.020201 25.970201 11.095201
11.095201 14.070200999999999 14.070200999999999
11.095201 25.970201 25.970201
28.945201 14.070200999999999 14.070200999999999
28.945201 25.970201 14.070200999999999
25.970201 11.095201 14.070200999999999
20.020201 11.095201 25.970201
25.970201 28.945201 25.970201
14.070200999999999 28.945201 20.020201
