135_cspbbr3_4\135_cspbbr3_4.xyz
1.0
44.825957 0 0
0 44.825957 0
0 0 44.825957
Br Cs Pb 
240 112 64 
Cartesian
31.327754499999998 34.101082500000004 31.5223475
34.3012485 19.5817675 25.2455085
34.185509499999995 19.638848499999998 19.357908499999997
31.400249499999997 34.3454955 25.1074285
25.5922615 25.3134785 10.4096195
25.500680499999998 22.6383605 13.350589499999998
22.3278325 25.223114499999998 13.6571015
34.1663035 19.3727305 13.629745499999999
22.5605345 31.155910499999997 13.550419499999999
25.4849355 25.5571435 16.5265575
25.5278025 28.5684535 13.5353485
25.269716499999998 22.3397355 19.2971315
25.2928795 31.1295745 10.703859499999998
25.621422499999998 25.3506685 34.174173499999995
34.3477965 13.660997499999999 31.5482725
34.42437150000001 13.316084499999999 25.565710499999998
25.5352195 25.4703475 22.2166185
25.5364385 19.518312499999997 34.0880425
25.198883499999997 22.2970225 25.552303499999997
22.2087705 25.4938725 25.3293615
34.197252500000005 13.5497635 19.2517355
34.283970499999995 13.3315135 13.580605499999999
25.1994625 25.381168499999998 28.3480295
25.5569315 22.2998875 31.144281499999998
22.463593499999998 25.183199499999997 31.2808495
22.5857155 25.5296715 19.5070615
31.4658585 22.4473815 31.177594499999998
34.161385499999994 19.2922605 31.1961785
25.2663745 16.5715005 31.5361255
25.4288265 10.339971499999999 13.314914499999999
22.376651499999998 13.610228499999998 13.6619385
34.2797025 31.528083499999997 31.552435499999998
25.2039085 13.5618185 16.3761865
25.583269499999997 10.356138499999998 19.343192499999997
22.1603175 13.580199499999999 19.509514499999998
34.4118215 31.1461905 25.5836705
25.368194499999998 13.6789695 22.2210735
25.2389775 10.357650499999998 25.3827775
22.2669845 13.3772975 25.3814215
34.086412499999994 31.4180265 19.6135065
25.196899499999997 10.494520499999998 31.2365165
22.5458405 13.5939625 31.2219045
34.2794485 31.4835265 13.3085765
22.4816425 19.6201015 31.1399765
25.4625345 13.363692499999999 34.4201915
25.5148605 16.5851535 13.438186499999999
34.182109499999996 25.5267205 31.4266145
22.395901499999997 19.3343885 13.281747499999998
34.4603975 25.1339215 25.4309755
25.541229499999996 19.5830585 16.2855645
25.2266845 16.304190499999997 19.322082499999997
34.127309499999996 25.580992499999997 19.542118499999997
22.3624475 19.3196165 19.3068335
34.356359499999996 25.241103499999998 13.631098499999998
25.2586345 19.2996655 22.5459425
25.2987615 16.5131765 25.2285315
22.2704475 19.471012499999997 25.2793015
31.263803499999998 34.353412500000005 19.2739545
25.281936499999997 19.4909075 28.2220495
25.3118145 19.6399285 10.4416525
25.5654255 31.2587765 16.6455755
25.684733499999997 31.3400125 22.4430535
22.3130495 31.5283665 19.5298075
31.3200005 16.2025015 13.5986145
28.196703499999998 19.5227685 13.272247499999999
28.1608075 31.3651675 19.338762499999998
31.3306805 19.2216895 16.597143499999998
31.5338675 28.3586345 19.4669805
31.1584345 16.6285725 19.368875499999998
28.3768785 19.2869735 19.3124875
31.5155665 31.2830735 16.2764925
31.167737499999998 19.4817475 22.6370725
31.2126175 16.3729445 25.563588499999998
28.542668499999998 19.5980335 25.5442465
28.4582115 31.2868525 13.3305555
31.245385499999998 19.6004895 28.5489675
31.5054005 28.4753975 13.5359585
31.1641795 16.2284375 31.2717445
28.3526295 19.421863499999997 31.1389355
31.567099499999998 19.2897605 34.3576365
31.209193499999998 31.3468415 10.3671045
31.1903365 25.5105385 10.4731975
31.499308499999998 22.448410499999998 13.690762499999998
28.4941215 25.511459499999997 13.5403825
31.210949499999998 25.3697095 16.6273895
31.4854455 22.2477025 19.5781815
31.319480499999997 25.3108695 34.4894755
28.3510845 25.2063645 19.5487045
28.1700625 25.2366805 31.414229499999998
31.6182525 25.3454505 22.4790965
31.2129785 22.5836555 25.3990525
28.5939025 25.2470975 25.4626205
31.311016499999997 19.167461499999998 10.397027499999998
25.6537855 28.429533499999998 19.465088499999997
31.2094315 13.351619499999998 34.47231550000001
31.1334685 10.636602499999999 31.441823499999998
31.446651499999998 34.165088499999996 13.4007955
31.3740305 31.518427499999998 34.2652465
31.2148915 25.3146875 28.5562535
25.218352499999998 28.2106545 25.2917025
22.5695085 31.3214255 25.4836325
28.2799205 31.5035885 31.3901605
25.270330499999996 31.509897499999997 28.555563499999998
25.3895625 28.148749499999997 31.2097695
22.2074145 31.4365325 31.3804515
25.5483685 31.3109655 34.533021500000004
25.2298665 34.257962500000005 13.3480835
25.548214499999997 34.301055500000004 19.5507535
31.4654505 28.3102455 31.4574955
25.486834499999997 34.4257075 25.5055055
25.2124725 34.18570150000001 31.2461205
31.4876255 31.2725535 28.2227025
31.4450045 13.4042195 10.3060815
31.362671499999998 10.3324965 13.380732499999999
28.410338499999998 13.591445499999999 13.6708205
31.3235025 13.2208905 16.4191105
28.493083499999997 31.4606495 25.1750395
31.2557895 10.638536499999999 19.5791565
28.2608695 13.563276499999999 19.179360499999998
31.5277055 28.1989515 25.2467795
25.3827685 13.3380175 10.405455499999999
31.3328195 31.4693505 22.2465335
31.3773025 10.596454499999998 25.1662945
28.5295645 13.5643675 25.5063135
31.4309355 13.5471455 28.556634499999998
28.2349525 13.2598515 31.2711555
31.4753605 13.5387875 22.2846345
25.5715245 13.3562365 28.1866025
10.623265499999999 25.5679755 25.560467499999998
16.6462885 13.5656185 31.2165175
10.437877499999999 19.2903745 13.621003499999999
19.4259645 13.5623525 34.4979745
10.4879325 31.4565095 25.5888595
19.2082195 19.315029499999998 10.3849065
13.6124935 16.6176605 13.3806775
19.3057405 16.5844545 13.4291495
16.455720499999998 19.1941615 13.3342455
13.4723565 19.6604255 10.3561795
19.6667745 19.3579885 16.3703465
13.636688499999998 22.5900615 25.2204085
19.2624255 16.4057785 19.440347499999998
16.5494915 19.1988605 19.3688265
10.369384499999999 25.3120035 13.3569465
19.380974499999997 19.4665505 22.1527395
13.6355325 28.134680499999998 25.487743499999997
19.2922945 16.5633255 25.1869025
16.233064499999998 19.2820455 25.488182499999997
13.5579535 13.6111185 34.1695175
19.4955495 19.527852499999998 28.5215525
13.600125499999999 31.2876485 22.2526105
19.3210925 16.560329499999998 31.1055615
10.771808499999999 13.6349585 31.339543499999998
16.7255005 19.5474055 31.401628499999998
19.5795125 19.402917499999997 34.532340500000004
13.624618499999999 31.1341315 28.522070499999998
13.6067205 34.52930550000001 13.469816499999999
19.611609499999997 10.331519499999999 31.2713105
19.6029855 13.564684499999998 28.332531499999998
13.3372315 34.373269500000006 19.276116499999997
13.3207445 31.218300499999998 34.519427500000006
13.347227499999999 34.1068755 25.286045499999997
10.6979335 19.5098755 31.5245835
13.349553499999999 16.203970499999997 31.2948965
13.383585499999999 34.4399325 31.2513275
13.500306499999999 19.3177925 28.210797499999998
19.1949805 13.389614499999999 10.3846195
19.2322025 10.535264499999998 13.364583499999998
13.5682745 25.269629499999997 10.3132095
16.6157035 13.386030499999999 13.279093499999998
10.2585985 31.196996499999997 31.334504499999998
19.6140225 13.2917265 16.5111515
19.5789695 10.5215985 19.5537995
10.611564499999998 19.4857525 25.5517275
16.3478595 13.5467085 19.6302545
13.330945499999999 16.3535355 25.4153275
19.2452385 13.488690499999999 22.6277275
19.574882499999998 10.504768499999999 25.235714499999997
13.489905499999999 19.2504655 22.4514505
13.504168499999999 22.568043499999998 13.347748499999998
16.2928385 13.3147855 25.3658885
13.424850499999998 28.2258985 31.2366645
10.613581499999999 19.4939935 19.7036865
13.657021499999999 16.2796765 19.3333765
13.449575499999998 19.6704725 16.6064965
10.3363255 31.3151215 19.6740395
13.568348499999999 10.3682035 31.140057499999998
19.347990499999998 22.2276305 13.5724375
19.4023105 28.2055555 19.5626585
16.322940499999998 31.529265499999998 19.3943005
10.5844875 13.559799499999999 19.5911105
13.428988499999999 31.1557845 10.431046499999999
19.3822655 31.169161499999998 22.1843555
19.595539499999997 28.4006525 25.2908865
16.6824465 31.4339875 25.3740505
13.3091455 10.3110015 19.5440455
13.5957815 13.6438925 16.443755499999998
19.455305499999998 31.434354499999998 28.1661645
19.6544505 28.343746499999998 31.4108985
13.354675499999999 25.4534975 34.5030915
16.2722995 31.1577505 31.4454635
10.417061499999999 13.4451545 13.6834595
19.2144505 31.1781075 34.252204500000005
13.351485499999999 25.1976885 22.3575945
19.4698975 34.2139085 13.657926499999999
13.3434695 10.5414745 13.3604785
10.700412499999999 25.4187295 31.123596499999998
19.4355485 34.303323500000005 19.6483575
13.592430499999999 13.326473499999999 10.6857785
19.2215425 34.334050500000004 25.3958975
13.422531499999998 22.316968499999998 31.4857235
13.512819499999999 25.393084499999997 28.6124235
19.3055505 34.39291850000001 31.469489499999998
19.645344499999997 25.2947195 10.666395499999998
10.6251685 25.388933499999997 19.2249625
19.5842865 31.426827499999998 16.6215165
10.400186499999998 13.334863499999999 25.5343295
16.1742045 25.4429505 13.447744499999999
13.5960705 13.3754235 28.5206995
19.5292145 25.5453865 16.5506545
19.5079625 22.2609975 19.3108575
16.306005499999998 25.270051499999997 19.3078515
13.4958075 28.5694175 19.2795545
13.286847499999999 31.380961499999998 16.2598555
19.254983499999998 25.5037505 22.6066555
19.537303499999997 22.5740365 25.4247125
16.3892845 25.4124275 25.6356035
13.293795499999998 28.3783095 13.3259285
13.259895499999999 25.239060499999997 16.4544135
13.366698499999998 19.4812075 34.484648500000006
13.574821499999999 10.713792499999998 25.3536435
19.4078975 22.5219445 31.519122499999998
16.5240585 25.5605095 31.1809585
10.687248499999999 31.4352525 13.5314325
19.5561545 25.2984215 34.5028805
13.2940265 13.615290499999999 22.566785499999998
13.495541499999998 22.2607835 19.242316499999998
19.5085165 31.5592045 10.6824465
19.3522725 28.6108105 13.471138499999999
16.590359499999998 31.1277825 13.4652605
19.2977855 25.5076385 28.2016295
10.482925499999999 22.7698135 21.9374395
28.5602795 22.0244735 28.0828825
10.3216855 21.9831045 16.1641155
28.6665465 22.5608825 34.504872500000005
28.5334255 28.1051415 10.2260975
16.7471525 34.0762065 34.473755499999996
28.1239055 27.9298495 16.7932305
33.9275935 34.4752905 16.2730965
33.821925500000006 28.2505475 34.63269150000001
34.683708499999995 28.204914499999997 28.302442499999998
33.8240605 28.2470055 22.2318965
10.339706499999998 10.0972505 16.275609499999998
33.8599705 28.5577655 10.617822499999999
34.850889499999994 22.4713975 28.200062499999998
33.91503350000001 22.7653565 22.2747045
10.1711035 10.5536955 22.2828965
33.9063905 22.7791215 10.422027499999999
34.343944500000006 16.2584885 33.987080500000005
34.7251275 16.360418499999998 27.957430499999997
34.484478499999994 16.923954499999997 22.317129499999997
34.51128250000001 16.1696445 16.7255205
10.4492105 10.686612499999999 27.9975175
34.599652500000005 16.1918655 10.8372955
34.592166500000005 10.1275205 28.4325565
34.5272865 10.283863499999999 22.2071475
34.758491500000005 10.4376365 16.6056245
28.0607215 34.15266750000001 34.057105500000006
10.394257499999998 16.2267075 10.1836445
28.289741499999998 34.858330499999994 16.6599715
27.8573315 34.2657545 10.6140055
10.461337499999999 16.5090075 16.8985405
10.7437385 16.9073995 22.5870595
27.9424805 28.2412615 28.0667775
10.3877805 16.0899385 28.3082805
28.2132825 28.3336915 22.802722499999998
10.7009925 16.056510499999998 34.386789500000006
10.794627499999999 22.2493765 10.0196575
28.5845235 34.0073175 28.1314985
10.859283499999998 34.6477005 28.6147815
10.8188415 22.2501945 28.6466505
22.4665315 16.1784915 34.642017499999994
22.1497805 22.202021499999997 10.248763499999999
16.2580915 22.5185775 27.9354445
22.7099285 22.4062345 16.8035265
16.5526685 22.8966225 22.089868499999998
22.1705065 22.5699665 22.1866425
16.0717605 22.8064945 34.564794500000005
16.3143405 22.7353355 16.1705715
16.5010185 22.0360655 10.8322855
16.8534355 16.7830835 34.1261475
21.9827695 22.2902465 34.47239450000001
22.7978415 28.6764895 10.3307965
16.2469545 16.7676945 28.6691075
22.0888225 28.2735035 16.0748495
22.3930795 22.210827499999997 27.9894125
22.158990499999998 16.7263915 28.5877865
16.3950235 28.737084499999998 10.311480499999998
22.411647499999997 16.1387325 22.7413115
16.5189645 33.8609675 28.3046275
22.5200865 10.704468499999999 16.0597195
16.1249845 34.659613500000006 22.4409455
16.3007185 34.691134500000004 16.3133815
22.5985775 10.111431499999998 22.7826525
16.8845305 34.402673500000006 10.7273725
16.642791499999998 28.0220195 34.1652605
22.605558499999997 10.0668955 28.605621499999998
33.9687395 33.8545805 22.5044695
22.0236505 10.8459045 34.403208500000005
16.3180305 28.0852415 28.7009375
21.8980875 16.6418765 10.2970075
16.7555025 28.7777995 22.2479885
22.8854805 16.4085555 16.742502499999997
16.256921499999997 28.070839499999998 16.1127705
16.769312499999998 16.3055995 22.7270135
28.7143305 22.446595499999997 22.218158499999998
22.1100085 28.260931499999998 21.9450095
22.0681095 28.6610305 28.183293499999998
10.453154499999998 33.9256075 16.6855045
28.139881499999998 16.3296045 10.1216975
10.0781785 28.741269499999998 34.1705755
28.0076195 16.790736499999998 16.317210499999998
10.864912499999999 27.9894995 28.0664575
28.057702499999998 16.191249499999998 22.1159895
28.0426005 10.8036245 34.3107095
10.3487505 28.392103499999997 22.0019375
10.4135475 28.1257035 16.0318765
28.200909499999998 16.0498165 33.953595500000006
28.5466665 22.2734845 10.090964499999998
10.130253499999998 28.243336499999998 10.232044499999999
10.404591499999999 22.764400499999997 34.2284135
28.578687499999997 22.7458745 16.1401435
27.8345965 16.2622695 28.5485185
10.224952499999999 34.4164315 22.2065755
22.152968499999997 10.7227705 10.875537499999998
28.631134499999998 10.419293499999998 28.7727815
16.2684955 16.8351625 10.5541355
16.5645605 10.364030499999998 33.876163500000004
22.4146805 28.7510135 34.607784499999994
22.610241499999997 34.7111855 10.487980499999999
22.1186885 34.1884785 16.2041625
22.5075695 34.2898955 22.7742095
16.6795485 10.032373499999999 28.510858499999998
22.0029445 34.2662545 27.931323499999998
22.3772415 33.846144499999994 34.11312650000001
28.677127499999997 10.1434915 10.550151499999998
16.864790499999998 10.1487415 22.1741605
28.1102925 11.0107685 16.5951775
16.0873995 10.5805785 16.6984455
28.8559765 10.5681505 22.1596515
16.6646535 10.1639685 10.546344499999998
16.207544499999997 16.1498025 16.0296065
34.3045805 34.8524565 28.5933365
13.730331499999998 13.435475499999999 13.6831275
19.3376135 19.6670775 13.580962499999998
19.5470175 13.6299925 31.1670615
31.4618415 13.784519499999998 13.613450499999999
19.3917375 13.179788499999999 25.2700925
31.5005485 13.633249499999998 19.332945499999997
19.485967499999997 13.3132475 19.6707795
31.2770415 13.209640499999999 25.1683745
19.3839975 13.5327355 13.7035325
31.5116275 13.585184499999999 31.0442215
31.224521499999998 19.243757499999997 13.643575499999999
31.5104395 19.287702499999998 19.5023725
13.532432499999999 31.265520499999997 31.598366499999997
31.4785495 19.545771499999997 25.5563765
13.370497499999999 31.5263945 25.3597225
31.135886499999998 19.6372245 31.4616245
13.200954499999998 31.386643499999998 19.6574805
31.1337305 25.3243555 13.2429145
13.4142145 31.5449585 13.5363805
31.0600695 25.5061895 19.3019565
13.566941499999999 25.4513645 31.5751545
31.5050985 25.349254499999997 25.216543499999997
25.1546465 31.461415499999998 31.3092755
19.6473955 19.240650499999997 19.643481499999996
25.6055855 31.5150365 25.5051085
19.558624499999997 19.467007499999998 25.6672245
25.2527905 13.520707499999999 19.2606415
25.2316035 13.694253499999999 25.6099305
25.3603405 13.404518499999998 31.0382225
19.6906455 31.557878499999998 31.1991865
25.390841499999997 19.2582845 13.1809795
19.2417505 31.3576055 25.5207615
25.1568085 19.5528545 19.293759499999997
19.7157275 31.119853499999998 19.3988125
25.600014499999997 19.3633615 25.406058499999997
19.6364675 31.5260695 13.492120499999999
13.340553499999999 25.1138115 25.5595315
25.1848435 19.6444255 31.4247645
25.4857835 25.5507885 13.195635499999998
19.620713499999997 25.103996499999997 25.393154499999998
25.3980475 25.6465915 19.6556045
19.2752745 25.2034585 19.2553745
25.492392499999998 25.217345499999997 25.2055525
19.2484255 25.221524499999997 13.6069815
25.3072525 25.1189055 31.4549925
25.371923499999998 31.1279365 13.5703605
19.3416715 19.548008499999998 31.1602165
25.0980915 31.3516655 19.2882465
19.5641675 25.2909465 31.1264645
31.4511955 25.6003135 31.5519605
25.6547405 13.3466285 13.4167615
13.514979499999999 13.777344499999998 19.447180499999998
13.2559395 19.658095499999998 31.3855525
13.824893499999998 13.551370499999999 25.3363095
13.6726715 13.2537595 31.3203575
13.184991499999999 19.5254195 25.5230455
31.1344645 31.4812695 19.5740505
31.1744405 31.5012215 31.211481499999998
13.527376499999999 25.043860499999997 13.587327499999999
31.1324655 31.135115499999998 13.528316499999999
31.597855499999998 31.3786915 25.609098499999998
13.5172835 19.4259095 19.7378085
13.5095615 25.2276365 19.7439245
13.7187665 19.6706075 13.3381625
