3_train/208_cspbbr3_MA-2-Fur_4_0.20\208_cspbbr3_MA-2-Fur_4_0.20.xyz
1.0
48.03963 0 0
0 48.03963 0
0 0 48.03963
Br C Cs H N O Pb 
216 137 95 174 17 72 64 
Cartesian
12.119815000000001 15.094815 15.094815
15.094815 15.094815 18.069815
15.094815 12.119815000000001 21.044815
15.094815 15.094815 24.019815
15.094815 12.119815000000001 26.994815000000003
12.119815000000001 15.094815 26.994815000000003
15.094815 15.094815 29.969815000000004
15.094815 12.119815000000001 32.944815
12.119815000000001 15.094815 32.944815
15.094815 15.094815 35.919815
15.094815 21.044815 12.119815000000001
15.094815 18.069815 15.094815
12.119815000000001 21.044815 15.094815
15.094815 21.044815 18.069815
15.094815 18.069815 21.044815
12.119815000000001 21.044815 21.044815
15.094815 21.044815 24.019815
15.094815 18.069815 26.994815000000003
12.119815000000001 21.044815 26.994815000000003
15.094815 21.044815 29.969815000000004
15.094815 18.069815 32.944815
12.119815000000001 21.044815 32.944815
15.094815 26.994815000000003 12.119815000000001
15.094815 24.019815 15.094815
15.094815 26.994815000000003 18.069815
15.094815 24.019815 21.044815
12.119815000000001 26.994815000000003 21.044815
15.094815 26.994815000000003 24.019815
15.094815 24.019815 26.994815000000003
12.119815000000001 26.994815000000003 26.994815000000003
15.094815 26.994815000000003 29.969815000000004
15.094815 24.019815 32.944815
15.094815 26.994815000000003 35.919815
15.094815 29.969815000000004 15.094815
12.119815000000001 32.944815 15.094815
15.094815 32.944815 18.069815
15.094815 29.969815000000004 21.044815
12.119815000000001 32.944815 21.044815
15.094815 32.944815 24.019815
15.094815 29.969815000000004 26.994815000000003
15.094815 32.944815 29.969815000000004
15.094815 29.969815000000004 32.944815
12.119815000000001 32.944815 32.944815
15.094815 32.944815 35.919815
15.094815 35.919815 15.094815
15.094815 35.919815 26.994815000000003
15.094815 35.919815 32.944815
21.044815 15.094815 12.119815000000001
21.044815 12.119815000000001 15.094815
18.069815 15.094815 15.094815
21.044815 15.094815 18.069815
21.044815 12.119815000000001 21.044815
18.069815 15.094815 21.044815
21.044815 15.094815 24.019815
21.044815 12.119815000000001 26.994815000000003
18.069815 15.094815 26.994815000000003
21.044815 15.094815 29.969815000000004
18.069815 15.094815 32.944815
21.044815 15.094815 35.919815
21.044815 21.044815 12.119815000000001
21.044815 18.069815 15.094815
18.069815 21.044815 15.094815
21.044815 21.044815 18.069815
21.044815 18.069815 21.044815
18.069815 21.044815 21.044815
21.044815 21.044815 24.019815
21.044815 18.069815 26.994815000000003
18.069815 21.044815 26.994815000000003
21.044815 21.044815 29.969815000000004
21.044815 18.069815 32.944815
18.069815 21.044815 32.944815
21.044815 21.044815 35.919815
21.044815 24.019815 15.094815
18.069815 26.994815000000003 15.094815
21.044815 26.994815000000003 18.069815
21.044815 24.019815 21.044815
18.069815 26.994815000000003 21.044815
21.044815 26.994815000000003 24.019815
21.044815 24.019815 26.994815000000003
18.069815 26.994815000000003 26.994815000000003
21.044815 26.994815000000003 29.969815000000004
21.044815 24.019815 32.944815
18.069815 26.994815000000003 32.944815
21.044815 26.994815000000003 35.919815
21.044815 32.944815 12.119815000000001
21.044815 29.969815000000004 15.094815
18.069815 32.944815 15.094815
21.044815 32.944815 18.069815
21.044815 29.969815000000004 21.044815
18.069815 32.944815 21.044815
21.044815 32.944815 24.019815
21.044815 29.969815000000004 26.994815000000003
18.069815 32.944815 26.994815000000003
21.044815 32.944815 29.969815000000004
21.044815 29.969815000000004 32.944815
18.069815 32.944815 32.944815
21.044815 35.919815 15.094815
21.044815 35.919815 26.994815000000003
24.019815 15.094815 15.094815
26.994815000000003 15.094815 18.069815
24.019815 15.094815 21.044815
26.994815000000003 15.094815 24.019815
26.994815000000003 12.119815000000001 26.994815000000003
24.019815 15.094815 26.994815000000003
26.994815000000003 15.094815 29.969815000000004
26.994815000000003 12.119815000000001 32.944815
24.019815 15.094815 32.944815
26.994815000000003 21.044815 12.119815000000001
26.994815000000003 18.069815 15.094815
24.019815 21.044815 15.094815
26.994815000000003 21.044815 18.069815
26.994815000000003 18.069815 21.044815
24.019815 21.044815 21.044815
26.994815000000003 21.044815 24.019815
26.994815000000003 18.069815 26.994815000000003
24.019815 21.044815 26.994815000000003
26.994815000000003 21.044815 29.969815000000004
26.994815000000003 18.069815 32.944815
24.019815 21.044815 32.944815
26.994815000000003 21.044815 35.919815
26.994815000000003 26.994815000000003 12.119815000000001
26.994815000000003 24.019815 15.094815
24.019815 26.994815000000003 15.094815
26.994815000000003 26.994815000000003 18.069815
26.994815000000003 24.019815 21.044815
24.019815 26.994815000000003 21.044815
26.994815000000003 26.994815000000003 24.019815
26.994815000000003 24.019815 26.994815000000003
24.019815 26.994815000000003 26.994815000000003
26.994815000000003 26.994815000000003 29.969815000000004
26.994815000000003 24.019815 32.944815
24.019815 26.994815000000003 32.944815
26.994815000000003 26.994815000000003 35.919815
26.994815000000003 32.944815 12.119815000000001
26.994815000000003 29.969815000000004 15.094815
24.019815 32.944815 15.094815
26.994815000000003 32.944815 18.069815
26.994815000000003 29.969815000000004 21.044815
24.019815 32.944815 21.044815
26.994815000000003 32.944815 24.019815
26.994815000000003 29.969815000000004 26.994815000000003
24.019815 32.944815 26.994815000000003
26.994815000000003 32.944815 29.969815000000004
26.994815000000003 29.969815000000004 32.944815
24.019815 32.944815 32.944815
26.994815000000003 32.944815 35.919815
26.994815000000003 35.919815 15.094815
26.994815000000003 35.919815 21.044815
26.994815000000003 35.919815 26.994815000000003
26.994815000000003 35.919815 32.944815
32.944815 15.094815 12.119815000000001
32.944815 12.119815000000001 15.094815
29.969815000000004 15.094815 15.094815
32.944815 15.094815 18.069815
32.944815 12.119815000000001 21.044815
29.969815000000004 15.094815 21.044815
32.944815 15.094815 24.019815
32.944815 12.119815000000001 26.994815000000003
29.969815000000004 15.094815 26.994815000000003
32.944815 15.094815 29.969815000000004
32.944815 12.119815000000001 32.944815
29.969815000000004 15.094815 32.944815
32.944815 21.044815 12.119815000000001
32.944815 18.069815 15.094815
29.969815000000004 21.044815 15.094815
32.944815 21.044815 18.069815
32.944815 18.069815 21.044815
29.969815000000004 21.044815 21.044815
32.944815 21.044815 24.019815
32.944815 18.069815 26.994815000000003
29.969815000000004 21.044815 26.994815000000003
32.944815 21.044815 29.969815000000004
32.944815 18.069815 32.944815
29.969815000000004 21.044815 32.944815
32.944815 21.044815 35.919815
32.944815 26.994815000000003 12.119815000000001
32.944815 24.019815 15.094815
29.969815000000004 26.994815000000003 15.094815
32.944815 26.994815000000003 18.069815
32.944815 24.019815 21.044815
29.969815000000004 26.994815000000003 21.044815
32.944815 26.994815000000003 24.019815
32.944815 24.019815 26.994815000000003
29.969815000000004 26.994815000000003 26.994815000000003
32.944815 26.994815000000003 29.969815000000004
32.944815 24.019815 32.944815
29.969815000000004 26.994815000000003 32.944815
32.944815 26.994815000000003 35.919815
32.944815 32.944815 12.119815000000001
32.944815 29.969815000000004 15.094815
29.969815000000004 32.944815 15.094815
32.944815 32.944815 18.069815
32.944815 29.969815000000004 21.044815
29.969815000000004 32.944815 21.044815
32.944815 32.944815 24.019815
32.944815 29.969815000000004 26.994815000000003
29.969815000000004 32.944815 26.994815000000003
32.944815 32.944815 29.969815000000004
32.944815 29.969815000000004 32.944815
29.969815000000004 32.944815 32.944815
32.944815 32.944815 35.919815
32.944815 35.919815 15.094815
32.944815 35.919815 26.994815000000003
32.944815 35.919815 32.944815
35.919815 15.094815 15.094815
35.919815 15.094815 21.044815
35.919815 15.094815 26.994815000000003
35.919815 15.094815 32.944815
35.919815 21.044815 15.094815
35.919815 21.044815 21.044815
35.919815 21.044815 26.994815000000003
35.919815 26.994815000000003 15.094815
35.919815 26.994815000000003 21.044815
35.919815 26.994815000000003 26.994815000000003
35.919815 32.944815 26.994815000000003
35.919815 32.944815 32.944815
32.803015 14.712931000000001 39.570101
32.594784000000004 14.133166000000001 38.28788900000001
32.944815 15.094815 37.36827100000001
33.265974 15.984122000000001 39.34458600000001
32.944815 15.094815 35.919815
20.728827000000003 33.201903 39.570101
20.246838 33.585535 38.28788900000001
21.044815 32.944815 37.36827100000001
21.783579000000003 32.354699000000004 39.34458600000001
21.044815 32.944815 35.919815
27.378945 14.959219000000001 39.570101
27.962007 14.760405 38.28788900000001
26.994815000000003 15.094815 37.36827100000001
26.100424000000004 15.401528 39.34458600000001
26.994815000000003 15.094815 35.919815
15.497063 20.980479000000003 39.570101
16.106365 20.889715000000002 38.28788900000001
15.094815 21.044815 37.36827100000001
14.159858000000002 21.185757000000002 39.34458600000001
15.094815 21.044815 35.919815
21.443656000000004 27.077690000000004 8.469529000000001
22.048108 27.196541000000003 9.751741
21.044815 26.994815000000003 10.671359
20.117379 26.810775 8.695044000000001
21.044815 26.994815000000003 12.119815000000001
15.501806 15.112169000000002 8.469529000000001
16.117518 15.131811 9.751741
15.094815 15.094815 10.671359
14.149829 15.063018000000001 8.695044000000001
15.094815 15.094815 12.119815000000001
14.814933000000002 33.240803 8.469529000000001
14.396509 33.692918 9.751741
15.094815 32.944815 10.671359
15.738252000000001 32.251996 8.695044000000001
15.094815 32.944815 12.119815000000001
27.11871 15.482877 8.469529000000001
27.312351 16.067677000000003 9.751741
26.994815000000003 15.094815 10.671359
26.699167000000003 14.196705000000001 8.695044000000001
26.994815000000003 15.094815 12.119815000000001
8.469529000000001 15.500744000000001 21.078933
9.751741 16.115123 21.123942
10.671359 15.094815 21.044815
8.695044000000001 14.151943000000001 20.974087000000004
12.119815000000001 15.094815 21.044815
8.469529000000001 26.977881000000004 15.501823
9.751741 26.958875 16.117555000000003
10.671359 26.994815000000003 15.094815
8.695044000000001 27.025636 14.149797000000001
12.119815000000001 26.994815000000003 15.094815
8.469529000000001 26.649925000000003 33.161594
9.751741 26.131914000000002 33.494989000000004
10.671359 26.994815000000003 32.944815
8.695044000000001 27.790787 32.434484
12.119815000000001 26.994815000000003 32.944815
8.469529000000001 33.133957 26.634027000000003
9.751741 33.414119 26.085396000000003
10.671359 32.944815 26.994815000000003
8.695044000000001 32.513335 27.836144000000004
12.119815000000001 32.944815 26.994815000000003
39.570101 33.074533 21.430970000000002
38.28788900000001 33.264424 22.016998
37.36827100000001 32.944815 21.044815
39.34458600000001 32.651788 20.145847000000003
35.919815 32.944815 21.044815
39.570101 26.587900000000005 32.925766
38.28788900000001 25.972893 32.890363
37.36827100000001 26.994815000000003 32.944815
39.34458600000001 27.938866000000004 32.997508
35.919815 26.994815000000003 32.944815
39.570101 33.257885 14.834182
38.28788900000001 33.735521 14.445143
37.36827100000001 32.944815 15.094815
39.34458600000001 32.212748 15.693218
35.919815 32.944815 15.094815
39.570101 21.449725 32.9002
38.28788900000001 22.062733 32.8393
37.36827100000001 21.044815 32.944815
39.34458600000001 20.104091000000004 33.039929
35.919815 21.044815 32.944815
27.126583000000004 8.469529000000001 21.430275
27.319585000000004 9.751741 22.015286000000003
26.994815000000003 10.671359 21.044815
26.697015 8.695044000000001 20.147416
26.994815000000003 12.119815000000001 21.044815
27.40175 8.469529000000001 15.076201000000001
28.017398 9.751741 15.054652
26.994815000000003 10.671359 15.094815
26.049932 8.695044000000001 15.129538000000002
26.994815000000003 12.119815000000001 15.094815
15.344983000000001 8.469529000000001 15.416309
15.718061 9.751741 15.906513
15.094815 10.671359 15.094815
14.520876000000001 8.695044000000001 14.343414000000001
15.094815 12.119815000000001 15.094815
21.393829000000004 8.469529000000001 33.154891
21.918183 9.751741 33.478217
21.044815 10.671359 32.944815
20.239133000000002 8.695044000000001 32.449956
21.044815 12.119815000000001 32.944815
21.449868000000002 39.570101 32.988108000000004
22.063072 38.28788900000001 33.047005
21.044815 37.36827100000001 32.944815
20.103785000000002 39.34458600000001 32.852774000000004
21.044815 35.919815 32.944815
14.703763 39.570101 20.930707000000005
14.110583 38.28788900000001 20.764501000000003
15.094815 37.36827100000001 21.044815
16.004825 39.34458600000001 21.301509000000003
15.094815 35.919815 21.044815
32.545897000000004 39.570101 21.127321000000002
31.944012 38.28788900000001 21.25855
32.944815 37.36827100000001 21.044815
33.868983 39.34458600000001 20.845006000000005
32.944815 35.919815 21.044815
20.900575000000003 39.570101 21.425784
20.68864 38.28788900000001 22.004205
21.044815 37.36827100000001 21.044815
21.371656 39.34458600000001 20.157581
21.044815 35.919815 21.044815
10.644154 29.969815000000004 18.069815
37.395476 24.019815 29.969815000000004
29.969815000000004 37.395476 18.069815
18.069815 29.969815000000004 37.395476
24.019815 10.644154 18.069815
11.076365000000001 11.076365000000001 18.069815
24.019815 11.076365000000001 11.076365000000001
24.019815 37.395476 24.019815
11.076365000000001 36.96326500000001 24.019815
29.969815000000004 29.969815000000004 37.395476
18.069815 37.395476 18.069815
29.969815000000004 11.076365000000001 36.96326500000001
29.969815000000004 24.019815 10.644154
11.076365000000001 36.96326500000001 29.969815000000004
18.069815 10.644154 24.019815
11.076365000000001 24.019815 36.96326500000001
37.395476 18.069815 24.019815
12.119815000000001 12.119815000000001 24.019815
12.119815000000001 12.119815000000001 29.969815000000004
12.119815000000001 18.069815 18.069815
12.119815000000001 18.069815 24.019815
12.119815000000001 18.069815 29.969815000000004
12.119815000000001 24.019815 12.119815000000001
12.119815000000001 24.019815 18.069815
12.119815000000001 24.019815 24.019815
12.119815000000001 24.019815 29.969815000000004
12.119815000000001 29.969815000000004 12.119815000000001
12.119815000000001 29.969815000000004 24.019815
12.119815000000001 29.969815000000004 29.969815000000004
12.119815000000001 29.969815000000004 35.919815
12.119815000000001 35.919815 18.069815
18.069815 12.119815000000001 12.119815000000001
18.069815 12.119815000000001 18.069815
18.069815 12.119815000000001 29.969815000000004
18.069815 12.119815000000001 35.919815
18.069815 18.069815 12.119815000000001
18.069815 18.069815 18.069815
18.069815 18.069815 24.019815
18.069815 18.069815 29.969815000000004
18.069815 18.069815 35.919815
18.069815 24.019815 12.119815000000001
18.069815 24.019815 18.069815
18.069815 24.019815 24.019815
18.069815 24.019815 29.969815000000004
18.069815 24.019815 35.919815
18.069815 29.969815000000004 12.119815000000001
18.069815 29.969815000000004 18.069815
18.069815 29.969815000000004 24.019815
18.069815 29.969815000000004 29.969815000000004
18.069815 35.919815 12.119815000000001
18.069815 35.919815 24.019815
24.019815 12.119815000000001 24.019815
24.019815 12.119815000000001 29.969815000000004
24.019815 12.119815000000001 35.919815
24.019815 18.069815 12.119815000000001
24.019815 18.069815 18.069815
24.019815 18.069815 24.019815
24.019815 18.069815 29.969815000000004
24.019815 18.069815 35.919815
24.019815 24.019815 18.069815
24.019815 24.019815 24.019815
24.019815 24.019815 29.969815000000004
24.019815 24.019815 35.919815
24.019815 29.969815000000004 12.119815000000001
24.019815 29.969815000000004 18.069815
24.019815 29.969815000000004 24.019815
24.019815 29.969815000000004 29.969815000000004
24.019815 29.969815000000004 35.919815
24.019815 35.919815 12.119815000000001
24.019815 35.919815 18.069815
24.019815 35.919815 29.969815000000004
24.019815 35.919815 35.919815
29.969815000000004 12.119815000000001 12.119815000000001
29.969815000000004 12.119815000000001 18.069815
29.969815000000004 12.119815000000001 24.019815
29.969815000000004 12.119815000000001 29.969815000000004
29.969815000000004 18.069815 12.119815000000001
29.969815000000004 18.069815 18.069815
29.969815000000004 18.069815 24.019815
29.969815000000004 18.069815 29.969815000000004
29.969815000000004 18.069815 35.919815
29.969815000000004 24.019815 18.069815
29.969815000000004 24.019815 24.019815
29.969815000000004 24.019815 29.969815000000004
29.969815000000004 24.019815 35.919815
29.969815000000004 29.969815000000004 12.119815000000001
29.969815000000004 29.969815000000004 18.069815
29.969815000000004 29.969815000000004 24.019815
29.969815000000004 29.969815000000004 29.969815000000004
29.969815000000004 35.919815 12.119815000000001
29.969815000000004 35.919815 24.019815
29.969815000000004 35.919815 29.969815000000004
29.969815000000004 35.919815 35.919815
35.919815 12.119815000000001 18.069815
35.919815 12.119815000000001 24.019815
35.919815 12.119815000000001 29.969815000000004
35.919815 18.069815 12.119815000000001
35.919815 18.069815 18.069815
35.919815 18.069815 29.969815000000004
35.919815 18.069815 35.919815
35.919815 24.019815 12.119815000000001
35.919815 24.019815 18.069815
35.919815 24.019815 24.019815
35.919815 24.019815 35.919815
35.919815 29.969815000000004 12.119815000000001
35.919815 29.969815000000004 18.069815
35.919815 29.969815000000004 24.019815
35.919815 29.969815000000004 29.969815000000004
35.919815 29.969815000000004 35.919815
35.919815 35.919815 18.069815
35.919815 35.919815 24.019815
35.919815 35.919815 29.969815000000004
33.564677 16.797878 39.998206
32.632145 14.255245 40.53963
32.233049 13.135743000000002 38.05550100000001
22.45803 31.810144 39.998206
20.350415 33.510897 40.53963
19.418751999999998 34.248844 38.05550100000001
25.281936 15.687013 39.998206
27.839339000000002 14.795784000000001 40.53963
28.965158000000002 14.414872 38.05550100000001
13.303384000000001 21.319459000000002 39.998206
15.979336000000002 20.902466000000004 40.53963
17.155288 20.730137 38.05550100000001
19.268006 26.637597 8.041424000000001
21.921804 27.177928 7.500000000000001
23.088526 27.404470000000003 9.984129000000001
13.283637 15.029329 8.041424000000001
15.989866000000001 15.133847000000001 7.500000000000001
17.177861 15.168931 9.984129000000001
16.331470000000003 31.619923 8.041424000000001
14.478646000000001 33.595181000000004 7.500000000000001
13.673438 34.469367 9.984129000000001
26.432436000000003 13.371915000000001 8.041424000000001
27.266471000000003 15.948538000000001 7.500000000000001
27.642736 17.075918 9.984129000000001
8.041424000000001 13.287877 20.904717000000005
7.500000000000001 15.987496000000002 21.120713000000002
9.984129000000001 17.173034 21.204744000000005
8.041424000000001 27.05843 13.283571
7.500000000000001 26.956708 15.989906000000001
9.984129000000001 26.922850000000004 17.177936000000003
8.041424000000001 28.522969000000003 31.970444999999998
7.500000000000001 26.235842000000005 33.420841
9.984129000000001 25.237957 34.066431
8.041424000000001 32.113722 28.605386000000003
7.500000000000001 33.361560000000004 26.201742000000003
9.984129000000001 33.899575 25.141978
39.998206 32.378829 19.323097
40.53963 33.230922 21.893804000000003
38.05550100000001 33.594607 23.025306
39.998206 28.804607000000004 33.041282
40.53963 26.099853000000003 32.903786000000004
38.05550100000001 24.913470000000004 32.832673
39.998206 31.544476000000003 16.245339
40.53963 33.632792 14.520944000000002
38.05550100000001 34.55608 13.772545000000001
39.998206 19.242109 33.131645
40.53963 21.935232 32.845833
38.05550100000001 23.118197000000002 32.731138
26.419688 8.041424000000001 19.326129
27.285429 7.500000000000001 21.892272
27.655121 9.984129000000001 23.021825
25.183849000000002 8.041424000000001 15.165909000000001
27.889741 7.500000000000001 15.053012
29.077621 9.984129000000001 15.01425
13.991090000000002 8.041424000000001 13.657301
15.645689 7.500000000000001 15.801340000000001
16.363236999999998 9.984129000000001 16.748803000000002
19.498123 8.041424000000001 32.000148
21.812842000000003 7.500000000000001 33.40609
22.823013000000003 9.984129000000001 34.032283
19.241509 39.998206 32.763872
21.935551000000004 40.53963 33.040889
23.118884 38.05550100000001 33.151721
16.837871 39.998206 21.541212
14.235022 40.53963 20.793029000000004
13.089830000000001 38.05550100000001 20.475072
34.717201 39.998206 20.666264000000005
32.067306 40.53963 21.22542
30.906677000000002 38.05550100000001 21.481352
21.675559 39.998206 19.345752
20.726780000000005 40.53963 21.882368
20.320532 38.05550100000001 22.999293
10.310233 30.620973 18.879826
10.310233 30.345727000000004 17.10089
10.310233 28.942746 18.228729
12.494557 29.369704 17.323305
12.494557 29.623373 18.962781
12.494557 30.916367 17.923358999999998
37.729397000000006 23.043414 29.613772000000004
37.729397000000006 24.816357000000004 29.302249000000003
37.729397000000006 24.199673000000004 30.993423999999997
35.545073 24.919671 30.297946000000003
35.545073 23.285717000000005 30.585047000000003
35.545073 23.854057000000005 29.026451
29.305623000000004 37.729397000000006 17.270456000000003
29.609645999999998 37.729397000000006 19.044701000000003
30.994176000000003 37.729397000000006 17.894288000000003
30.581938 35.545073 18.806508
30.301749 35.545073 17.171355
29.025759 35.545073 18.231582000000003
17.272750000000002 30.636758 37.729397000000006
17.890757999999998 28.946065000000004 37.729397000000006
19.045937000000002 30.326622 37.729397000000006
18.804394000000002 29.355157 35.545073
18.234835000000004 30.913308 35.545073
17.170216000000003 29.640979 35.545073
23.607029000000004 10.310233 19.023614000000002
23.400193 10.310233 17.235433
25.052222 10.310233 17.950398
24.400241 12.494557 17.190789000000002
24.590861000000004 12.494557 18.838786
23.068343 12.494557 18.17987
10.861537000000002 10.818958000000002 19.108669
10.193437000000001 11.487058000000001 17.576462
11.465768 10.214726 17.524314000000004
12.365177000000001 12.404418 17.112401
12.980902 11.788694000000001 18.524492000000002
11.808314000000001 12.961281000000001 18.572552
25.056306 10.894149 10.786345
23.567586 10.178578000000002 11.501917
23.435553 11.448015000000002 10.23248
23.064579000000002 12.335122000000002 12.434474000000002
24.436592000000005 12.994596000000001 11.775000000000002
24.558273 11.824676 12.944920000000002
24.386151000000005 37.729397000000006 23.047229
22.994363 37.729397000000006 24.188851
24.678931 37.729397000000006 24.823364000000005
23.682198 35.545073 24.916155000000003
24.964877 35.545073 23.86403
23.412370000000003 35.545073 23.27926
10.174196000000002 36.533331000000004 24.458991000000005
11.442212000000001 37.80134700000001 24.615971000000002
10.904334 37.263469 22.984484000000002
12.998634000000001 36.268669 23.615068
11.830024000000002 35.100058000000004 23.470395000000003
12.325735000000002 35.59577 24.973982
30.161345000000004 30.991305000000004 37.729397000000006
28.989414000000004 29.624940000000002 37.729397000000006
30.758686000000004 29.293201000000003 37.729397000000006
29.793301 29.028405 35.545073
30.873357 30.287654000000003 35.545073
29.242787 30.593386000000002 35.545073
18.835472000000003 37.729397000000006 18.772591
18.295608 37.729397000000006 17.055348000000002
17.078364999999998 37.729397000000006 18.381506
17.364181000000002 35.545073 17.422133000000002
17.861722999999998 35.545073 19.004753
18.983541000000002 35.545073 17.782559
29.987313 10.105462000000001 36.464597
30.86099 11.218356 37.577491
29.061141 11.196924000000001 37.55606
29.953688 13.06198 36.332014
29.148502999999998 12.036331 35.306366000000004
30.807254 12.056083000000001 35.326117
29.58231 23.055468000000005 10.310233
29.328419000000004 24.837578 10.310233
30.998716 24.166399 10.310233
30.326942000000003 24.908562000000003 12.494557
30.560929 23.26616 12.494557
29.021574 23.884723 12.494557
11.121190000000002 37.48032500000001 30.930163
11.287866000000001 37.647002 29.145558
10.111686 36.470821 29.833725
12.125879000000001 35.395914 29.084754000000004
11.972270000000002 35.242304000000004 30.729455
13.056244000000001 36.326278 30.095236
18.077049000000002 10.310233 22.98055
18.966228 10.310233 24.545713
17.166168 10.310233 24.533182000000004
18.063147 12.494557 24.977607
17.243676 12.494557 23.535145
18.902621000000003 12.494557 23.546693000000005
10.310695 24.740422000000002 36.669830000000005
10.663744000000001 23.010945 37.022879
11.546303000000002 24.308078000000002 37.905438000000004
12.872836000000001 23.3557 36.142871
12.547464000000002 24.949595000000002 35.817499
11.734093000000001 23.754150000000003 35.004128
37.729397000000006 19.074989000000002 24.283917000000002
37.729397000000006 17.338509000000002 24.758271
37.729397000000006 17.795946999999998 23.017258000000005
35.545073 17.143441000000003 23.776417000000002
35.545073 18.743791 23.339251000000004
35.545073 18.322212999999998 24.943777000000004
12.119815000000001 29.969815000000004 18.069815
35.919815 24.019815 29.969815000000004
29.969815000000004 35.919815 18.069815
18.069815 29.969815000000004 35.919815
24.019815 12.119815000000001 18.069815
12.119815000000001 12.119815000000001 18.069815
24.019815 12.119815000000001 12.119815000000001
24.019815 35.919815 24.019815
12.119815000000001 35.919815 24.019815
29.969815000000004 29.969815000000004 35.919815
18.069815 35.919815 18.069815
29.969815000000004 12.119815000000001 35.919815
29.969815000000004 24.019815 12.119815000000001
12.119815000000001 35.919815 29.969815000000004
18.069815 12.119815000000001 24.019815
12.119815000000001 24.019815 35.919815
35.919815 18.069815 24.019815
33.359201 16.238722000000003 38.011344
32.553306 14.101229000000002 35.219219
33.327759 16.066791000000002 35.186599
21.994669000000002 32.18454 38.011344
20.229939 33.635082000000004 35.219219
21.841984000000004 32.269608 35.186599
25.844346 15.490620000000002 38.011344
27.994611 14.719449000000001 35.219219
26.016765 15.461967000000001 35.186599
13.891937 21.227364 38.011344
16.145801 20.855287000000004 35.219219
14.066697000000001 21.230172000000003 35.186599
19.851669 26.756818000000003 10.028286000000001
22.085909 27.232756000000002 12.820411000000002
20.026372000000002 26.762098 12.853031000000001
13.878893000000001 15.052695000000002 10.028286000000001
16.160673000000003 15.161444000000001 12.820411000000002
14.052155 15.029682000000001 12.853031000000001
15.923642000000001 32.054149 10.028286000000001
14.345843 33.706085 12.820411000000002
15.827452000000001 32.200082 12.853031000000001
26.615535 13.938793 10.028286000000001
27.299396 16.118398 12.820411000000002
26.696819000000005 14.093525000000001 12.853031000000001
10.028286000000001 13.881663000000001 20.952603000000003
12.820411000000002 16.157020000000003 21.155329000000002
12.853031000000001 14.055726000000002 20.936753000000003
10.028286000000001 27.035679000000002 13.878850000000002
12.820411000000002 26.929287000000002 16.160741
12.853031000000001 27.058871000000003 14.052088000000001
10.028286000000001 28.019684000000005 32.28916
12.820411000000002 26.079565000000002 33.495096000000004
12.853031000000001 27.890119 32.406472
10.028286000000001 32.388534 28.076846000000003
12.820411000000002 33.459317 26.058984000000002
12.853031000000001 32.441553 27.910298000000004
38.011344 32.566615 19.888438999999998
35.219219 33.304878 22.050224
35.186599 32.592633 20.061275000000002
38.011344 28.209642000000002 33.011414
35.219219 25.927265 32.916025
35.186599 28.039127 32.973025
38.011344 32.003589 15.865746000000001
35.219219 33.751861 14.395409
35.186599 32.155305 15.778962000000002
38.011344 19.834457 33.068402
35.219219 22.103803 32.80684
35.186599 20.008872000000004 33.079741
26.610476 10.028286000000001 19.890465
27.360215000000004 12.820411000000002 22.048296
26.637412000000005 12.853031000000001 20.063160000000003
25.779029 10.028286000000001 15.140699000000001
28.060461000000004 12.820411000000002 15.024886
25.952361000000003 12.853031000000001 15.163176000000002
14.355339 10.028286000000001 14.128681
15.767229 12.820411000000002 15.924484000000001
14.437073 12.853031000000001 14.283176000000001
20.007471000000002 10.028286000000001 32.309081
21.970525000000002 12.820411000000002 33.477312
20.139278 12.853031000000001 32.423868
19.83406 38.011344 32.82518
22.104248 35.219219 33.079332
20.008437 35.186599 32.813272
16.265444000000002 38.011344 21.376277
14.075759000000001 35.219219 20.725414
16.091703000000003 35.186599 21.357220000000005
34.134244 38.011344 20.788889000000005
31.894928999999998 35.219219 21.240346000000002
33.97184 35.186599 20.853494000000005
21.46651 38.011344 19.903582
20.646958000000005 35.219219 22.035876000000002
21.433969000000005 35.186599 20.075309
15.094815 15.094815 15.094815
15.094815 15.094815 21.044815
15.094815 15.094815 26.994815000000003
15.094815 15.094815 32.944815
15.094815 21.044815 15.094815
15.094815 21.044815 21.044815
15.094815 21.044815 26.994815000000003
15.094815 21.044815 32.944815
15.094815 26.994815000000003 15.094815