3_train/275_cspbbr3_MA-Cys_3_0.40\275_cspbbr3_MA-Cys_3_0.40.xyz
1.0
41.446326 0 0
0 41.446326 0
0 0 41.446326
Br C Cs H N O Pb S 
84 91 35 282 43 48 27 24 
Cartesian
11.798162999999999 14.773162999999998 14.773162999999998
14.773162999999998 14.773162999999998 17.748162999999998
11.798162999999999 14.773162999999998 20.723163
14.773162999999998 14.773162999999998 23.698162999999997
14.773162999999998 20.723163 11.798162999999999
14.773162999999998 17.748162999999998 14.773162999999998
14.773162999999998 20.723163 17.748162999999998
14.773162999999998 17.748162999999998 20.723163
11.798162999999999 20.723163 20.723163
14.773162999999998 20.723163 23.698162999999997
14.773162999999998 17.748162999999998 26.673163
14.773162999999998 20.723163 29.648163
14.773162999999998 23.698162999999997 14.773162999999998
11.798162999999999 26.673163 14.773162999999998
14.773162999999998 26.673163 17.748162999999998
14.773162999999998 23.698162999999997 20.723163
14.773162999999998 26.673163 23.698162999999997
14.773162999999998 23.698162999999997 26.673163
11.798162999999999 26.673163 26.673163
14.773162999999998 26.673163 29.648163
14.773162999999998 29.648163 14.773162999999998
14.773162999999998 29.648163 20.723163
14.773162999999998 29.648163 26.673163
17.748162999999998 14.773162999999998 14.773162999999998
20.723163 14.773162999999998 17.748162999999998
20.723163 11.798162999999999 20.723163
17.748162999999998 14.773162999999998 20.723163
20.723163 14.773162999999998 23.698162999999997
20.723163 11.798162999999999 26.673163
17.748162999999998 14.773162999999998 26.673163
20.723163 20.723163 11.798162999999999
20.723163 17.748162999999998 14.773162999999998
17.748162999999998 20.723163 14.773162999999998
20.723163 20.723163 17.748162999999998
20.723163 17.748162999999998 20.723163
17.748162999999998 20.723163 20.723163
20.723163 20.723163 23.698162999999997
20.723163 17.748162999999998 26.673163
17.748162999999998 20.723163 26.673163
20.723163 26.673163 11.798162999999999
20.723163 23.698162999999997 14.773162999999998
17.748162999999998 26.673163 14.773162999999998
20.723163 26.673163 17.748162999999998
20.723163 23.698162999999997 20.723163
17.748162999999998 26.673163 20.723163
20.723163 26.673163 23.698162999999997
20.723163 23.698162999999997 26.673163
17.748162999999998 26.673163 26.673163
20.723163 26.673163 29.648163
20.723163 29.648163 20.723163
26.673163 14.773162999999998 11.798162999999999
26.673163 11.798162999999999 14.773162999999998
23.698162999999997 14.773162999999998 14.773162999999998
26.673163 14.773162999999998 17.748162999999998
26.673163 11.798162999999999 20.723163
23.698162999999997 14.773162999999998 20.723163
26.673163 14.773162999999998 23.698162999999997
26.673163 11.798162999999999 26.673163
23.698162999999997 14.773162999999998 26.673163
26.673163 14.773162999999998 29.648163
26.673163 20.723163 11.798162999999999
26.673163 17.748162999999998 14.773162999999998
23.698162999999997 20.723163 14.773162999999998
26.673163 20.723163 17.748162999999998
26.673163 17.748162999999998 20.723163
23.698162999999997 20.723163 20.723163
26.673163 20.723163 23.698162999999997
26.673163 17.748162999999998 26.673163
23.698162999999997 20.723163 26.673163
26.673163 20.723163 29.648163
26.673163 23.698162999999997 14.773162999999998
23.698162999999997 26.673163 14.773162999999998
26.673163 26.673163 17.748162999999998
26.673163 23.698162999999997 20.723163
23.698162999999997 26.673163 20.723163
26.673163 26.673163 23.698162999999997
26.673163 23.698162999999997 26.673163
23.698162999999997 26.673163 26.673163
26.673163 29.648163 20.723163
29.648163 14.773162999999998 14.773162999999998
29.648163 14.773162999999998 20.723163
29.648163 14.773162999999998 26.673163
29.648163 20.723163 14.773162999999998
29.648163 26.673163 20.723163
26.673163 26.673163 32.095738999999995
26.351271 26.14791 30.699783999999998
27.790882999999997 27.722812 32.027452999999994
20.723163 14.773162999999998 32.095738999999995
20.401270999999998 14.24791 30.699783999999998
21.840882999999998 15.822811999999999 32.027452999999994
20.723163 20.723163 32.095738999999995
20.401270999999998 20.19791 30.699783999999998
21.840882999999998 21.772812 32.027452999999994
14.773162999999998 14.773162999999998 32.095738999999995
14.451270999999998 14.24791 30.699783999999998
15.890882999999999 15.822811999999999 32.027452999999994
14.773162999999998 14.773162999999998 9.350586999999999
15.095054999999999 14.24791 10.746541999999998
13.655442999999998 15.822811999999999 9.418872999999998
26.673163 26.673163 9.350586999999999
26.995054999999997 26.14791 10.746541999999998
25.555443 27.722812 9.418872999999998
14.773162999999998 26.673163 9.350586999999999
15.095054999999999 26.14791 10.746541999999998
13.655442999999998 27.722812 9.418872999999998
20.723163 14.773162999999998 9.350586999999999
21.045055 14.24791 10.746541999999998
19.605443 15.822811999999999 9.418872999999998
9.350586999999999 14.773162999999998 26.673163
10.746541999999998 14.24791 26.351271
9.418872999999998 15.822811999999999 27.790882999999997
9.350586999999999 26.673163 20.723163
10.746541999999998 26.14791 20.401270999999998
9.418872999999998 27.722812 21.840882999999998
9.350586999999999 20.723163 14.773162999999998
10.746541999999998 20.19791 14.451270999999998
9.418872999999998 21.772812 15.890882999999999
9.350586999999999 20.723163 26.673163
10.746541999999998 20.19791 26.351271
9.418872999999998 21.772812 27.790882999999997
32.095738999999995 26.673163 26.673163
30.699783999999998 26.14791 26.995054999999997
32.027452999999994 27.722812 25.555443
32.095738999999995 20.723163 26.673163
30.699783999999998 20.19791 26.995054999999997
32.027452999999994 21.772812 25.555443
32.095738999999995 26.673163 14.773162999999998
30.699783999999998 26.14791 15.095054999999999
32.027452999999994 27.722812 13.655442999999998
32.095738999999995 20.723163 20.723163
30.699783999999998 20.19791 21.045055
32.027452999999994 21.772812 19.605443
14.773162999999998 9.350586999999999 20.723163
14.451270999999998 10.746541999999998 20.19791
15.890882999999999 9.418872999999998 21.772812
14.773162999999998 9.350586999999999 14.773162999999998
14.451270999999998 10.746541999999998 14.24791
15.890882999999999 9.418872999999998 15.822811999999999
20.723163 9.350586999999999 14.773162999999998
20.401270999999998 10.746541999999998 14.24791
21.840882999999998 9.418872999999998 15.822811999999999
14.773162999999998 9.350586999999999 26.673163
14.451270999999998 10.746541999999998 26.14791
15.890882999999999 9.418872999999998 27.722812
20.723163 32.095738999999995 14.773162999999998
20.401270999999998 30.699783999999998 15.298416
21.840882999999998 32.027452999999994 13.723513999999998
26.673163 32.095738999999995 26.673163
26.351271 30.699783999999998 27.198415999999998
27.790882999999997 32.027452999999994 25.623513999999997
26.673163 32.095738999999995 14.773162999999998
26.351271 30.699783999999998 15.298416
27.790882999999997 32.027452999999994 13.723513999999998
20.723163 32.095738999999995 26.673163
20.401270999999998 30.699783999999998 27.198415999999998
21.840882999999998 32.027452999999994 25.623513999999997
30.691613 10.754712999999999 17.748162999999998
23.698162999999997 23.698162999999997 31.123824
17.748162999999998 17.748162999999998 10.322502
17.748162999999998 17.748162999999998 31.123824
10.754712999999999 17.748162999999998 10.754712999999999
23.698162999999997 17.748162999999998 31.123824
17.748162999999998 30.691613 10.754712999999999
17.748162999999998 23.698162999999997 10.322502
30.691613 23.698162999999997 10.754712999999999
23.698162999999997 10.322502 23.698162999999997
10.322502 17.748162999999998 17.748162999999998
10.754712999999999 23.698162999999997 30.691613
10.754712999999999 30.691613 23.698162999999997
10.322502 23.698162999999997 17.748162999999998
30.691613 30.691613 17.748162999999998
23.698162999999997 10.322502 17.748162999999998
30.691613 10.754712999999999 23.698162999999997
31.123824 17.748162999999998 23.698162999999997
17.748162999999998 31.123824 17.748162999999998
11.798162999999999 11.798162999999999 17.748162999999998
11.798162999999999 11.798162999999999 23.698162999999997
11.798162999999999 17.748162999999998 23.698162999999997
11.798162999999999 17.748162999999998 29.648163
11.798162999999999 23.698162999999997 11.798162999999999
11.798162999999999 29.648163 17.748162999999998
17.748162999999998 11.798162999999999 11.798162999999999
17.748162999999998 11.798162999999999 17.748162999999998
17.748162999999998 11.798162999999999 23.698162999999997
17.748162999999998 11.798162999999999 29.648163
17.748162999999998 17.748162999999998 17.748162999999998
17.748162999999998 17.748162999999998 23.698162999999997
17.748162999999998 23.698162999999997 17.748162999999998
17.748162999999998 23.698162999999997 23.698162999999997
17.748162999999998 23.698162999999997 29.648163
17.748162999999998 29.648163 23.698162999999997
17.748162999999998 29.648163 29.648163
23.698162999999997 11.798162999999999 11.798162999999999
23.698162999999997 11.798162999999999 29.648163
23.698162999999997 17.748162999999998 11.798162999999999
23.698162999999997 17.748162999999998 17.748162999999998
23.698162999999997 17.748162999999998 23.698162999999997
23.698162999999997 23.698162999999997 17.748162999999998
23.698162999999997 23.698162999999997 23.698162999999997
23.698162999999997 29.648163 11.798162999999999
23.698162999999997 29.648163 17.748162999999998
23.698162999999997 29.648163 23.698162999999997
23.698162999999997 29.648163 29.648163
29.648163 17.748162999999998 11.798162999999999
29.648163 17.748162999999998 17.748162999999998
29.648163 17.748162999999998 29.648163
29.648163 23.698162999999997 17.748162999999998
29.648163 23.698162999999997 23.698162999999997
29.648163 23.698162999999997 29.648163
29.648163 29.648163 23.698162999999997
25.742383 27.179888 32.431766999999994
25.452648999999997 24.727349 29.822336999999997
26.464699999999997 24.771522 32.870585
27.068101 25.869373 33.946326
28.63405 27.31713 31.453007
28.150389999999998 27.931925 33.042665
27.234230999999998 30.017429 32.411152
19.792383 15.279888 32.431766999999994
19.502648999999998 12.827348999999998 29.822336999999997
20.5147 12.871521999999999 32.870585
21.118101 13.969373 33.946326
22.68405 15.417129999999998 31.453007
22.20039 16.031924999999998 33.042665
21.284231 18.117428999999998 32.411152
19.792383 21.229888 32.431766999999994
19.502648999999998 18.777349 29.822336999999997
20.5147 18.821521999999998 32.870585
21.118101 19.919373 33.946326
22.68405 21.36713 31.453007
22.20039 21.981925 33.042665
21.284231 24.067429 32.411152
13.842382999999998 15.279888 32.431766999999994
13.552648999999999 12.827348999999998 29.822336999999997
14.564699999999998 12.871521999999999 32.870585
15.168100999999998 13.969373 33.946326
16.73405 15.417129999999998 31.453007
16.25039 16.031924999999998 33.042665
15.334230999999999 18.117428999999998 32.411152
15.703942999999999 15.279888 9.014558999999998
15.993676999999998 12.827348999999998 11.623988999999998
14.981625999999999 12.871521999999999 8.575740999999999
14.378224999999999 13.969373 7.499999999999999
12.812275999999999 15.417129999999998 9.993319
13.295936 16.031924999999998 8.403661
14.212094999999998 18.117428999999998 9.035173999999998
27.603942999999997 27.179888 9.014558999999998
27.893677 24.727349 11.623988999999998
26.881626 24.771522 8.575740999999999
26.278225 25.869373 7.499999999999999
24.712276 27.31713 9.993319
25.195936 27.931925 8.403661
26.112095 30.017429 9.035173999999998
15.703942999999999 27.179888 9.014558999999998
15.993676999999998 24.727349 11.623988999999998
14.981625999999999 24.771522 8.575740999999999
14.378224999999999 25.869373 7.499999999999999
12.812275999999999 27.31713 9.993319
13.295936 27.931925 8.403661
14.212094999999998 30.017429 9.035173999999998
21.653942999999998 15.279888 9.014558999999998
21.943676999999997 12.827348999999998 11.623988999999998
20.931625999999998 12.871521999999999 8.575740999999999
20.328225 13.969373 7.499999999999999
18.762276 15.417129999999998 9.993319
19.245936 16.031924999999998 8.403661
20.162095 18.117428999999998 9.035173999999998
9.014558999999998 15.279888 25.742383
11.623988999999998 12.827348999999998 25.452648999999997
8.575740999999999 12.871521999999999 26.464699999999997
7.499999999999999 13.969373 27.068101
9.993319 15.417129999999998 28.63405
8.403661 16.031924999999998 28.150389999999998
9.035173999999998 18.117428999999998 27.234230999999998
9.014558999999998 27.179888 19.792383
11.623988999999998 24.727349 19.502648999999998
8.575740999999999 24.771522 20.5147
7.499999999999999 25.869373 21.118101
9.993319 27.31713 22.68405
8.403661 27.931925 22.20039
9.035173999999998 30.017429 21.284231
9.014558999999998 21.229888 13.842382999999998
11.623988999999998 18.777349 13.552648999999999
8.575740999999999 18.821521999999998 14.564699999999998
7.499999999999999 19.919373 15.168100999999998
9.993319 21.36713 16.73405
8.403661 21.981925 16.25039
9.035173999999998 24.067429 15.334230999999999
9.014558999999998 21.229888 25.742383
11.623988999999998 18.777349 25.452648999999997
8.575740999999999 18.821521999999998 26.464699999999997
7.499999999999999 19.919373 27.068101
9.993319 21.36713 28.63405
8.403661 21.981925 28.150389999999998
9.035173999999998 24.067429 27.234230999999998
32.431766999999994 27.179888 27.603942999999997
29.822336999999997 24.727349 27.893677
32.870585 24.771522 26.881626
33.946326 25.869373 26.278225
31.453007 27.31713 24.712276
33.042665 27.931925 25.195936
32.411152 30.017429 26.112095
32.431766999999994 21.229888 27.603942999999997
29.822336999999997 18.777349 27.893677
32.870585 18.821521999999998 26.881626
33.946326 19.919373 26.278225
31.453007 21.36713 24.712276
33.042665 21.981925 25.195936
32.411152 24.067429 26.112095
32.431766999999994 27.179888 15.703942999999999
29.822336999999997 24.727349 15.993676999999998
32.870585 24.771522 14.981625999999999
33.946326 25.869373 14.378224999999999
31.453007 27.31713 12.812275999999999
33.042665 27.931925 13.295936
32.411152 30.017429 14.212094999999998
32.431766999999994 21.229888 21.653942999999998
29.822336999999997 18.777349 21.943676999999997
32.870585 18.821521999999998 20.931625999999998
33.946326 19.919373 20.328225
31.453007 21.36713 18.762276
33.042665 21.981925 19.245936
32.411152 24.067429 20.162095
13.842382999999998 9.014558999999998 21.229888
13.552648999999999 11.623988999999998 18.777349
14.564699999999998 8.575740999999999 18.821521999999998
15.168100999999998 7.499999999999999 19.919373
16.73405 9.993319 21.36713
16.25039 8.403661 21.981925
15.334230999999999 9.035173999999998 24.067429
13.842382999999998 9.014558999999998 15.279888
13.552648999999999 11.623988999999998 12.827348999999998
14.564699999999998 8.575740999999999 12.871521999999999
15.168100999999998 7.499999999999999 13.969373
16.73405 9.993319 15.417129999999998
16.25039 8.403661 16.031924999999998
15.334230999999999 9.035173999999998 18.117428999999998
19.792383 9.014558999999998 15.279888
19.502648999999998 11.623988999999998 12.827348999999998
20.5147 8.575740999999999 12.871521999999999
21.118101 7.499999999999999 13.969373
22.68405 9.993319 15.417129999999998
22.20039 8.403661 16.031924999999998
21.284231 9.035173999999998 18.117428999999998
13.842382999999998 9.014558999999998 27.179888
13.552648999999999 11.623988999999998 24.727349
14.564699999999998 8.575740999999999 24.771522
15.168100999999998 7.499999999999999 25.869373
16.73405 9.993319 27.31713
16.25039 8.403661 27.931925
15.334230999999999 9.035173999999998 30.017429
19.792383 32.431766999999994 14.266437999999999
19.502648999999998 29.822336999999997 16.718977
20.5147 32.870585 16.674803999999998
21.118101 33.946326 15.576953
22.68405 31.453007 14.129195999999999
22.20039 33.042665 13.514401
21.284231 32.411152 11.428897
25.742383 32.431766999999994 26.166438
25.452648999999997 29.822336999999997 28.618976999999997
26.464699999999997 32.870585 28.574804
27.068101 33.946326 27.476952999999998
28.63405 31.453007 26.029196
28.150389999999998 33.042665 25.414400999999998
27.234230999999998 32.411152 23.328897
25.742383 32.431766999999994 14.266437999999999
25.452648999999997 29.822336999999997 16.718977
26.464699999999997 32.870585 16.674803999999998
27.068101 33.946326 15.576953
28.63405 31.453007 14.129195999999999
28.150389999999998 33.042665 13.514401
27.234230999999998 32.411152 11.428897
19.792383 32.431766999999994 26.166438
19.502648999999998 29.822336999999997 28.618976999999997
20.5147 32.870585 28.574804
21.118101 33.946326 27.476952999999998
22.68405 31.453007 26.029196
22.20039 33.042665 25.414400999999998
21.284231 32.411152 23.328897
30.249418 9.840283 17.348276
31.511765999999998 11.102630999999999 17.117347
31.022007 10.612872 18.778866
30.008316999999998 12.688282 18.116701
28.844929999999998 11.524894999999999 18.329525999999998
29.296294999999997 11.97626 16.798261999999998
23.302612999999997 22.737087999999996 31.457745
24.728253 23.836144 31.457745
23.063622 24.521257 31.457745
24.062704 24.583895 29.273421
22.748825999999998 23.570998999999997 29.273421
24.282958999999998 22.939595999999998 29.273421
18.143712999999998 16.787087999999997 9.988581
16.718072999999997 17.886143999999998 9.988581
18.382703999999997 18.571257 9.988581
17.383622 18.633895 12.172905
18.697499999999998 17.620998999999998 12.172905
17.163367 16.989596 12.172905
17.352612999999998 16.787087999999997 31.457745
18.778253 17.886143999999998 31.457745
17.113622 18.571257 31.457745
18.112704 18.633895 29.273421
16.798826 17.620998999999998 29.273421
18.332959 16.989596 29.273421
10.798290999999999 16.787087999999997 10.238899
9.790211999999999 17.886143999999998 11.246979
10.967282999999998 18.571257 10.069906999999999
11.805377 18.633895 12.320915
12.734428 17.620998999999998 11.391862999999999
11.649632999999998 16.989596 12.476658999999998
23.302612999999997 16.787087999999997 31.457745
24.728253 17.886143999999998 31.457745
23.063622 18.571257 31.457745
24.062704 18.633895 29.273421
22.748825999999998 17.620998999999998 29.273421
24.282958999999998 16.989596 29.273421
17.352612999999998 31.607312999999998 11.198177999999999
18.778253 30.830163 10.421028
17.113622 30.345716 9.93658
18.112704 28.756873 11.436838999999999
16.798826 29.473098999999998 12.153064999999998
18.332959 29.919567999999998 12.599533999999998
18.143712999999998 22.737087999999996 9.988581
16.718072999999997 23.836144 9.988581
18.382703999999997 24.521257 9.988581
17.383622 24.583895 12.172905
18.697499999999998 23.570998999999997 12.172905
17.163367 22.939595999999998 12.172905
31.207427 22.737087999999996 10.798290999999999
30.199347 23.836144 9.790211999999999
31.376419 24.521257 10.967282999999998
29.125411 24.583895 11.805377
30.054463 23.570998999999997 12.734428
28.969666999999998 22.939595999999998 11.649632999999998
23.302612999999997 9.988581 22.737087999999996
24.728253 9.988581 23.836144
23.063622 9.988581 24.521257
24.062704 12.172905 24.583895
22.748825999999998 12.172905 23.570998999999997
24.282958999999998 12.172905 22.939595999999998
9.988581 16.787087999999997 17.352612999999998
9.988581 17.886143999999998 18.778253
9.988581 18.571257 17.113622
12.172905 18.633895 18.112704
12.172905 17.620998999999998 16.798826
12.172905 16.989596 18.332959
10.238899 22.737087999999996 30.648035
11.246979 23.836144 31.656114
10.069906999999999 24.521257 30.479042999999997
12.320915 24.583895 29.640949
11.391862999999999 23.570998999999997 28.711897999999998
12.476658999999998 22.939595999999998 29.796692999999998
9.840283 30.249418 24.098049999999997
11.102630999999999 31.511765999999998 24.328979
10.612872 31.022007 22.66746
12.688282 30.008316999999998 23.329624999999997
11.524894999999999 28.844929999999998 23.1168
11.97626 29.296294999999997 24.648063999999998
9.988581 22.737087999999996 17.352612999999998
9.988581 23.836144 18.778253
9.988581 24.521257 17.113622
12.172905 24.583895 18.112704
12.172905 23.570998999999997 16.798826
12.172905 22.939595999999998 18.332959
31.210493 30.644968 18.707442
31.373784999999998 30.481676 16.922212
30.198914 31.656547999999997 17.614835999999997
29.122584999999997 29.643776 16.864086999999998
28.972094 29.794266 18.509363999999998
30.054862 28.711499 17.871038
23.302612999999997 9.988581 16.787087999999997
24.728253 9.988581 17.886143999999998
23.063622 9.988581 18.571257
24.062704 12.172905 18.633895
22.748825999999998 12.172905 17.620998999999998
24.282958999999998 12.172905 16.989596
30.249418 9.840283 23.298275999999998
31.511765999999998 11.102630999999999 23.067346999999998
31.022007 10.612872 24.728866
30.008316999999998 12.688282 24.066701
28.844929999999998 11.524894999999999 24.279526
29.296294999999997 11.97626 22.748262
31.457745 16.787087999999997 24.093712999999997
31.457745 17.886143999999998 22.668073
31.457745 18.571257 24.332704
29.273421 18.633895 23.333622
29.273421 17.620998999999998 24.647499999999997
29.273421 16.989596 23.113367
17.352612999999998 31.457745 18.709238
18.778253 31.457745 17.610182
17.113622 31.457745 16.925069
18.112704 29.273421 16.862431
16.798826 29.273421 17.875327
18.332959 29.273421 18.506729999999997
27.09482 25.571172999999998 32.968818999999996
21.14482 13.671173 32.968818999999996
21.14482 19.621173 32.968818999999996
15.194819999999998 13.671173 32.968818999999996
14.351505999999999 13.671173 8.477507
26.251506 25.571172999999998 8.477507
14.351505999999999 25.571172999999998 8.477507
20.301506 13.671173 8.477507
8.477507 13.671173 27.09482
8.477507 25.571172999999998 21.14482
8.477507 19.621173 15.194819999999998
8.477507 19.621173 27.09482
32.968818999999996 25.571172999999998 26.251506
32.968818999999996 19.621173 26.251506
32.968818999999996 25.571172999999998 14.351505999999999
32.968818999999996 19.621173 20.301506
15.194819999999998 8.477507 19.621173
15.194819999999998 8.477507 13.671173
21.14482 8.477507 13.671173
15.194819999999998 8.477507 25.571172999999998
21.14482 32.968818999999996 15.875153
27.09482 32.968818999999996 27.775153
27.09482 32.968818999999996 15.875153
21.14482 32.968818999999996 27.775153
29.648163 11.798162999999999 17.748162999999998
23.698162999999997 23.698162999999997 29.648163
17.748162999999998 17.748162999999998 11.798162999999999
17.748162999999998 17.748162999999998 29.648163
11.798162999999999 17.748162999999998 11.798162999999999
23.698162999999997 17.748162999999998 29.648163
17.748162999999998 29.648163 11.798162999999999
17.748162999999998 23.698162999999997 11.798162999999999
29.648163 23.698162999999997 11.798162999999999
23.698162999999997 11.798162999999999 23.698162999999997
11.798162999999999 17.748162999999998 17.748162999999998
11.798162999999999 23.698162999999997 29.648163
11.798162999999999 29.648163 23.698162999999997
11.798162999999999 23.698162999999997 17.748162999999998
29.648163 29.648163 17.748162999999998
23.698162999999997 11.798162999999999 17.748162999999998
29.648163 11.798162999999999 23.698162999999997
29.648163 17.748162999999998 23.698162999999997
17.748162999999998 29.648163 17.748162999999998
25.613115999999998 24.998915 30.752008999999997
26.673163 26.673163 29.648163
19.663116 13.098914999999998 30.752008999999997
20.723163 14.773162999999998 29.648163
19.663116 19.048915 30.752008999999997
20.723163 20.723163 29.648163
13.713116 13.098914999999998 30.752008999999997
14.773162999999998 14.773162999999998 29.648163
15.833209999999998 13.098914999999998 10.694316999999998
14.773162999999998 14.773162999999998 11.798162999999999
27.73321 24.998915 10.694316999999998
26.673163 26.673163 11.798162999999999
15.833209999999998 24.998915 10.694316999999998
14.773162999999998 26.673163 11.798162999999999
21.78321 13.098914999999998 10.694316999999998
20.723163 14.773162999999998 11.798162999999999
10.694316999999998 13.098914999999998 25.613115999999998
11.798162999999999 14.773162999999998 26.673163
10.694316999999998 24.998915 19.663116
11.798162999999999 26.673163 20.723163
10.694316999999998 19.048915 13.713116
11.798162999999999 20.723163 14.773162999999998
10.694316999999998 19.048915 25.613115999999998
11.798162999999999 20.723163 26.673163
30.752008999999997 24.998915 27.73321
29.648163 26.673163 26.673163
30.752008999999997 19.048915 27.73321
29.648163 20.723163 26.673163
30.752008999999997 24.998915 15.833209999999998
29.648163 26.673163 14.773162999999998
30.752008999999997 19.048915 21.78321
29.648163 20.723163 20.723163
13.713116 10.694316999999998 19.048915
14.773162999999998 11.798162999999999 20.723163
13.713116 10.694316999999998 13.098914999999998
14.773162999999998 11.798162999999999 14.773162999999998
19.663116 10.694316999999998 13.098914999999998
20.723163 11.798162999999999 14.773162999999998
13.713116 10.694316999999998 24.998915
14.773162999999998 11.798162999999999 26.673163
19.663116 30.752008999999997 16.447411
20.723163 29.648163 14.773162999999998
25.613115999999998 30.752008999999997 28.347410999999997
26.673163 29.648163 26.673163
25.613115999999998 30.752008999999997 16.447411
26.673163 29.648163 14.773162999999998
19.663116 30.752008999999997 28.347410999999997
20.723163 29.648163 26.673163
14.773162999999998 14.773162999999998 14.773162999999998
14.773162999999998 14.773162999999998 20.723163
14.773162999999998 14.773162999999998 26.673163
14.773162999999998 20.723163 14.773162999999998
14.773162999999998 20.723163 20.723163
14.773162999999998 20.723163 26.673163
14.773162999999998 26.673163 14.773162999999998
14.773162999999998 26.673163 20.723163
14.773162999999998 26.673163 26.673163
20.723163 14.773162999999998 14.773162999999998
20.723163 14.773162999999998 20.723163
20.723163 14.773162999999998 26.673163
20.723163 20.723163 14.773162999999998
20.723163 20.723163 20.723163
20.723163 20.723163 26.673163
20.723163 26.673163 14.773162999999998
20.723163 26.673163 20.723163
20.723163 26.673163 26.673163
26.673163 14.773162999999998 14.773162999999998
26.673163 14.773162999999998 20.723163
26.673163 14.773162999999998 26.673163
26.673163 20.723163 14.773162999999998
26.673163 20.723163 20.723163
26.673163 20.723163 26.673163
26.673163 26.673163 14.773162999999998
26.673163 26.673163 20.723163
26.673163 26.673163 26.673163
27.292368 29.307371 31.264955
21.342367999999997 17.407370999999998 31.264955
21.342367999999997 23.357370999999997 31.264955
15.392368 17.407370999999998 31.264955
14.153958 17.407370999999998 10.181370999999999
26.053957999999998 29.307371 10.181370999999999
14.153958 29.307371 10.181370999999999
20.103958 17.407370999999998 10.181370999999999
10.181370999999999 17.407370999999998 27.292368
10.181370999999999 29.307371 21.342367999999997
10.181370999999999 23.357370999999997 15.392368
10.181370999999999 23.357370999999997 27.292368
31.264955 29.307371 26.053957999999998
31.264955 23.357370999999997 26.053957999999998
31.264955 29.307371 14.153958
31.264955 23.357370999999997 20.103958
15.392368 10.181370999999999 23.357370999999997
15.392368 10.181370999999999 17.407370999999998
21.342367999999997 10.181370999999999 17.407370999999998
15.392368 10.181370999999999 29.307371
21.342367999999997 31.264955 12.138955
27.292368 31.264955 24.038954999999998
27.292368 31.264955 12.138955
21.342367999999997 31.264955 24.038954999999998
