3_train/238_cspbbr3_MA-INC_4_0.20\238_cspbbr3_MA-INC_4_0.20.xyz
1.0
47.637190000000004 0 0
0 47.637190000000004 0
0 0 47.637190000000004
Br C Cs H N O Pb 
216 161 95 198 41 48 64 
Cartesian
14.893595000000001 11.918595000000002 14.893595000000001
11.918595000000002 14.893595000000001 14.893595000000001
14.893595000000001 14.893595000000001 17.868595
14.893595000000001 11.918595000000002 20.843595
14.893595000000001 14.893595000000001 23.818595000000002
14.893595000000001 14.893595000000001 29.768595000000005
14.893595000000001 11.918595000000002 32.743595
11.918595000000002 14.893595000000001 32.743595
14.893595000000001 14.893595000000001 35.718595
14.893595000000001 17.868595 14.893595000000001
11.918595000000002 20.843595 14.893595000000001
14.893595000000001 20.843595 17.868595
14.893595000000001 17.868595 20.843595
11.918595000000002 20.843595 20.843595
14.893595000000001 20.843595 23.818595000000002
14.893595000000001 17.868595 26.793595000000003
11.918595000000002 20.843595 26.793595000000003
14.893595000000001 20.843595 29.768595000000005
14.893595000000001 17.868595 32.743595
11.918595000000002 20.843595 32.743595
14.893595000000001 20.843595 35.718595
14.893595000000001 26.793595000000003 11.918595000000002
14.893595000000001 23.818595000000002 14.893595000000001
14.893595000000001 26.793595000000003 17.868595
14.893595000000001 23.818595000000002 20.843595
11.918595000000002 26.793595000000003 20.843595
14.893595000000001 26.793595000000003 23.818595000000002
14.893595000000001 23.818595000000002 26.793595000000003
14.893595000000001 26.793595000000003 29.768595000000005
14.893595000000001 23.818595000000002 32.743595
11.918595000000002 26.793595000000003 32.743595
14.893595000000001 32.743595 11.918595000000002
14.893595000000001 29.768595000000005 14.893595000000001
11.918595000000002 32.743595 14.893595000000001
14.893595000000001 32.743595 17.868595
14.893595000000001 29.768595000000005 20.843595
11.918595000000002 32.743595 20.843595
14.893595000000001 32.743595 23.818595000000002
14.893595000000001 29.768595000000005 26.793595000000003
11.918595000000002 32.743595 26.793595000000003
14.893595000000001 32.743595 29.768595000000005
14.893595000000001 29.768595000000005 32.743595
11.918595000000002 32.743595 32.743595
14.893595000000001 32.743595 35.718595
14.893595000000001 35.718595 14.893595000000001
14.893595000000001 35.718595 20.843595
20.843595 14.893595000000001 11.918595000000002
20.843595 11.918595000000002 14.893595000000001
17.868595 14.893595000000001 14.893595000000001
20.843595 14.893595000000001 17.868595
17.868595 14.893595000000001 20.843595
20.843595 14.893595000000001 23.818595000000002
20.843595 11.918595000000002 26.793595000000003
17.868595 14.893595000000001 26.793595000000003
20.843595 14.893595000000001 29.768595000000005
20.843595 11.918595000000002 32.743595
17.868595 14.893595000000001 32.743595
20.843595 14.893595000000001 35.718595
20.843595 20.843595 11.918595000000002
20.843595 17.868595 14.893595000000001
17.868595 20.843595 14.893595000000001
20.843595 20.843595 17.868595
20.843595 17.868595 20.843595
17.868595 20.843595 20.843595
20.843595 20.843595 23.818595000000002
20.843595 17.868595 26.793595000000003
17.868595 20.843595 26.793595000000003
20.843595 20.843595 29.768595000000005
20.843595 17.868595 32.743595
17.868595 20.843595 32.743595
20.843595 20.843595 35.718595
20.843595 26.793595000000003 11.918595000000002
20.843595 23.818595000000002 14.893595000000001
17.868595 26.793595000000003 14.893595000000001
20.843595 26.793595000000003 17.868595
20.843595 23.818595000000002 20.843595
17.868595 26.793595000000003 20.843595
20.843595 26.793595000000003 23.818595000000002
20.843595 23.818595000000002 26.793595000000003
17.868595 26.793595000000003 26.793595000000003
20.843595 26.793595000000003 29.768595000000005
20.843595 23.818595000000002 32.743595
17.868595 26.793595000000003 32.743595
20.843595 26.793595000000003 35.718595
20.843595 32.743595 11.918595000000002
20.843595 29.768595000000005 14.893595000000001
17.868595 32.743595 14.893595000000001
20.843595 32.743595 17.868595
20.843595 29.768595000000005 20.843595
17.868595 32.743595 20.843595
20.843595 32.743595 23.818595000000002
20.843595 29.768595000000005 26.793595000000003
17.868595 32.743595 26.793595000000003
20.843595 32.743595 29.768595000000005
20.843595 29.768595000000005 32.743595
17.868595 32.743595 32.743595
20.843595 35.718595 14.893595000000001
20.843595 35.718595 20.843595
20.843595 35.718595 26.793595000000003
20.843595 35.718595 32.743595
26.793595000000003 14.893595000000001 11.918595000000002
23.818595000000002 14.893595000000001 14.893595000000001
26.793595000000003 14.893595000000001 17.868595
26.793595000000003 11.918595000000002 20.843595
23.818595000000002 14.893595000000001 20.843595
26.793595000000003 14.893595000000001 23.818595000000002
26.793595000000003 11.918595000000002 26.793595000000003
23.818595000000002 14.893595000000001 26.793595000000003
26.793595000000003 14.893595000000001 29.768595000000005
26.793595000000003 11.918595000000002 32.743595
23.818595000000002 14.893595000000001 32.743595
26.793595000000003 14.893595000000001 35.718595
26.793595000000003 20.843595 11.918595000000002
26.793595000000003 17.868595 14.893595000000001
23.818595000000002 20.843595 14.893595000000001
26.793595000000003 20.843595 17.868595
26.793595000000003 17.868595 20.843595
23.818595000000002 20.843595 20.843595
26.793595000000003 20.843595 23.818595000000002
26.793595000000003 17.868595 26.793595000000003
23.818595000000002 20.843595 26.793595000000003
26.793595000000003 20.843595 29.768595000000005
26.793595000000003 17.868595 32.743595
23.818595000000002 20.843595 32.743595
26.793595000000003 20.843595 35.718595
26.793595000000003 26.793595000000003 11.918595000000002
26.793595000000003 23.818595000000002 14.893595000000001
23.818595000000002 26.793595000000003 14.893595000000001
26.793595000000003 26.793595000000003 17.868595
26.793595000000003 23.818595000000002 20.843595
23.818595000000002 26.793595000000003 20.843595
26.793595000000003 26.793595000000003 23.818595000000002
26.793595000000003 23.818595000000002 26.793595000000003
23.818595000000002 26.793595000000003 26.793595000000003
26.793595000000003 26.793595000000003 29.768595000000005
26.793595000000003 23.818595000000002 32.743595
23.818595000000002 26.793595000000003 32.743595
26.793595000000003 26.793595000000003 35.718595
26.793595000000003 32.743595 11.918595000000002
26.793595000000003 29.768595000000005 14.893595000000001
23.818595000000002 32.743595 14.893595000000001
26.793595000000003 32.743595 17.868595
26.793595000000003 29.768595000000005 20.843595
23.818595000000002 32.743595 20.843595
26.793595000000003 32.743595 23.818595000000002
26.793595000000003 29.768595000000005 26.793595000000003
23.818595000000002 32.743595 26.793595000000003
26.793595000000003 32.743595 29.768595000000005
26.793595000000003 29.768595000000005 32.743595
23.818595000000002 32.743595 32.743595
26.793595000000003 32.743595 35.718595
26.793595000000003 35.718595 14.893595000000001
26.793595000000003 35.718595 20.843595
26.793595000000003 35.718595 26.793595000000003
26.793595000000003 35.718595 32.743595
32.743595 11.918595000000002 14.893595000000001
29.768595000000005 14.893595000000001 14.893595000000001
32.743595 14.893595000000001 17.868595
32.743595 11.918595000000002 20.843595
29.768595000000005 14.893595000000001 20.843595
32.743595 14.893595000000001 23.818595000000002
29.768595000000005 14.893595000000001 26.793595000000003
32.743595 14.893595000000001 29.768595000000005
32.743595 11.918595000000002 32.743595
29.768595000000005 14.893595000000001 32.743595
32.743595 14.893595000000001 35.718595
32.743595 17.868595 14.893595000000001
29.768595000000005 20.843595 14.893595000000001
32.743595 20.843595 17.868595
32.743595 17.868595 20.843595
29.768595000000005 20.843595 20.843595
32.743595 20.843595 23.818595000000002
32.743595 17.868595 26.793595000000003
29.768595000000005 20.843595 26.793595000000003
32.743595 20.843595 29.768595000000005
32.743595 17.868595 32.743595
29.768595000000005 20.843595 32.743595
32.743595 26.793595000000003 11.918595000000002
32.743595 23.818595000000002 14.893595000000001
29.768595000000005 26.793595000000003 14.893595000000001
32.743595 26.793595000000003 17.868595
32.743595 23.818595000000002 20.843595
29.768595000000005 26.793595000000003 20.843595
32.743595 26.793595000000003 23.818595000000002
32.743595 23.818595000000002 26.793595000000003
29.768595000000005 26.793595000000003 26.793595000000003
32.743595 26.793595000000003 29.768595000000005
32.743595 23.818595000000002 32.743595
29.768595000000005 26.793595000000003 32.743595
32.743595 26.793595000000003 35.718595
32.743595 32.743595 11.918595000000002
32.743595 29.768595000000005 14.893595000000001
29.768595000000005 32.743595 14.893595000000001
32.743595 32.743595 17.868595
32.743595 29.768595000000005 20.843595
29.768595000000005 32.743595 20.843595
32.743595 32.743595 23.818595000000002
32.743595 29.768595000000005 26.793595000000003
29.768595000000005 32.743595 26.793595000000003
32.743595 32.743595 29.768595000000005
32.743595 29.768595000000005 32.743595
29.768595000000005 32.743595 32.743595
32.743595 35.718595 14.893595000000001
32.743595 35.718595 20.843595
35.718595 14.893595000000001 20.843595
35.718595 14.893595000000001 26.793595000000003
35.718595 14.893595000000001 32.743595
35.718595 20.843595 14.893595000000001
35.718595 20.843595 26.793595000000003
35.718595 20.843595 32.743595
35.718595 26.793595000000003 20.843595
35.718595 26.793595000000003 26.793595000000003
35.718595 26.793595000000003 32.743595
35.718595 32.743595 14.893595000000001
35.718595 32.743595 26.793595000000003
35.718595 32.743595 32.743595
33.866821 32.945716000000004 39.45812300000001
33.926962 32.959361 38.052737
32.743595 32.743595 37.361436000000005
31.616595000000004 32.533913 39.45536500000001
32.743595 32.743595 35.718595
31.559156 32.526085 38.05026900000001
21.957077000000005 32.993887 39.45812300000001
22.016575000000003 33.010108 38.052737
20.843595 32.743595 37.361436000000005
19.726668000000004 32.485587 39.45536500000001
20.843595 32.743595 35.718595
19.669619000000004 32.475293 38.05026900000001
15.984674000000002 27.128313000000006 39.45812300000001
16.042757 27.149038000000004 38.052737
14.893595000000001 26.793595000000003 37.361436000000005
13.799671000000002 26.450919 39.45536500000001
14.893595000000001 26.793595000000003 35.718595
13.743577000000002 26.436293 38.05026900000001
33.734257 21.410233000000005 39.45812300000001
33.786355 21.443232000000002 38.052737
32.743595 20.843595 37.361436000000005
31.751909000000005 20.268569 39.45536500000001
32.743595 20.843595 35.718595
31.700410000000005 20.241956000000002 38.05026900000001
33.884809000000004 20.83269 8.179067000000002
33.946387 20.829323000000002 9.584453000000002
32.743595 20.843595 10.275754000000003
31.597392 20.861321000000004 8.181825000000002
32.743595 20.843595 11.918595000000002
31.539454 20.859406 9.586921000000002
14.825667000000001 16.032838 8.179067000000002
14.824773000000002 16.094501 9.584453000000002
14.893595000000001 14.893595000000001 10.275754000000003
14.955063 13.748904000000001 8.181825000000002
14.893595000000001 14.893595000000001 11.918595000000002
14.960974000000002 13.691237000000001 9.586921000000002
14.127863000000001 21.689848000000005 8.179067000000002
14.088588000000001 21.737393000000004 9.584453000000002
14.893595000000001 20.843595 10.275754000000003
15.657695000000002 19.989051000000003 8.181825000000002
14.893595000000001 20.843595 11.918595000000002
15.698385000000002 19.947761 9.586921000000002
33.379355000000004 13.945809000000002 8.179067000000002
33.411367 13.893099000000001 9.584453000000002
32.743595 14.893595000000001 10.275754000000003
32.110645 15.849351000000002 8.181825000000002
32.743595 14.893595000000001 11.918595000000002
32.076331 15.896074000000002 9.586921000000002
8.179067000000002 14.492349000000003 25.725189
9.584453000000002 14.468088000000002 25.668492
10.275754000000003 14.893595000000001 26.793595000000003
8.181825000000002 15.302959000000001 27.86435
11.918595000000002 14.893595000000001 26.793595000000003
9.586921000000002 15.321010000000001 27.919438
8.179067000000002 25.91984 26.059400000000004
9.584453000000002 25.870887000000003 26.021895
10.275754000000003 26.793595000000003 26.793595000000003
8.181825000000002 27.675576 27.525855
11.918595000000002 26.793595000000003 26.793595000000003
9.586921000000002 27.718329000000004 27.565004000000002
8.179067000000002 27.270813000000004 15.930297000000001
9.584453000000002 27.299098 15.985098000000002
10.275754000000003 26.793595000000003 14.893595000000001
8.181825000000002 26.308111000000004 13.855134000000001
11.918595000000002 26.793595000000003 14.893595000000001
9.586921000000002 26.286135 13.801491000000002
8.179067000000002 15.453235000000001 21.838227000000003
9.584453000000002 15.485866000000001 21.890556000000004
10.275754000000003 14.893595000000001 20.843595
8.181825000000002 14.325574000000001 19.847880000000004
11.918595000000002 14.893595000000001 20.843595
9.586921000000002 14.299325000000001 19.796194
39.45812300000001 15.098348000000001 13.770846000000002
38.052737 15.112134000000001 13.710737000000002
37.361436000000005 14.893595000000001 14.893595000000001
39.45536500000001 14.681272000000002 16.0201
35.718595 14.893595000000001 14.893595000000001
38.05026900000001 14.673310000000003 16.077521000000004
39.45812300000001 31.630145 20.593157000000005
38.052737 31.57065 20.576928000000002
37.361436000000005 32.743595 20.843595
39.45536500000001 33.860489 21.101750000000003
35.718595 32.743595 20.843595
38.05026900000001 33.917536 21.112051
39.45812300000001 20.528675 21.940552000000004
38.052737 20.509005000000002 21.999000000000002
37.361436000000005 20.843595 20.843595
39.45536500000001 21.166420000000002 19.743650000000002
35.718595 20.843595 20.843595
38.05026900000001 21.180029000000005 19.6873
39.45812300000001 26.904610000000005 13.757741000000001
38.052737 26.913368000000006 13.696696000000001
37.361436000000005 26.793595000000003 14.893595000000001
39.45536500000001 26.675347000000002 16.03382
35.718595 26.793595000000003 14.893595000000001
38.05026900000001 26.67217 16.091702
27.849050000000005 8.179067000000002 15.327766000000002
27.904967 9.584453000000002 15.353773000000002
26.793595000000003 10.275754000000003 14.893595000000001
25.736044 8.181825000000002 14.451237
26.793595000000003 11.918595000000002 14.893595000000001
25.681542 9.586921000000002 14.431487000000002
31.811915 8.179067000000002 26.134458000000002
31.763226000000003 9.584453000000002 26.096610000000005
32.743595 10.275754000000003 26.793595000000003
33.675489 8.181825000000002 27.461180000000006
32.743595 11.918595000000002 26.793595000000003
33.724196 9.586921000000002 27.492614000000003
21.802931 8.179067000000002 20.225401
21.856221000000005 9.584453000000002 20.194365
20.843595 10.275754000000003 20.843595
19.876343 8.181825000000002 21.458833000000006
20.843595 11.918595000000002 20.843595
19.828995 9.586921000000002 21.49228
13.754369000000002 8.179067000000002 26.725374000000002
13.693039 9.584453000000002 26.718918000000002
14.893595000000001 10.275754000000003 26.793595000000003
16.037460000000003 8.181825000000002 26.868879
14.893595000000001 11.918595000000002 26.793595000000003
16.095421 9.586921000000002 26.869877000000002
33.884475 39.45812300000001 32.773303
33.946133 38.052737 32.772130000000004
32.743595 37.361436000000005 32.743595
31.597487 39.45536500000001 32.720526
32.743595 35.718595 32.743595
31.539654 38.05026900000001 32.716551
32.3046 39.45812300000001 27.847052000000005
32.283467 38.052737 27.904988000000003
32.743595 37.361436000000005 26.793595000000003
33.178282 39.45536500000001 25.732868000000003
32.743595 35.718595 26.793595000000003
33.202839000000004 38.05026900000001 25.680356000000003
14.343713000000001 39.45812300000001 33.743655000000004
14.316465000000003 38.052737 33.798978
14.893595000000001 37.361436000000005 32.743595
15.439976000000001 39.45536500000001 31.735844
14.893595000000001 35.718595 32.743595
15.470045 38.05026900000001 31.686282
15.498165000000002 39.45812300000001 25.825616000000004
15.528444000000002 38.052737 25.771891000000004
14.893595000000001 37.361436000000005 26.793595000000003
14.292092000000002 39.45536500000001 27.769448000000004
14.893595000000001 35.718595 26.793595000000003
14.259318000000002 38.05026900000001 27.817264
36.76204500000001 17.868595 36.76204500000001
29.768595000000005 17.868595 10.442934000000001
17.868595 37.194256 29.768595000000005
23.818595000000002 23.818595000000002 37.194256
10.875145000000002 36.76204500000001 29.768595000000005
17.868595 36.76204500000001 36.76204500000001
10.442934000000001 29.768595000000005 23.818595000000002
23.818595000000002 37.194256 29.768595000000005
23.818595000000002 36.76204500000001 36.76204500000001
36.76204500000001 36.76204500000001 23.818595000000002
10.442934000000001 17.868595 23.818595000000002
23.818595000000002 29.768595000000005 10.442934000000001
23.818595000000002 10.875145000000002 10.875145000000002
10.875145000000002 17.868595 10.875145000000002
29.768595000000005 10.442934000000001 29.768595000000005
29.768595000000005 10.442934000000001 17.868595
23.818595000000002 37.194256 17.868595
11.918595000000002 11.918595000000002 17.868595
11.918595000000002 11.918595000000002 23.818595000000002
11.918595000000002 11.918595000000002 29.768595000000005
11.918595000000002 17.868595 17.868595
11.918595000000002 17.868595 29.768595000000005
11.918595000000002 17.868595 35.718595
11.918595000000002 23.818595000000002 11.918595000000002
11.918595000000002 23.818595000000002 17.868595
11.918595000000002 23.818595000000002 35.718595
11.918595000000002 29.768595000000005 11.918595000000002
11.918595000000002 29.768595000000005 17.868595
11.918595000000002 29.768595000000005 35.718595
11.918595000000002 35.718595 17.868595
11.918595000000002 35.718595 23.818595000000002
17.868595 11.918595000000002 11.918595000000002
17.868595 11.918595000000002 17.868595
17.868595 11.918595000000002 23.818595000000002
17.868595 11.918595000000002 29.768595000000005
17.868595 11.918595000000002 35.718595
17.868595 17.868595 11.918595000000002
17.868595 17.868595 17.868595
17.868595 17.868595 23.818595000000002
17.868595 17.868595 29.768595000000005
17.868595 17.868595 35.718595
17.868595 23.818595000000002 11.918595000000002
17.868595 23.818595000000002 17.868595
17.868595 23.818595000000002 23.818595000000002
17.868595 23.818595000000002 29.768595000000005
17.868595 23.818595000000002 35.718595
17.868595 29.768595000000005 11.918595000000002
17.868595 29.768595000000005 17.868595
17.868595 29.768595000000005 23.818595000000002
17.868595 29.768595000000005 29.768595000000005
17.868595 29.768595000000005 35.718595
17.868595 35.718595 11.918595000000002
17.868595 35.718595 17.868595
17.868595 35.718595 23.818595000000002
23.818595000000002 11.918595000000002 17.868595
23.818595000000002 11.918595000000002 23.818595000000002
23.818595000000002 11.918595000000002 29.768595000000005
23.818595000000002 11.918595000000002 35.718595
23.818595000000002 17.868595 11.918595000000002
23.818595000000002 17.868595 17.868595
23.818595000000002 17.868595 23.818595000000002
23.818595000000002 17.868595 29.768595000000005
23.818595000000002 17.868595 35.718595
23.818595000000002 23.818595000000002 11.918595000000002
23.818595000000002 23.818595000000002 17.868595
23.818595000000002 23.818595000000002 23.818595000000002
23.818595000000002 23.818595000000002 29.768595000000005
23.818595000000002 29.768595000000005 17.868595
23.818595000000002 29.768595000000005 23.818595000000002
23.818595000000002 29.768595000000005 29.768595000000005
23.818595000000002 29.768595000000005 35.718595
23.818595000000002 35.718595 11.918595000000002
23.818595000000002 35.718595 23.818595000000002
29.768595000000005 11.918595000000002 11.918595000000002
29.768595000000005 11.918595000000002 23.818595000000002
29.768595000000005 11.918595000000002 35.718595
29.768595000000005 17.868595 17.868595
29.768595000000005 17.868595 23.818595000000002
29.768595000000005 17.868595 29.768595000000005
29.768595000000005 17.868595 35.718595
29.768595000000005 23.818595000000002 11.918595000000002
29.768595000000005 23.818595000000002 17.868595
29.768595000000005 23.818595000000002 23.818595000000002
29.768595000000005 23.818595000000002 29.768595000000005
29.768595000000005 23.818595000000002 35.718595
29.768595000000005 29.768595000000005 11.918595000000002
29.768595000000005 29.768595000000005 17.868595
29.768595000000005 29.768595000000005 23.818595000000002
29.768595000000005 29.768595000000005 29.768595000000005
29.768595000000005 29.768595000000005 35.718595
29.768595000000005 35.718595 11.918595000000002
29.768595000000005 35.718595 17.868595
29.768595000000005 35.718595 23.818595000000002
29.768595000000005 35.718595 29.768595000000005
29.768595000000005 35.718595 35.718595
35.718595 11.918595000000002 17.868595
35.718595 11.918595000000002 23.818595000000002
35.718595 17.868595 11.918595000000002
35.718595 17.868595 17.868595
35.718595 17.868595 23.818595000000002
35.718595 17.868595 29.768595000000005
35.718595 23.818595000000002 11.918595000000002
35.718595 23.818595000000002 17.868595
35.718595 23.818595000000002 23.818595000000002
35.718595 23.818595000000002 29.768595000000005
35.718595 23.818595000000002 35.718595
35.718595 29.768595000000005 11.918595000000002
35.718595 29.768595000000005 17.868595
35.718595 29.768595000000005 23.818595000000002
35.718595 29.768595000000005 35.718595
35.718595 35.718595 17.868595
35.718595 35.718595 29.768595000000005
30.700942000000005 32.365401 40.03194200000001
34.781292 33.111266 40.037651000000004
34.871734000000004 33.133562000000005 37.540646
30.614924000000002 32.355286 37.53613500000001
18.819118000000003 32.27781 40.03194200000001
22.863573000000002 33.198654000000005 40.037651000000004
22.952972000000003 33.224823 37.540646
18.733615 32.264001 37.53613500000001
12.910671000000002 26.174341000000005 40.03194200000001
16.872854000000004 27.401810000000005 40.037651000000004
16.959989 27.434739 37.540646
12.826475000000002 26.154033000000005 37.53613500000001
30.945576000000003 19.80312 40.03194200000001
34.540469 21.872496000000005 40.037651000000004
34.61822 21.923794 37.540646
30.867913 19.764780000000002 37.53613500000001
30.666447000000005 20.873901000000004 7.605248000000001
34.814093 20.822832000000005 7.599539000000002
34.906993 20.816018 10.096544000000002
30.579951 20.869448000000006 10.101055000000002
15.006800000000002 12.819313000000001 7.605248000000001
14.77133 16.960584000000004 7.599539000000002
14.771712000000003 17.053733 10.096544000000002
15.017215000000002 12.733331000000002 10.101055000000002
16.279633000000004 19.296223 7.605248000000001
13.505052000000001 22.379609000000002 7.599539000000002
13.447073000000001 22.452516000000003 10.096544000000002
16.341551000000003 19.235662 10.101055000000002
31.595064 16.624588000000003 7.605248000000001
33.896243 13.173480000000001 7.599539000000002
33.943107000000005 13.092978000000002 10.096544000000002
31.542521999999998 16.693441 10.101055000000002
7.605248000000001 15.633736 28.734639
7.599539000000002 14.164698000000001 24.855529000000004
10.096544000000002 14.126467000000002 24.770586
10.101055000000002 15.659188000000002 28.817426000000005
7.605248000000001 28.390738 28.121976000000004
7.599539000000002 25.207711000000003 25.462293000000003
10.096544000000002 25.132728 25.407027
10.101055000000002 28.453528 28.181632
7.605248000000001 25.915460000000003 13.010953000000002
7.599539000000002 27.660301000000004 16.774077000000002
10.096544000000002 27.704556000000004 16.856043
10.101055000000002 25.884106000000003 12.930217
7.605248000000001 13.865821000000002 19.038286
7.599539000000002 15.909802 22.647678
10.096544000000002 15.960552000000002 22.725789000000006
10.101055000000002 13.828030000000002 18.960355
40.03194200000001 14.510615000000001 16.935356
40.037651000000004 15.266041000000001 12.856765000000001
37.540646 15.288548000000002 12.766375000000002
37.53613500000001 14.500298000000003 17.02135
40.03194200000001 34.768010000000004 21.309646
40.037651000000004 30.723676000000005 20.388271000000003
37.540646 30.634281 20.362090000000002
37.53613500000001 34.853512 21.323466000000003
40.03194200000001 21.426867 18.849791000000003
40.037651000000004 20.271294 22.833535000000005
37.540646 20.239947 22.921252000000003
37.53613500000001 21.445648000000006 18.765241000000003
40.03194200000001 26.581117 16.960069000000004
40.037651000000004 26.995984 12.832908000000002
37.540646 27.010924000000003 12.740964000000002
37.53613500000001 26.577962 17.046622
24.876426000000002 7.605248000000001 14.093642000000001
28.708136000000003 7.599539000000002 15.682217000000001
28.791853000000003 10.096544000000002 15.723063000000002
24.794468000000002 10.101055000000002 14.065636000000001
34.433408 7.605248000000001 28.001897
31.053811000000003 7.599539000000002 25.596924
30.981344 10.096544000000002 25.538397000000003
34.50703 10.101055000000002 28.047517
19.09174 7.605248000000001 21.960048
22.584649000000006 7.599539000000002 19.722826
22.666001 10.096544000000002 19.677452000000002
19.021931000000002 10.101055000000002 22.011313
16.966598 7.605248000000001 26.928209000000003
12.826755000000002 7.599539000000002 26.668845000000005
12.734314000000001 10.096544000000002 26.657374000000004
17.053209000000003 10.101055000000002 26.928107000000004
30.666684000000004 40.03194200000001 32.699973
34.813520000000004 40.037651000000004 32.796517
34.906604 37.540646 32.793014
30.580401000000002 37.53613500000001 32.692445
33.533005 40.03194200000001 24.872061000000002
31.948028 40.037651000000004 28.705260000000003
31.917740000000002 37.540646 28.793348
33.571132 37.53613500000001 24.794293000000003
15.885331000000003 40.03194200000001 30.918240000000004
13.896801000000002 40.037651000000004 34.558476
13.857203000000002 37.540646 34.642790000000005
15.931610000000001 37.53613500000001 30.84503
13.80202 40.03194200000001 28.561058000000003
15.989638000000001 40.037651000000004 25.036871000000005
16.033857000000005 37.540646 24.954885000000004
13.751747000000002 37.53613500000001 28.631585
36.305664 18.216468 37.690661
37.131384000000004 16.846524000000002 36.864941
37.55744000000001 18.542793000000003 36.438886000000004
36.091823000000005 17.547994000000003 34.815402
35.330834 18.810541 35.57639
34.93818 17.24725 35.969045
30.762005000000002 18.173982000000002 10.109013000000001
29.536363 16.855583000000003 10.109013000000001
29.007417000000004 18.57622 10.109013000000001
28.853063 17.587149000000004 12.293337000000001
29.982622 18.802192 12.293337000000001
30.470100000000002 17.216444000000003 12.293337000000001
16.854738000000005 37.52817700000001 29.540079
18.177623000000004 37.52817700000001 30.760879000000003
18.573424000000003 37.52817700000001 29.004827
18.802971 35.343853 29.979196
17.583793 35.343853 28.854101
17.219021 35.343853 30.472488
22.779304000000003 23.818377000000005 37.52817700000001
24.338429000000005 22.918652 37.52817700000001
24.338051 24.718756 37.52817700000001
24.776411000000003 23.818796 35.343853
23.339513000000004 24.647987 35.343853
23.339862000000004 22.989002 35.343853
10.680620000000001 37.03975500000001 28.73097
9.982819000000003 36.341954 30.236467000000005
11.253644000000001 37.612779 30.338347
12.145246000000002 35.415281 30.724875000000004
12.788343000000001 36.058378000000005 29.337401
11.617144000000001 34.887178 29.243509000000003
18.187174 37.697674 36.298651
16.852582 36.843496 37.152829000000004
18.566028000000003 36.453318 37.543007
17.574991000000004 34.808939 36.098286
18.804957 35.596154 35.311071
17.225837 35.955744 34.951481
10.109013000000001 30.404706000000004 24.640476
10.109013000000001 30.162309 22.856766
10.109013000000001 28.738770000000002 23.958543000000006
12.293337000000001 29.182351000000004 23.061146
12.293337000000001 29.405746999999998 24.705021000000002
12.293337000000001 30.717687000000005 23.689618000000003
22.829032000000005 37.52817700000001 29.450962000000004
24.038298000000005 37.52817700000001 30.784398000000003
24.588455000000003 37.52817700000001 29.070425
24.730581 35.343853 30.061327
23.616116000000005 35.343853 28.832425999999998
23.109089000000004 35.343853 30.412032000000004
23.299744000000004 37.63492 36.361406
23.298156000000006 36.362054 37.634271000000005
24.857885000000003 36.997514 36.998811
24.296771 34.866774 36.040451000000004
24.298234 36.039853 34.867371
22.860780000000005 35.45421 35.453015
37.36527400000001 36.63105100000001 24.718919
37.36594 36.630385000000004 22.918815000000002
36.263273 37.73305200000001 23.818051000000004
35.11528 35.791944 22.988852
35.114666 35.792558 24.647837000000003
36.13089 34.776334 23.819096000000002
10.109013000000001 18.595527000000004 24.561356000000004
10.109013000000001 18.148379000000002 22.817672
10.109013000000001 16.861879000000002 24.076756000000003
12.293337000000001 17.19865 23.134063000000005
12.293337000000001 17.610745 24.74105
12.293337000000001 18.796390000000002 23.580672
24.823480000000004 30.033796000000002 10.109013000000001