3_train/199_cspbbr3_MA-Pyr-2-COO_3_0.20\199_cspbbr3_MA-Pyr-2-COO_3_0.20.xyz
1.0
42.109188 0 0
0 42.109188 0
0 0 42.109188
Br C Cs H N O Pb 
96 70 44 108 22 24 27 
Cartesian
15.104593999999999 15.104593999999999 12.129593999999999
12.129593999999999 15.104593999999999 15.104593999999999
15.104593999999999 15.104593999999999 18.079594
12.129593999999999 15.104593999999999 21.054594
15.104593999999999 15.104593999999999 24.029593999999996
15.104593999999999 12.129593999999999 27.004593999999997
12.129593999999999 15.104593999999999 27.004593999999997
15.104593999999999 15.104593999999999 29.979594
15.104593999999999 21.054594 12.129593999999999
15.104593999999999 18.079594 15.104593999999999
15.104593999999999 21.054594 18.079594
15.104593999999999 18.079594 21.054594
15.104593999999999 21.054594 24.029593999999996
15.104593999999999 18.079594 27.004593999999997
12.129593999999999 21.054594 27.004593999999997
15.104593999999999 21.054594 29.979594
15.104593999999999 27.004593999999997 12.129593999999999
15.104593999999999 24.029593999999996 15.104593999999999
12.129593999999999 27.004593999999997 15.104593999999999
15.104593999999999 27.004593999999997 18.079594
15.104593999999999 24.029593999999996 21.054594
12.129593999999999 27.004593999999997 21.054594
15.104593999999999 27.004593999999997 24.029593999999996
15.104593999999999 24.029593999999996 27.004593999999997
12.129593999999999 27.004593999999997 27.004593999999997
15.104593999999999 27.004593999999997 29.979594
15.104593999999999 29.979594 21.054594
21.054594 12.129593999999999 15.104593999999999
18.079594 15.104593999999999 15.104593999999999
21.054594 15.104593999999999 18.079594
21.054594 12.129593999999999 21.054594
18.079594 15.104593999999999 21.054594
21.054594 15.104593999999999 24.029593999999996
21.054594 12.129593999999999 27.004593999999997
18.079594 15.104593999999999 27.004593999999997
21.054594 15.104593999999999 29.979594
21.054594 21.054594 12.129593999999999
21.054594 18.079594 15.104593999999999
18.079594 21.054594 15.104593999999999
21.054594 21.054594 18.079594
21.054594 18.079594 21.054594
18.079594 21.054594 21.054594
21.054594 21.054594 24.029593999999996
21.054594 18.079594 27.004593999999997
18.079594 21.054594 27.004593999999997
21.054594 21.054594 29.979594
21.054594 27.004593999999997 12.129593999999999
21.054594 24.029593999999996 15.104593999999999
18.079594 27.004593999999997 15.104593999999999
21.054594 27.004593999999997 18.079594
21.054594 24.029593999999996 21.054594
18.079594 27.004593999999997 21.054594
21.054594 27.004593999999997 24.029593999999996
21.054594 24.029593999999996 27.004593999999997
18.079594 27.004593999999997 27.004593999999997
21.054594 29.979594 15.104593999999999
21.054594 29.979594 21.054594
21.054594 29.979594 27.004593999999997
27.004593999999997 15.104593999999999 12.129593999999999
27.004593999999997 12.129593999999999 15.104593999999999
24.029593999999996 15.104593999999999 15.104593999999999
27.004593999999997 15.104593999999999 18.079594
27.004593999999997 12.129593999999999 21.054594
24.029593999999996 15.104593999999999 21.054594
27.004593999999997 15.104593999999999 24.029593999999996
27.004593999999997 12.129593999999999 27.004593999999997
24.029593999999996 15.104593999999999 27.004593999999997
27.004593999999997 15.104593999999999 29.979594
27.004593999999997 21.054594 12.129593999999999
27.004593999999997 18.079594 15.104593999999999
24.029593999999996 21.054594 15.104593999999999
27.004593999999997 21.054594 18.079594
27.004593999999997 18.079594 21.054594
24.029593999999996 21.054594 21.054594
27.004593999999997 21.054594 24.029593999999996
27.004593999999997 18.079594 27.004593999999997
24.029593999999996 21.054594 27.004593999999997
27.004593999999997 24.029593999999996 15.104593999999999
24.029593999999996 27.004593999999997 15.104593999999999
27.004593999999997 27.004593999999997 18.079594
27.004593999999997 24.029593999999996 21.054594
24.029593999999996 27.004593999999997 21.054594
27.004593999999997 27.004593999999997 24.029593999999996
27.004593999999997 24.029593999999996 27.004593999999997
24.029593999999996 27.004593999999997 27.004593999999997
27.004593999999997 27.004593999999997 29.979594
27.004593999999997 29.979594 15.104593999999999
27.004593999999997 29.979594 21.054594
27.004593999999997 29.979594 27.004593999999997
29.979594 15.104593999999999 15.104593999999999
29.979594 15.104593999999999 21.054594
29.979594 15.104593999999999 27.004593999999997
29.979594 21.054594 15.104593999999999
29.979594 21.054594 21.054594
29.979594 27.004593999999997 15.104593999999999
29.979594 27.004593999999997 27.004593999999997
21.356066 26.613012999999995 33.658679
21.733861999999995 26.191375 32.376357
21.054594 27.004593999999997 31.450865999999998
20.462032 27.682285 33.502663
21.054594 27.004593999999997 29.979594
26.511589999999998 21.088772999999996 33.658679
25.945462999999997 21.085778999999995 32.376357
27.004593999999997 21.054594 31.450865999999998
27.904792 21.048434999999998 33.502663
27.004593999999997 21.054594 29.979594
21.21304 14.636496 8.450508999999998
21.354135 14.088225 9.732831
21.054594 15.104593999999999 10.658321999999998
20.819679 15.973621999999999 8.606525
21.054594 15.104593999999999 12.129593999999999
26.587981999999997 27.270404999999997 8.450508999999998
26.134707999999996 27.609595999999996 9.732831
27.004593999999997 27.004593999999997 10.658321999999998
27.731842 26.474024 8.606525
27.004593999999997 27.004593999999997 12.129593999999999
8.450508999999998 20.574198 21.170527999999997
9.732831 20.035275 21.343936
10.658321999999998 21.054594 21.054594
8.606525 21.914825 20.789268999999997
12.129593999999999 21.054594 21.054594
8.450508999999998 21.548040999999998 15.077561999999999
9.732831 22.109454999999997 15.004603
10.658321999999998 21.054594 15.104593999999999
8.606525 20.160539999999997 15.209769999999999
12.129593999999999 21.054594 15.104593999999999
33.658679 21.527251999999997 26.860318999999997
32.376357 22.079524 26.735802999999997
31.450865999999998 21.054594 27.004593999999997
33.502663 20.178885 27.213226999999996
29.979594 21.054594 27.004593999999997
33.658679 27.409990999999998 21.337213999999996
32.376357 27.849021 21.694651
31.450865999999998 27.004593999999997 21.054594
33.502663 26.299644 20.494737999999998
29.979594 27.004593999999997 21.054594
14.748299999999999 8.450508999999998 14.762139
14.370468999999998 9.732831 14.340532999999999
15.104593999999999 10.658321999999998 15.104593999999999
15.713477 8.606525 15.767659
15.104593999999999 12.129593999999999 15.104593999999999
15.432526 8.450508999999998 21.424298
15.775633999999998 9.732831 21.874615999999996
15.104593999999999 10.658321999999998 21.054594
14.550367999999999 8.606525 20.345208
15.104593999999999 12.129593999999999 21.054594
15.583321999999999 33.658679 14.981955
16.119768 32.376357 14.801028999999998
15.104593999999999 31.450865999999998 15.104593999999999
14.248156999999999 33.502663 15.38192
15.104593999999999 29.979594 15.104593999999999
14.610648999999999 33.658679 27.020047999999996
14.047678 32.376357 27.079822
15.104593999999999 31.450865999999998 27.004593999999997
16.000867999999997 33.502663 26.920411
15.104593999999999 29.979594 27.004593999999997
24.029593999999996 18.079594 10.653932999999999
31.455255 18.079594 24.029593999999996
24.029593999999996 31.023044 31.023044
24.029593999999996 11.086143999999999 31.023044
31.023044 31.023044 24.029593999999996
18.079594 31.455255 18.079594
31.023044 24.029593999999996 11.086143999999999
11.086143999999999 11.086143999999999 24.029593999999996
24.029593999999996 11.086143999999999 11.086143999999999
31.023044 24.029593999999996 31.023044
12.129593999999999 12.129593999999999 18.079594
12.129593999999999 18.079594 12.129593999999999
12.129593999999999 18.079594 18.079594
12.129593999999999 18.079594 24.029593999999996
12.129593999999999 18.079594 29.979594
12.129593999999999 24.029593999999996 12.129593999999999
12.129593999999999 24.029593999999996 18.079594
12.129593999999999 24.029593999999996 24.029593999999996
12.129593999999999 24.029593999999996 29.979594
12.129593999999999 29.979594 18.079594
12.129593999999999 29.979594 24.029593999999996
18.079594 12.129593999999999 12.129593999999999
18.079594 12.129593999999999 18.079594
18.079594 12.129593999999999 24.029593999999996
18.079594 18.079594 12.129593999999999
18.079594 18.079594 18.079594
18.079594 18.079594 24.029593999999996
18.079594 18.079594 29.979594
18.079594 24.029593999999996 12.129593999999999
18.079594 24.029593999999996 18.079594
18.079594 24.029593999999996 24.029593999999996
18.079594 24.029593999999996 29.979594
18.079594 29.979594 12.129593999999999
18.079594 29.979594 24.029593999999996
18.079594 29.979594 29.979594
24.029593999999996 12.129593999999999 18.079594
24.029593999999996 18.079594 18.079594
24.029593999999996 18.079594 24.029593999999996
24.029593999999996 18.079594 29.979594
24.029593999999996 24.029593999999996 12.129593999999999
24.029593999999996 24.029593999999996 18.079594
24.029593999999996 24.029593999999996 24.029593999999996
24.029593999999996 24.029593999999996 29.979594
24.029593999999996 29.979594 12.129593999999999
24.029593999999996 29.979594 18.079594
24.029593999999996 29.979594 24.029593999999996
29.979594 12.129593999999999 18.079594
29.979594 12.129593999999999 24.029593999999996
29.979594 18.079594 12.129593999999999
29.979594 18.079594 18.079594
29.979594 18.079594 29.979594
29.979594 24.029593999999996 18.079594
29.979594 24.029593999999996 24.029593999999996
29.979594 29.979594 18.079594
19.962421 28.297773 34.245388
21.681477 26.201806999999995 34.609187999999996
22.413030999999997 25.389261999999995 32.106038
19.729639999999996 28.626893000000003 31.73549
28.696782999999996 21.013985999999996 34.245388
25.98802 21.118057 34.609187999999996
24.894709 21.109668999999997 32.106038
29.097481000000002 20.969842 31.73549
20.584926 16.730806 7.8637999999999995
21.374527999999998 14.137592999999999 7.499999999999999
21.644490999999995 13.078102 10.00315
20.440319 17.107098999999998 10.373698
28.388942 26.030564999999996 7.8637999999999995
26.149713 27.558332999999998 7.499999999999999
25.275892999999996 28.215477999999997 10.00315
28.737285999999997 25.827675999999997 10.373698
7.8637999999999995 22.680399 20.58352
7.499999999999999 20.066131 21.300336
10.00315 19.026141 21.63771
10.373698 23.07578 20.504896
7.8637999999999995 19.370365999999997 15.273496
7.499999999999999 22.071214999999995 15.041894999999998
10.00315 23.155102999999997 14.89841
10.373698 18.967284 15.279227999999998
34.245388 19.414972999999996 27.425067
34.609187999999996 22.030792999999996 26.713932
32.106038 23.097935 26.476003999999996
31.73549 19.034495999999997 27.558273
34.245388 25.661220999999998 20.024786999999996
34.609187999999996 27.836123999999998 21.642818
32.106038 28.682349000000002 22.335135
31.73549 25.321461999999997 19.807828
16.270687 7.8637999999999995 16.331533
14.375113999999998 7.499999999999999 14.393744
13.647371999999999 10.00315 13.577782999999998
16.572400000000002 10.373698 16.598883999999998
14.039764 7.8637999999999995 19.738808999999996
15.775234999999999 7.499999999999999 21.821202999999997
16.435783999999998 10.00315 22.692453
13.760266999999999 10.373698 19.448310999999997
13.485534 34.245388 15.598353
16.089525000000002 34.609187999999996 14.845056
17.124696999999998 32.106038 14.493173999999998
13.091291 31.73549 15.682495999999999
16.792319999999997 34.245388 26.875231
14.086782 34.609187999999996 27.043436999999997
12.999827999999999 32.106038 27.161466999999995
17.195425 31.73549 26.878952999999996
24.099184 19.116552 10.320011999999998
24.892831 17.500847999999998 10.320011999999998
23.096767 17.621381999999997 10.320011999999998
23.965458999999996 17.123928 12.504335999999999
23.234029999999997 18.612969 12.504335999999999
24.889291999999998 18.501885 12.504335999999999
31.789175999999998 17.443773 23.207488999999995
31.789175999999998 19.109468 23.890009
31.789175999999998 17.685541 24.991284
29.604852 18.66557 24.78725
29.604852 17.130456 24.158235999999995
29.604852 18.442756 23.143296
24.199366999999995 30.534143999999998 31.984180000000002
24.83267 31.725634999999997 30.792688
23.056745999999997 31.517705999999997 31.000617
23.873129999999996 30.382792000000002 29.046431
23.289474999999996 29.284706999999997 30.144515
24.926175999999998 29.476335 29.952886999999997
23.494895999999997 11.480194 31.889328999999996
23.525148 10.207507999999999 30.616642999999996
25.068737999999996 10.862376999999999 31.271512
24.522374999999997 11.813811 29.133846
24.494493 12.986725 30.306759999999997
23.071914 12.383194 29.703229
30.819477 31.698845999999996 23.196838999999997
30.969048 31.549275 24.984471999999997
31.98896 30.529364 23.907469999999996
30.119827 29.309396 24.797064999999996
29.981980999999998 29.447240999999998 23.149572999999997
29.042026 30.387197 24.142143999999995
19.099216 31.789175999999998 17.878357
17.395507000000002 31.789175999999998 17.297193999999998
17.744059999999998 31.789175999999998 19.063231000000002
17.139905 29.604852 18.265056
18.710053000000002 29.604852 18.800657
18.388824 29.604852 17.173068999999998
30.621411000000002 24.545998999999995 10.212276
31.894269 24.552473 11.485133999999999
31.261803999999998 22.99031 10.852668999999999
30.302365 23.553672 12.98233
29.129292999999997 23.547705999999998 11.809258
29.712176 24.987403 12.392140999999999
10.998448 10.701604999999999 25.047467999999995
10.152498 11.547555 23.702436
11.399134 10.300918999999999 23.338879
12.257791 12.531361999999998 23.091516
13.037422999999999 11.751731 24.331105
11.888517 12.900637 24.666160999999995
23.301153 10.325861 11.374191999999999
23.751846 11.558186 10.141867
25.035782999999995 10.666031 11.034021
24.70093 12.87765 11.911503
24.285567999999998 11.741933 13.047220999999999
23.102284999999995 12.564148 12.225005999999999
31.506214999999997 25.008395999999998 31.012107999999998
30.536243 23.842771 31.982079999999996
31.735025999999998 23.237614999999998 30.783296999999997
29.486925999999997 23.127525 29.942296999999996
30.380857 24.201772 29.048366
29.276052 24.759485999999995 30.153171
20.285716999999998 27.894529999999996 32.169114
28.180574999999997 21.039569999999998 32.169114
20.740961999999996 16.238081 9.940074
27.958791999999995 26.317088 9.940074
9.940074 22.180465999999996 20.714639
9.940074 19.885776 15.235066999999999
32.169114 19.912174 27.283941999999996
32.169114 26.079299 20.328654999999998
15.905185999999999 9.940074 15.966111
14.375048 9.940074 20.13214
13.983585 32.169114 15.460256999999999
16.27615 32.169114 26.901564
24.029593999999996 18.079594 12.129593999999999
29.979594 18.079594 24.029593999999996
24.029593999999996 29.979594 29.979594
24.029593999999996 12.129593999999999 29.979594
29.979594 29.979594 24.029593999999996
18.079594 29.979594 18.079594
29.979594 24.029593999999996 12.129593999999999
12.129593999999999 12.129593999999999 24.029593999999996
24.029593999999996 12.129593999999999 12.129593999999999
29.979594 24.029593999999996 29.979594
21.124628 25.892781 29.376072999999998
20.969589 28.103991999999998 29.357506
26.126182 21.739739 29.376072999999998
27.883648 20.388886999999997 29.357506
21.940624999999997 14.429329999999998 12.733115
20.187198 15.785421999999999 12.751681999999999
25.890934 26.976430999999998 12.733115
28.107205999999998 27.016751 12.751681999999999
12.733115 20.010582 20.665914
12.751681999999999 22.093362 21.424544999999995
12.733115 22.01097 15.675889
12.751681999999999 20.099984 14.552667999999999
29.376072999999998 21.756239 26.139303999999996
29.357506 20.347948 27.851089
29.376072999999998 28.118474999999997 21.071981
29.357506 25.902406 21.021665999999996
14.007090999999999 12.733115 14.91349
16.188119999999998 12.751681999999999 15.309222
16.183424 12.733115 21.332369
14.040771999999999 12.751681999999999 20.764448
16.153937999999997 29.376072999999998 15.478639
14.060756 29.357506 14.749201999999999
14.161876999999999 29.376072999999998 26.411031
16.045999000000002 29.357506 27.578753
15.104593999999999 15.104593999999999 15.104593999999999
15.104593999999999 15.104593999999999 21.054594
15.104593999999999 15.104593999999999 27.004593999999997
15.104593999999999 21.054594 15.104593999999999
15.104593999999999 21.054594 21.054594
15.104593999999999 21.054594 27.004593999999997
15.104593999999999 27.004593999999997 15.104593999999999
15.104593999999999 27.004593999999997 21.054594
15.104593999999999 27.004593999999997 27.004593999999997
21.054594 15.104593999999999 15.104593999999999
21.054594 15.104593999999999 21.054594
21.054594 15.104593999999999 27.004593999999997
21.054594 21.054594 15.104593999999999
21.054594 21.054594 21.054594
21.054594 21.054594 27.004593999999997
21.054594 27.004593999999997 15.104593999999999
21.054594 27.004593999999997 21.054594
21.054594 27.004593999999997 27.004593999999997
27.004593999999997 15.104593999999999 15.104593999999999
27.004593999999997 15.104593999999999 21.054594
27.004593999999997 15.104593999999999 27.004593999999997
27.004593999999997 21.054594 15.104593999999999
27.004593999999997 21.054594 21.054594
27.004593999999997 21.054594 27.004593999999997
27.004593999999997 27.004593999999997 15.104593999999999
27.004593999999997 27.004593999999997 21.054594
27.004593999999997 27.004593999999997 27.004593999999997
