3_train/270_cspbbr3_MA-PDC_3_0.60\270_cspbbr3_MA-PDC_3_0.60.xyz
1.0
47.099758 0 0
0 47.099758 0
0 0 47.099758
Br C Cs H N O Pb 
72 244 26 312 100 144 27 
Cartesian
17.599879 17.599879 20.574879
17.599879 14.624879 23.549879
14.624879 17.599879 23.549879
17.599879 17.599879 26.524879
14.624879 17.599879 29.499879
17.599879 17.599879 32.474879
17.599879 20.574879 17.599879
17.599879 23.549879 20.574879
17.599879 20.574879 23.549879
14.624879 23.549879 23.549879
17.599879 23.549879 26.524879
17.599879 20.574879 29.499879
17.599879 29.499879 14.624879
17.599879 26.524879 17.599879
17.599879 29.499879 20.574879
17.599879 26.524879 23.549879
17.599879 29.499879 26.524879
17.599879 26.524879 29.499879
20.574879 17.599879 17.599879
23.549879 17.599879 20.574879
23.549879 14.624879 23.549879
20.574879 17.599879 23.549879
23.549879 17.599879 26.524879
20.574879 17.599879 29.499879
23.549879 20.574879 17.599879
20.574879 23.549879 17.599879
23.549879 23.549879 20.574879
23.549879 20.574879 23.549879
20.574879 23.549879 23.549879
23.549879 23.549879 26.524879
23.549879 20.574879 29.499879
20.574879 23.549879 29.499879
23.549879 26.524879 17.599879
20.574879 29.499879 17.599879
23.549879 29.499879 20.574879
23.549879 26.524879 23.549879
20.574879 29.499879 23.549879
23.549879 29.499879 26.524879
23.549879 26.524879 29.499879
20.574879 29.499879 29.499879
23.549879 32.474879 17.599879
29.499879 17.599879 14.624879
26.524879 17.599879 17.599879
29.499879 17.599879 20.574879
26.524879 17.599879 23.549879
29.499879 17.599879 26.524879
29.499879 14.624879 29.499879
26.524879 17.599879 29.499879
29.499879 17.599879 32.474879
29.499879 23.549879 14.624879
29.499879 20.574879 17.599879
26.524879 23.549879 17.599879
29.499879 23.549879 20.574879
29.499879 20.574879 23.549879
26.524879 23.549879 23.549879
29.499879 23.549879 26.524879
29.499879 20.574879 29.499879
26.524879 23.549879 29.499879
29.499879 26.524879 17.599879
26.524879 29.499879 17.599879
29.499879 29.499879 20.574879
29.499879 26.524879 23.549879
26.524879 29.499879 23.549879
29.499879 29.499879 26.524879
29.499879 26.524879 29.499879
26.524879 29.499879 29.499879
29.499879 29.499879 32.474879
29.499879 32.474879 23.549879
29.499879 32.474879 29.499879
32.474879 17.599879 17.599879
32.474879 23.549879 23.549879
32.474879 29.499879 29.499879
23.542301000000002 24.953809 34.933063000000004
23.549879 23.549879 34.869439
23.55114 23.438422 37.140242
23.545918999999998 24.842515 37.20385
23.556019 22.905144 33.514284
23.547722999999998 25.490897 38.557437
29.492300999999998 24.953809 34.933063000000004
29.499879 23.549879 34.869439
29.50114 23.438422 37.140242
29.495919 24.842515 37.20385
29.506019000000002 22.905144 33.514284
29.497723 25.490897 38.557437
17.592301 30.903809 34.933063000000004
17.599879 29.499879 34.869439
17.60114 29.388422 37.140242
17.595919000000002 30.792515 37.20385
17.606019 28.855144 33.514284
17.597723000000002 31.440897 38.557437
17.592301 24.953809 34.933063000000004
17.599879 23.549879 34.869439
17.60114 23.438422 37.140242
17.595919000000002 24.842515 37.20385
17.606019 22.905144 33.514284
17.597723000000002 25.490897 38.557437
23.542301000000002 30.903809 34.933063000000004
23.549879 29.499879 34.869439
23.55114 29.388422 37.140242
23.545918999999998 30.792515 37.20385
23.556019 28.855144 33.514284
23.547722999999998 31.440897 38.557437
23.542301000000002 19.003809 34.933063000000004
23.549879 17.599879 34.869439
23.55114 17.488422 37.140242
23.545918999999998 18.892515 37.20385
23.556019 16.955144 33.514284
23.547722999999998 19.540897 38.557437
23.557457 30.903809 12.166695
23.549879 29.499879 12.230319
23.548617999999998 29.388422 9.959516
23.553839 30.792515 9.895908
23.543739000000002 28.855144 13.585474
23.552035 31.440897 8.542321000000001
17.607457 19.003809 12.166695
17.599879 17.599879 12.230319
17.598618000000002 17.488422 9.959516
17.603839 18.892515 9.895908
17.593739 16.955144 13.585474
17.602035 19.540897 8.542321000000001
23.557457 24.953809 12.166695
23.549879 23.549879 12.230319
23.548617999999998 23.438422 9.959516
23.553839 24.842515 9.895908
23.543739000000002 22.905144 13.585474
23.552035 25.490897 8.542321000000001
29.507457000000002 30.903809 12.166695
29.499879 29.499879 12.230319
29.498618 29.388422 9.959516
29.503839 30.792515 9.895908
29.493738999999998 28.855144 13.585474
29.502035 31.440897 8.542321000000001
17.607457 24.953809 12.166695
17.599879 23.549879 12.230319
17.598618000000002 23.438422 9.959516
17.603839 24.842515 9.895908
17.593739 22.905144 13.585474
17.602035 25.490897 8.542321000000001
23.557457 19.003809 12.166695
23.549879 17.599879 12.230319
23.548617999999998 17.488422 9.959516
23.553839 18.892515 9.895908
23.543739000000002 16.955144 13.585474
23.552035 19.540897 8.542321000000001
12.166695 24.953809 17.592301
12.230319 23.549879 17.599879
9.959516 23.438422 17.60114
9.895908 24.842515 17.595919000000002
13.585474 22.905144 17.606019
8.542321000000001 25.490897 17.597723000000002
12.166695 24.953809 29.492300999999998
12.230319 23.549879 29.499879
9.959516 23.438422 29.50114
9.895908 24.842515 29.495919
13.585474 22.905144 29.506019000000002
8.542321000000001 25.490897 29.497723
12.166695 30.903809 29.492300999999998
12.230319 29.499879 29.499879
9.959516 29.388422 29.50114
9.895908 30.792515 29.495919
13.585474 28.855144 29.506019000000002
8.542321000000001 31.440897 29.497723
12.166695 30.903809 23.542301000000002
12.230319 29.499879 23.549879
9.959516 29.388422 23.55114
9.895908 30.792515 23.545918999999998
13.585474 28.855144 23.556019
8.542321000000001 31.440897 23.547722999999998
12.166695 30.903809 17.592301
12.230319 29.499879 17.599879
9.959516 29.388422 17.60114
9.895908 30.792515 17.595919000000002
13.585474 28.855144 17.606019
8.542321000000001 31.440897 17.597723000000002
12.166695 19.003809 17.592301
12.230319 17.599879 17.599879
9.959516 17.488422 17.60114
9.895908 18.892515 17.595919000000002
13.585474 16.955144 17.606019
8.542321000000001 19.540897 17.597723000000002
34.933063000000004 30.903809 23.557457
34.869439 29.499879 23.549879
37.140242 29.388422 23.548617999999998
37.20385 30.792515 23.553839
33.514284 28.855144 23.543739000000002
38.557437 31.440897 23.552035
34.933063000000004 24.953809 29.507457000000002
34.869439 23.549879 29.499879
37.140242 23.438422 29.498618
37.20385 24.842515 29.503839
33.514284 22.905144 29.493738999999998
38.557437 25.490897 29.502035
34.933063000000004 24.953809 17.607457
34.869439 23.549879 17.599879
37.140242 23.438422 17.598618000000002
37.20385 24.842515 17.603839
33.514284 22.905144 17.593739
38.557437 25.490897 17.602035
34.933063000000004 19.003809 23.557457
34.869439 17.599879 23.549879
37.140242 17.488422 23.548617999999998
37.20385 18.892515 23.553839
33.514284 16.955144 23.543739000000002
38.557437 19.540897 23.552035
34.933063000000004 30.903809 17.607457
34.869439 29.499879 17.599879
37.140242 29.388422 17.598618000000002
37.20385 30.792515 17.603839
33.514284 28.855144 17.593739
38.557437 31.440897 17.602035
34.933063000000004 19.003809 29.507457000000002
34.869439 17.599879 29.499879
37.140242 17.488422 29.498618
37.20385 18.892515 29.503839
33.514284 16.955144 29.493738999999998
38.557437 19.540897 29.502035
17.592301 12.166695 30.903809
17.599879 12.230319 29.499879
17.60114 9.959516 29.388422
17.595919000000002 9.895908 30.792515
17.606019 13.585474 28.855144
17.597723000000002 8.542321000000001 31.440897
29.492300999999998 12.166695 19.003809
29.499879 12.230319 17.599879
29.50114 9.959516 17.488422
29.495919 9.895908 18.892515
29.506019000000002 13.585474 16.955144
29.497723 8.542321000000001 19.540897
23.542301000000002 12.166695 30.903809
23.549879 12.230319 29.499879
23.55114 9.959516 29.388422
23.545918999999998 9.895908 30.792515
23.556019 13.585474 28.855144
23.547722999999998 8.542321000000001 31.440897
29.492300999999998 12.166695 24.953809
29.499879 12.230319 23.549879
29.50114 9.959516 23.438422
29.495919 9.895908 24.842515
29.506019000000002 13.585474 22.905144
29.497723 8.542321000000001 25.490897
17.592301 12.166695 19.003809
17.599879 12.230319 17.599879
17.60114 9.959516 17.488422
17.595919000000002 9.895908 18.892515
17.606019 13.585474 16.955144
17.597723000000002 8.542321000000001 19.540897
23.542301000000002 12.166695 19.003809
23.549879 12.230319 17.599879
23.55114 9.959516 17.488422
23.545918999999998 9.895908 18.892515
23.556019 13.585474 16.955144
23.547722999999998 8.542321000000001 19.540897
23.542301000000002 34.933063000000004 28.095948999999997
23.549879 34.869439 29.499879
23.55114 37.140242 29.611336
23.545918999999998 37.20385 28.207243
23.556019 33.514284 30.144614
23.547722999999998 38.557437 27.558861
17.592301 34.933063000000004 22.145949
17.599879 34.869439 23.549879
17.60114 37.140242 23.661336
17.595919000000002 37.20385 22.257243
17.606019 33.514284 24.194614
17.597723000000002 38.557437 21.608861
23.542301000000002 34.933063000000004 22.145949
23.549879 34.869439 23.549879
23.55114 37.140242 23.661336
23.545918999999998 37.20385 22.257243
23.556019 33.514284 24.194614
23.547722999999998 38.557437 21.608861
29.492300999999998 34.933063000000004 16.195949
29.499879 34.869439 17.599879
29.50114 37.140242 17.711336
29.495919 37.20385 16.307243
29.506019000000002 33.514284 18.244614
29.497723 38.557437 15.658861
17.592301 34.933063000000004 28.095948999999997
17.599879 34.869439 29.499879
17.60114 37.140242 29.611336
17.595919000000002 37.20385 28.207243
17.606019 33.514284 30.144614
17.597723000000002 38.557437 27.558861
17.592301 34.933063000000004 16.195949
17.599879 34.869439 17.599879
17.60114 37.140242 17.711336
17.595919000000002 37.20385 16.307243
17.606019 33.514284 18.244614
17.597723000000002 38.557437 15.658861
33.518329 13.581429 20.574879
33.518329 26.524879 33.518329
20.574879 13.149218000000001 26.524879
20.574879 33.518329 33.518329
13.581429 20.574879 13.581429
13.581429 13.581429 26.524879
26.524879 13.581429 33.518329
26.524879 13.149218000000001 20.574879
20.574879 13.149218000000001 20.574879
33.518329 33.518329 20.574879
26.524879 13.149218000000001 26.524879
20.574879 20.574879 13.149218000000001
20.574879 26.524879 13.149218000000001
33.950540000000004 26.524879 26.524879
13.149218000000001 26.524879 20.574879
33.518329 20.574879 13.581429
20.574879 13.581429 33.518329
33.518329 20.574879 33.518329
26.524879 33.950540000000004 20.574879
26.524879 33.518329 13.581429
13.149218000000001 20.574879 26.524879
13.581429 26.524879 33.518329
33.518329 33.518329 26.524879
20.574879 20.574879 33.950540000000004
13.149218000000001 20.574879 20.574879
26.524879 26.524879 13.149218000000001
20.574879 33.518329 13.581429
13.581429 33.518329 26.524879
14.624879 14.624879 20.574879
14.624879 20.574879 32.474879
14.624879 26.524879 14.624879
14.624879 26.524879 26.524879
20.574879 14.624879 14.624879
20.574879 20.574879 20.574879
20.574879 20.574879 26.524879
20.574879 26.524879 20.574879
20.574879 26.524879 26.524879
20.574879 26.524879 32.474879
20.574879 32.474879 20.574879
20.574879 32.474879 26.524879
26.524879 14.624879 14.624879
26.524879 20.574879 14.624879
26.524879 20.574879 20.574879
26.524879 20.574879 26.524879
26.524879 20.574879 32.474879
26.524879 26.524879 20.574879
26.524879 26.524879 26.524879
26.524879 32.474879 26.524879
26.524879 32.474879 32.474879
32.474879 14.624879 26.524879
32.474879 20.574879 20.574879
32.474879 20.574879 26.524879
32.474879 26.524879 14.624879
32.474879 26.524879 20.574879
23.554090000000002 22.846322999999998 38.058302
23.538443 25.545633000000002 34.014795
23.582499 21.250843 32.626537
23.548702 27.150337 39.437011
29.504089999999998 22.846322999999998 38.058302
29.488443 25.545633000000002 34.014795
29.532499 21.250843 32.626537
29.498702 27.150337 39.437011
17.60409 28.796323 38.058302
17.588442999999998 31.495633 34.014795
17.632499 27.200843 32.626537
17.598702 33.100336999999996 39.437011
17.60409 22.846322999999998 38.058302
17.588442999999998 25.545633000000002 34.014795
17.632499 21.250843 32.626537
17.598702 27.150337 39.437011
23.554090000000002 28.796323 38.058302
23.538443 31.495633 34.014795
23.582499 27.200843 32.626537
23.548702 33.100336999999996 39.437011
23.554090000000002 16.896323 38.058302
23.538443 19.595633 34.014795
23.582499 15.300843 32.626537
23.548702 21.200337 39.437011
23.545668 28.796323 9.041456
23.561315 31.495633 13.084963
23.517259 27.200843 14.473220999999999
23.551056 33.100336999999996 7.6627469999999995
17.595668 16.896323 9.041456
17.611314999999998 19.595633 13.084963
17.567259 15.300843 14.473220999999999
17.601056 21.200337 7.6627469999999995
23.545668 22.846322999999998 9.041456
23.561315 25.545633000000002 13.084963
23.517259 21.250843 14.473220999999999
23.551056 27.150337 7.6627469999999995
29.495668000000002 28.796323 9.041456
29.511315 31.495633 13.084963
29.467259 27.200843 14.473220999999999
29.501056 33.100336999999996 7.6627469999999995
17.595668 22.846322999999998 9.041456
17.611314999999998 25.545633000000002 13.084963
17.567259 21.250843 14.473220999999999
17.601056 27.150337 7.6627469999999995
23.545668 16.896323 9.041456
23.561315 19.595633 13.084963
23.517259 15.300843 14.473220999999999
23.551056 21.200337 7.6627469999999995
9.041456 22.846322999999998 17.60409
13.084963 25.545633000000002 17.588442999999998
14.473220999999999 21.250843 17.632499
7.6627469999999995 27.150337 17.598702
9.041456 22.846322999999998 29.504089999999998
13.084963 25.545633000000002 29.488443
14.473220999999999 21.250843 29.532499
7.6627469999999995 27.150337 29.498702
9.041456 28.796323 29.504089999999998
13.084963 31.495633 29.488443
14.473220999999999 27.200843 29.532499
7.6627469999999995 33.100336999999996 29.498702
9.041456 28.796323 23.554090000000002
13.084963 31.495633 23.538443
14.473220999999999 27.200843 23.582499
7.6627469999999995 33.100336999999996 23.548702
9.041456 28.796323 17.60409
13.084963 31.495633 17.588442999999998
14.473220999999999 27.200843 17.632499
7.6627469999999995 33.100336999999996 17.598702
9.041456 16.896323 17.60409
13.084963 19.595633 17.588442999999998
14.473220999999999 15.300843 17.632499
7.6627469999999995 21.200337 17.598702
38.058302 28.796323 23.545668
34.014795 31.495633 23.561315
32.626537 27.200843 23.517259
39.437011 33.100336999999996 23.551056
38.058302 22.846322999999998 29.495668000000002
34.014795 25.545633000000002 29.511315
32.626537 21.250843 29.467259
39.437011 27.150337 29.501056
38.058302 22.846322999999998 17.595668
34.014795 25.545633000000002 17.611314999999998
32.626537 21.250843 17.567259
39.437011 27.150337 17.601056
38.058302 16.896323 23.545668
34.014795 19.595633 23.561315
32.626537 15.300843 23.517259
39.437011 21.200337 23.551056
38.058302 28.796323 17.595668
34.014795 31.495633 17.611314999999998
32.626537 27.200843 17.567259
39.437011 33.100336999999996 17.601056
38.058302 16.896323 29.495668000000002
34.014795 19.595633 29.511315
32.626537 15.300843 29.467259
39.437011 21.200337 29.501056
17.60409 9.041456 28.796323
17.588442999999998 13.084963 31.495633
17.632499 14.473220999999999 27.200843
17.598702 7.6627469999999995 33.100336999999996
29.504089999999998 9.041456 16.896323
29.488443 13.084963 19.595633
29.532499 14.473220999999999 15.300843
29.498702 7.6627469999999995 21.200337
23.554090000000002 9.041456 28.796323
23.538443 13.084963 31.495633
23.582499 14.473220999999999 27.200843
23.548702 7.6627469999999995 33.100336999999996
29.504089999999998 9.041456 22.846322999999998
29.488443 13.084963 25.545633000000002
29.532499 14.473220999999999 21.250843
29.498702 7.6627469999999995 27.150337
17.60409 9.041456 16.896323
17.588442999999998 13.084963 19.595633
17.632499 14.473220999999999 15.300843
17.598702 7.6627469999999995 21.200337
23.554090000000002 9.041456 16.896323
23.538443 13.084963 19.595633
23.582499 14.473220999999999 15.300843
23.548702 7.6627469999999995 21.200337
23.554090000000002 38.058302 30.203435
23.538443 34.014795 27.504125000000002
23.582499 32.626537 31.798915
23.548702 39.437011 25.899421
17.60409 38.058302 24.253435
17.588442999999998 34.014795 21.554125
17.632499 32.626537 25.848914999999998
17.598702 39.437011 19.949421
23.554090000000002 38.058302 24.253435
23.538443 34.014795 21.554125
23.582499 32.626537 25.848914999999998
23.548702 39.437011 19.949421
29.504089999999998 38.058302 18.303435
29.488443 34.014795 15.604125
29.532499 32.626537 19.898915
29.498702 39.437011 13.999421
17.60409 38.058302 30.203435
17.588442999999998 34.014795 27.504125000000002
17.632499 32.626537 31.798915
17.598702 39.437011 25.899421
17.60409 38.058302 18.303435
17.588442999999998 34.014795 15.604125
17.632499 32.626537 19.898915
17.598702 39.437011 13.999421
33.04673 12.637595000000001 20.29488
34.279769 13.870633999999999 19.848106
33.936841 13.527706 21.581651
32.862132 15.542097 20.832928
31.725757 14.405722 21.244676
32.041801 14.721765999999999 19.647033
33.394014999999996 25.619173 34.114878000000004
34.489292 26.536295 33.019601
33.380033 27.419168 34.12886
32.542072000000005 27.359582 31.877721
31.532659 26.514357 32.887133
32.554958 25.700696999999998 31.864835
20.065152 12.815297000000001 25.619173
21.614107 12.815297000000001 26.536295
20.045378 12.815297000000001 27.419168
21.044646 14.999621000000001 27.359582
19.617121 14.999621000000001 26.514357
21.06287 14.999621000000001 25.700696999999998
20.065152 33.114016 34.394877
21.614107 33.762519 33.746374
20.045378 34.386804999999995 33.122089
21.044646 32.800121000000004 31.619672
19.617121 32.202456 32.217336
21.06287 31.627112 32.792681
13.705743 19.669173 12.98488
12.610466 20.586295 14.080157
13.719725 21.469168 12.970898
14.557686 21.409582 15.222037
15.567099 20.564357 14.212625
14.5448 19.750697 15.234923
13.543301 13.147321999999999 25.524017
13.859217000000001 12.831406 27.267797
12.633416 14.057207 26.782823
14.707393 15.072330000000001 27.447279
14.416243999999999 15.36348 25.840201999999998
15.545948 14.233775 26.287156
26.015152 12.704881 33.114016
27.564107 13.353384 33.762519
25.995378000000002 13.977668999999999 34.386804999999995
26.994646 15.480086 32.800121000000004
25.567121 14.882422 32.202456
27.01287 14.307077 31.627112
26.015152 12.815297000000001 19.669173
27.564107 12.815297000000001 20.586295
25.995378000000002 12.815297000000001 21.469168
26.994646 14.999621000000001 21.409582
25.567121 14.999621000000001 20.564357
27.01287 14.999621000000001 19.750697
20.065152 12.815297000000001 19.669173
21.614107 12.815297000000001 20.586295
20.045378 12.815297000000001 21.469168
21.044646 14.999621000000001 21.409582
19.617121 14.999621000000001 20.564357
21.06287 14.999621000000001 19.750697
33.952436 33.556456999999995 21.575741
34.268352 33.240541 19.831961
33.042551 34.466342 20.316935
32.027428 32.392365 19.652479
31.736278 32.683514 21.259556
32.865983 31.55381 20.812602
26.015152 12.815297000000001 25.619173
27.564107 12.815297000000001 26.536295
25.995378000000002 12.815297000000001 27.419168
26.994646 14.999621000000001 27.359582
25.567121 14.999621000000001 26.514357
27.01287 14.999621000000001 25.700696999999998
21.084606 19.669173 12.815297000000001
19.535651 20.586295 12.815297000000001
21.10438 21.469168 12.815297000000001
20.105112 21.409582 14.999621000000001
21.532637 20.564357 14.999621000000001
20.086888000000002 19.750697 14.999621000000001
21.084606 25.619173 12.815297000000001
19.535651 26.536295 12.815297000000001
21.10438 27.419168 12.815297000000001
20.105112 27.359582 14.999621000000001
21.532637 26.514357 14.999621000000001
20.086888000000002 25.700696999999998 14.999621000000001
34.284461 25.619173 27.034606
34.284461 26.536295 25.485651
34.284461 27.419168 27.054380000000002
32.100137000000004 27.359582 26.055112
32.100137000000004 26.514357 27.482637
32.100137000000004 25.700696999999998 26.036887999999998
12.815297000000001 25.619173 20.065152
12.815297000000001 26.536295 21.614107
12.815297000000001 27.419168 20.045378
14.999621000000001 27.359582 21.044646
14.999621000000001 26.514357 19.617121
14.999621000000001 25.700696999999998 21.06287
34.114878000000004 19.669173 13.705743
33.019601 20.586295 12.610466
34.12886 21.469168 13.719725
31.877721 21.409582 14.557686
32.887133 20.564357 15.567099
31.864835 19.750697 14.5448
20.065152 12.704881 33.114016
21.614107 13.353384 33.762519
20.045378 13.977668999999999 34.386804999999995
21.044646 15.480086 32.800121000000004
19.617121 14.882422 32.202456
21.06287 14.307077 31.627112
33.394014999999996 19.669173 34.114878000000004
34.489292 20.586295 33.019601
33.380033 21.469168 34.12886
32.542072000000005 21.409582 31.877721
31.532659 20.564357 32.887133
32.554958 19.750697 31.864835
26.015152 34.284461 21.480584999999998
27.564107 34.284461 20.563463
25.995378000000002 34.284461 19.68059
26.994646 32.100137000000004 19.740175999999998
25.567121 32.100137000000004 20.585401
27.01287 32.100137000000004 21.399061
26.015152 34.394877 13.985742
27.564107 33.746374 13.337239
25.995378000000002 33.122089 12.712952999999999
26.994646 31.619672 14.299637
25.567121 32.217336 14.897302
27.01287 32.792681 15.472646
12.815297000000001 19.669173 26.015152
12.815297000000001 20.586295 27.564107
12.815297000000001 21.469168 25.995378000000002
14.999621000000001 21.409582 26.994646
14.999621000000001 20.564357 25.567121
14.999621000000001 19.750697 27.01287
12.98488 25.619173 33.394014999999996
14.080157 26.536295 34.489292
12.970898 27.419168 33.380033
15.222037 27.359582 32.542072000000005
14.212625 26.514357 31.532659
15.234923 25.700696999999998 32.554958
33.952436 33.556456999999995 27.525741
34.268352 33.240541 25.781961000000003
33.042551 34.466342 26.266935
32.027428 32.392365 25.602479000000002
31.736278 32.683514 27.209556
32.865983 31.55381 26.762602
20.065152 19.669173 34.284461
21.614107 20.586295 34.284461
20.045378 21.469168 34.284461
21.044646 21.409582 32.100137000000004
19.617121 20.564357 32.100137000000004
21.06287 19.750697 32.100137000000004
12.815297000000001 19.669173 20.065152
12.815297000000001 20.586295 21.614107
12.815297000000001 21.469168 20.045378
14.999621000000001 21.409582 21.044646
14.999621000000001 20.564357 19.617121
14.999621000000001 19.750697 21.06287
27.034606 25.619173 12.815297000000001
25.485651 26.536295 12.815297000000001
27.054380000000002 27.419168 12.815297000000001
26.055112 27.359582 14.999621000000001
27.482637 26.514357 14.999621000000001
26.036887999999998 25.700696999999998 14.999621000000001
20.065152 34.394877 13.985742
21.614107 33.746374 13.337239
20.045378 33.122089 12.712952999999999
21.044646 31.619672 14.299637
19.617121 32.217336 14.897302
21.06287 32.792681 15.472646
12.637595000000001 33.04673 26.804878000000002
13.870633999999999 34.279769 27.251652
13.527706 33.936841 25.518107
15.542097 32.862132 26.26683
14.405722 31.725757 25.855082
14.721765999999999 32.041801 27.452725
23.540348 25.606067 36.099109999999996
23.553299 22.786033 35.974098
29.490347999999997 25.606067 36.099109999999996
29.503299 22.786033 35.974098
17.590348 31.556067 36.099109999999996
17.603299 28.736033 35.974098
17.590348 25.606067 36.099109999999996
17.603299 22.786033 35.974098
23.540348 31.556067 36.099109999999996
23.553299 28.736033 35.974098
23.540348 19.656067 36.099109999999996
23.553299 16.836033 35.974098
23.55941 31.556067 11.000648
23.546459 28.736033 11.12566
17.60941 19.656067 11.000648
17.596459 16.836033 11.12566
23.55941 25.606067 11.000648
23.546459 22.786033 11.12566
29.509410000000003 31.556067 11.000648
29.496459 28.736033 11.12566
17.60941 25.606067 11.000648
17.596459 22.786033 11.12566
23.55941 19.656067 11.000648
23.546459 16.836033 11.12566
11.000648 25.606067 17.590348
11.12566 22.786033 17.603299
11.000648 25.606067 29.490347999999997
11.12566 22.786033 29.503299
11.000648 31.556067 29.490347999999997
11.12566 28.736033 29.503299
11.000648 31.556067 23.540348
11.12566 28.736033 23.553299
11.000648 31.556067 17.590348
11.12566 28.736033 17.603299
11.000648 19.656067 17.590348
11.12566 16.836033 17.603299
36.099109999999996 31.556067 23.55941
35.974098 28.736033 23.546459
36.099109999999996 25.606067 29.509410000000003
35.974098 22.786033 29.496459
36.099109999999996 25.606067 17.60941
35.974098 22.786033 17.596459
36.099109999999996 19.656067 23.55941
35.974098 16.836033 23.546459
36.099109999999996 31.556067 17.60941
35.974098 28.736033 17.596459
36.099109999999996 19.656067 29.509410000000003
35.974098 16.836033 29.496459
17.590348 11.000648 31.556067
17.603299 11.12566 28.736033
29.490347999999997 11.000648 19.656067
29.503299 11.12566 16.836033
23.540348 11.000648 31.556067
23.553299 11.12566 28.736033
29.490347999999997 11.000648 25.606067
29.503299 11.12566 22.786033
17.590348 11.000648 19.656067
17.603299 11.12566 16.836033
23.540348 11.000648 19.656067
23.553299 11.12566 16.836033
23.540348 36.099109999999996 27.443691
23.553299 35.974098 30.263725
17.590348 36.099109999999996 21.493691
17.603299 35.974098 24.313724999999998
23.540348 36.099109999999996 21.493691
23.553299 35.974098 24.313724999999998
29.490347999999997 36.099109999999996 15.543690999999999
29.503299 35.974098 18.363725000000002
17.590348 36.099109999999996 27.443691
17.603299 35.974098 30.263725
17.590348 36.099109999999996 15.543690999999999
17.603299 35.974098 18.363725000000002
32.474879 14.624879 20.574879
32.474879 26.524879 32.474879
20.574879 14.624879 26.524879
20.574879 32.474879 32.474879
14.624879 20.574879 14.624879
14.624879 14.624879 26.524879
26.524879 14.624879 32.474879
26.524879 14.624879 20.574879
20.574879 14.624879 20.574879
32.474879 32.474879 20.574879
26.524879 14.624879 26.524879
20.574879 20.574879 14.624879
20.574879 26.524879 14.624879
32.474879 26.524879 26.524879
14.624879 26.524879 20.574879
32.474879 20.574879 14.624879
20.574879 14.624879 32.474879
32.474879 20.574879 32.474879
26.524879 32.474879 20.574879
26.524879 32.474879 14.624879
14.624879 20.574879 26.524879
14.624879 26.524879 32.474879
32.474879 32.474879 26.524879
20.574879 20.574879 32.474879
14.624879 20.574879 20.574879
26.524879 26.524879 14.624879
20.574879 32.474879 14.624879
14.624879 32.474879 26.524879
23.549879 23.549879 32.474879
23.569886 21.552413 33.560401
23.542685 26.843704000000002 38.504804
23.55369 24.850851 39.599758
29.499879 23.549879 32.474879
29.519886 21.552413 33.560401
29.492685 26.843704000000002 38.504804
29.50369 24.850851 39.599758
17.599879 29.499879 32.474879
17.619886 27.502413 33.560401
17.592685 32.793704 38.504804
17.60369 30.800851 39.599758
17.599879 23.549879 32.474879
17.619886 21.552413 33.560401
17.592685 26.843704000000002 38.504804
17.60369 24.850851 39.599758
23.549879 29.499879 32.474879
23.569886 27.502413 33.560401
23.542685 32.793704 38.504804
23.55369 30.800851 39.599758
23.549879 17.599879 32.474879
23.569886 15.602413 33.560401
23.542685 20.893704 38.504804
23.55369 18.900851 39.599758
23.549879 29.499879 14.624879
23.529871999999997 27.502413 13.539356999999999
23.557073000000003 32.793704 8.594954
23.546067999999998 30.800851 7.5
17.599879 17.599879 14.624879
17.579872 15.602413 13.539356999999999
17.607073 20.893704 8.594954
17.596068 18.900851 7.5
23.549879 23.549879 14.624879
23.529871999999997 21.552413 13.539356999999999
23.557073000000003 26.843704000000002 8.594954
23.546067999999998 24.850851 7.5
29.499879 29.499879 14.624879
29.479872 27.502413 13.539356999999999
29.507073 32.793704 8.594954
29.496068 30.800851 7.5
17.599879 23.549879 14.624879
17.579872 21.552413 13.539356999999999
17.607073 26.843704000000002 8.594954
17.596068 24.850851 7.5
23.549879 17.599879 14.624879
23.529871999999997 15.602413 13.539356999999999
23.557073000000003 20.893704 8.594954
23.546067999999998 18.900851 7.5
14.624879 23.549879 17.599879
13.539356999999999 21.552413 17.619886
8.594954 26.843704000000002 17.592685
7.5 24.850851 17.60369
14.624879 23.549879 29.499879
13.539356999999999 21.552413 29.519886
8.594954 26.843704000000002 29.492685
7.5 24.850851 29.50369
14.624879 29.499879 29.499879
13.539356999999999 27.502413 29.519886
8.594954 32.793704 29.492685
7.5 30.800851 29.50369
14.624879 29.499879 23.549879
13.539356999999999 27.502413 23.569886
8.594954 32.793704 23.542685
7.5 30.800851 23.55369
14.624879 29.499879 17.599879
13.539356999999999 27.502413 17.619886
8.594954 32.793704 17.592685
7.5 30.800851 17.60369
14.624879 17.599879 17.599879
13.539356999999999 15.602413 17.619886
8.594954 20.893704 17.592685
7.5 18.900851 17.60369
32.474879 29.499879 23.549879
33.560401 27.502413 23.529871999999997
38.504804 32.793704 23.557073000000003
39.599758 30.800851 23.546067999999998
32.474879 23.549879 29.499879
33.560401 21.552413 29.479872
38.504804 26.843704000000002 29.507073
39.599758 24.850851 29.496068
32.474879 23.549879 17.599879
33.560401 21.552413 17.579872
38.504804 26.843704000000002 17.607073
39.599758 24.850851 17.596068
32.474879 17.599879 23.549879
33.560401 15.602413 23.529871999999997
38.504804 20.893704 23.557073000000003
39.599758 18.900851 23.546067999999998
32.474879 29.499879 17.599879
33.560401 27.502413 17.579872
38.504804 32.793704 17.607073
39.599758 30.800851 17.596068
32.474879 17.599879 29.499879
33.560401 15.602413 29.479872