3_train/207_cspbbr3_MA-2-Fur_3_0.60\207_cspbbr3_MA-2-Fur_3_0.60.xyz
1.0
42.08963 0 0
0 42.08963 0
0 0 42.08963
Br C Cs H N O Pb 
72 208 26 276 28 108 27 
Cartesian
15.094814999999999 15.094814999999999 12.119815
15.094814999999999 12.119815 15.094814999999999
15.094814999999999 15.094814999999999 18.069815
15.094814999999999 12.119815 21.044815
12.119815 15.094814999999999 21.044815
15.094814999999999 15.094814999999999 24.019814999999998
12.119815 15.094814999999999 26.994815
15.094814999999999 18.069815 15.094814999999999
15.094814999999999 21.044815 18.069815
15.094814999999999 18.069815 21.044815
12.119815 21.044815 21.044815
15.094814999999999 21.044815 24.019814999999998
15.094814999999999 18.069815 26.994815
15.094814999999999 24.019814999999998 15.094814999999999
15.094814999999999 26.994815 18.069815
15.094814999999999 24.019814999999998 21.044815
15.094814999999999 26.994815 24.019814999999998
15.094814999999999 24.019814999999998 26.994815
15.094814999999999 26.994815 29.969815
15.094814999999999 29.969815 15.094814999999999
15.094814999999999 29.969815 26.994815
18.069815 15.094814999999999 15.094814999999999
21.044815 15.094814999999999 18.069815
18.069815 15.094814999999999 21.044815
21.044815 15.094814999999999 24.019814999999998
18.069815 15.094814999999999 26.994815
21.044815 21.044815 12.119815
21.044815 18.069815 15.094814999999999
18.069815 21.044815 15.094814999999999
21.044815 21.044815 18.069815
21.044815 18.069815 21.044815
18.069815 21.044815 21.044815
21.044815 21.044815 24.019814999999998
21.044815 18.069815 26.994815
18.069815 21.044815 26.994815
21.044815 26.994815 12.119815
21.044815 24.019814999999998 15.094814999999999
18.069815 26.994815 15.094814999999999
21.044815 26.994815 18.069815
21.044815 24.019814999999998 21.044815
18.069815 26.994815 21.044815
21.044815 26.994815 24.019814999999998
21.044815 24.019814999999998 26.994815
18.069815 26.994815 26.994815
21.044815 26.994815 29.969815
24.019814999999998 15.094814999999999 15.094814999999999
26.994815 15.094814999999999 18.069815
26.994815 12.119815 21.044815
24.019814999999998 15.094814999999999 21.044815
26.994815 15.094814999999999 24.019814999999998
24.019814999999998 15.094814999999999 26.994815
26.994815 15.094814999999999 29.969815
26.994815 18.069815 15.094814999999999
24.019814999999998 21.044815 15.094814999999999
26.994815 21.044815 18.069815
26.994815 18.069815 21.044815
24.019814999999998 21.044815 21.044815
26.994815 21.044815 24.019814999999998
26.994815 18.069815 26.994815
24.019814999999998 21.044815 26.994815
26.994815 24.019814999999998 15.094814999999999
24.019814999999998 26.994815 15.094814999999999
26.994815 26.994815 18.069815
26.994815 24.019814999999998 21.044815
24.019814999999998 26.994815 21.044815
26.994815 26.994815 24.019814999999998
26.994815 24.019814999999998 26.994815
24.019814999999998 26.994815 26.994815
26.994815 29.969815 26.994815
29.969815 15.094814999999999 15.094814999999999
29.969815 21.044815 15.094814999999999
29.969815 26.994815 21.044815
21.301643 20.728615 33.620101
21.695131 20.254638999999997 32.337889000000004
21.044815 21.044815 31.418271
20.442129 21.773360999999998 33.394586000000004
21.044815 21.044815 29.969815
27.141116999999998 27.374996999999997 33.620101
27.356182 27.952260999999996 32.337889000000004
26.994815 26.994815 31.418271
26.663172 26.109365 33.394586000000004
26.994815 26.994815 29.969815
27.231916 20.713565999999997 33.620101
27.595819 20.216513 32.337889000000004
26.994815 21.044815 31.418271
26.437602 21.808701 33.394586000000004
26.994815 21.044815 29.969815
21.45214 15.100164 33.620101
22.067989999999998 15.114857999999998 32.337889000000004
21.044815 15.094814999999999 31.418271
20.099525999999997 15.073910999999999 33.394586000000004
21.044815 15.094814999999999 29.969815
15.307108 21.392484 33.620101
15.622489999999999 21.921654999999998 32.337889000000004
15.094814999999999 21.044815 31.418271
14.609328 20.233451 33.394586000000004
15.094814999999999 21.044815 29.969815
15.436437 14.872921999999999 33.620101
15.956619 14.542924999999999 32.337889000000004
15.094814999999999 15.094814999999999 31.418271
14.297286 15.602709999999998 33.394586000000004
15.094814999999999 15.094814999999999 29.969815
14.705331 21.164165999999998 8.469529
14.118307999999999 21.350959 9.751740999999999
15.094814999999999 21.044815 10.671358999999999
15.996319 20.759683999999996 8.695044
15.094814999999999 21.044815 12.119815
27.279067 15.386609 8.469529
27.713629 15.823234999999999 9.751740999999999
26.994815 15.094814999999999 10.671358999999999
26.328987 14.423487 8.695044
26.994815 15.094814999999999 12.119815
26.609236 20.913393 8.469529
26.024053 20.720916 9.751740999999999
26.994815 21.044815 10.671358999999999
27.892481 21.341809 8.695044
26.994815 21.044815 12.119815
15.031082 27.397159 8.469529
14.941230999999998 28.006596 9.751740999999999
15.094814999999999 26.994815 10.671358999999999
15.234354999999999 26.059648 8.695044
15.094814999999999 26.994815 12.119815
26.741480999999997 26.67581 8.469529
26.353227999999998 26.197535 9.751740999999999
26.994815 26.994815 10.671358999999999
27.589451999999998 27.729944999999997 8.695044
26.994815 26.994815 12.119815
21.15185 15.487862 8.469529
21.320077 16.080472 9.751740999999999
21.044815 15.094814999999999 10.671358999999999
20.788194999999998 14.184785 8.695044
21.044815 15.094814999999999 12.119815
8.469529 21.362211 26.739468
9.751740999999999 21.838021 26.348198
10.671358999999999 21.044815 26.994815
8.695044 20.313460999999997 27.594089999999998
12.119815 21.044815 26.994815
8.469529 14.812745 15.388717999999999
9.751740999999999 14.390979 15.837717999999999
10.671358999999999 15.094814999999999 15.094814999999999
8.695044 15.743372999999998 14.406787999999999
12.119815 15.094814999999999 15.094814999999999
8.469529 27.124185 27.381086999999997
9.751740999999999 27.326075999999997 27.963089999999998
10.671358999999999 26.994815 26.994815
8.695044 26.686497 26.100975
12.119815 26.994815 26.994815
8.469529 26.790049999999997 14.742659
9.751740999999999 26.474703 14.213467999999999
10.671358999999999 26.994815 15.094814999999999
8.695044 27.477414 15.9079
12.119815 26.994815 15.094814999999999
8.469529 26.826973 21.415991
9.751740999999999 26.57919 21.979986
10.671358999999999 26.994815 21.044815
8.695044 27.37664 20.179819
12.119815 26.994815 21.044815
8.469529 20.770965999999998 14.793237
9.751740999999999 20.351976 14.341645999999999
10.671358999999999 21.044815 15.094814999999999
8.695044 21.686702 15.789069999999999
12.119815 21.044815 15.094814999999999
33.620101 14.814998999999998 20.748765
32.337889000000004 14.396674999999998 20.296557
31.418271 15.094814999999999 21.044815
33.394586000000004 15.738097999999999 21.737776999999998
29.969815 15.094814999999999 21.044815
33.620101 14.955364999999999 27.377563
32.337889000000004 14.738288999999998 27.954074
31.418271 15.094814999999999 26.994815
33.394586000000004 15.426454999999999 26.109364
29.969815 15.094814999999999 26.994815
33.620101 26.698032 15.373852999999999
32.337889000000004 26.244726 15.790987
31.418271 26.994815 15.094814999999999
33.394586000000004 27.689463999999997 14.453354
29.969815 26.994815 15.094814999999999
33.620101 21.006103 26.589298
32.337889000000004 20.954139 25.975468
31.418271 21.044815 26.994815
33.394586000000004 21.126215 27.936825
29.969815 21.044815 26.994815
33.620101 20.709968999999997 20.812822
32.337889000000004 20.207394999999998 20.456583
31.418271 21.044815 21.044815
33.394586000000004 21.817156 21.590248999999996
29.969815 21.044815 21.044815
33.620101 26.670305 27.241059
32.337889000000004 26.175605 27.608154
31.418271 26.994815 26.994815
33.394586000000004 27.753133 26.430047
29.969815 26.994815 26.994815
26.68338 8.469529 26.732229999999998
26.216702 9.751740999999999 26.330112
26.994815 10.671358999999999 26.994815
27.712182 8.695044 27.610764999999997
26.994815 12.119815 26.994815
26.589767 8.469529 15.138155999999999
25.97657 9.751740999999999 15.197125999999999
26.994815 10.671358999999999 15.094814999999999
27.935834 8.695044 15.002661999999999
26.994815 12.119815 15.094814999999999
21.347362999999998 8.469529 27.267591999999997
21.800436 9.751740999999999 27.684979
21.044815 10.671358999999999 26.994815
20.348287999999997 8.695044 26.355394
21.044815 12.119815 26.994815
21.091126 8.469529 15.499533999999999
21.154593 9.751740999999999 16.112282
21.044815 10.671358999999999 15.094814999999999
20.945761 8.695044 14.154497
21.044815 12.119815 15.094814999999999
20.640983 8.469529 20.991311999999997
20.031197 9.751740999999999 20.903859
21.044815 10.671358999999999 21.044815
21.980991999999997 8.695044 21.177411
21.044815 12.119815 21.044815
14.688785999999999 8.469529 26.961907
14.075342999999998 9.751740999999999 26.905562
15.094814999999999 10.671358999999999 26.994815
16.036521999999998 8.695044 27.079656
15.094814999999999 12.119815 26.994815
21.367752 33.620101 14.846511999999999
21.852054 32.337889000000004 14.465803999999999
21.044815 31.418271 15.094814999999999
20.300454 33.394586000000004 15.677855999999998
21.044815 29.969815 15.094814999999999
14.746524999999998 33.620101 20.833541999999998
14.216432 32.337889000000004 20.519713
15.094814999999999 31.418271 21.044815
15.907599 33.394586000000004 21.527921
15.094814999999999 29.969815 21.044815
20.895574 33.620101 27.373853
20.676045 32.337889000000004 27.949434
21.044815 31.418271 26.994815
21.383304 33.394586000000004 26.111959
21.044815 29.969815 26.994815
20.894036 33.620101 21.423244
20.672172999999997 32.337889000000004 21.997929
21.044815 31.418271 21.044815
21.386885 33.394586000000004 20.163341
21.044815 29.969815 21.044815
26.832482 33.620101 15.468433
26.59307 32.337889000000004 16.036032
26.994815 31.418271 15.094814999999999
27.363802 33.394586000000004 14.224264999999999
26.994815 29.969815 15.094814999999999
26.766278 33.620101 20.707601
26.415226999999998 32.337889000000004 20.201389
26.994815 31.418271 21.044815
27.532276999999997 33.394586000000004 21.822725
26.994815 29.969815 21.044815
24.019814999999998 11.076365 11.076365
31.013265 31.013265 24.019814999999998
31.013265 11.076365 24.019814999999998
10.644154 24.019814999999998 18.069815
24.019814999999998 10.644154 18.069815
31.445476 18.069815 24.019814999999998
11.076365 11.076365 18.069815
10.644154 18.069815 24.019814999999998
31.013265 24.019814999999998 11.076365
31.013265 11.076365 18.069815
31.445476 24.019814999999998 24.019814999999998
11.076365 18.069815 11.076365
10.644154 18.069815 18.069815
31.445476 18.069815 18.069815
18.069815 11.076365 11.076365
31.013265 24.019814999999998 31.013265
24.019814999999998 24.019814999999998 31.445476
24.019814999999998 18.069815 10.644154
18.069815 10.644154 18.069815
11.076365 24.019814999999998 31.013265
24.019814999999998 31.013265 31.013265
18.069815 31.445476 18.069815
24.019814999999998 31.013265 11.076365
24.019814999999998 24.019814999999998 10.644154
31.013265 31.013265 18.069815
24.019814999999998 18.069815 31.445476
18.069815 18.069815 10.644154
24.019814999999998 31.445476 18.069815
12.119815 12.119815 24.019814999999998
12.119815 18.069815 29.969815
12.119815 24.019814999999998 12.119815
12.119815 24.019814999999998 24.019814999999998
12.119815 29.969815 18.069815
12.119815 29.969815 24.019814999999998
18.069815 12.119815 24.019814999999998
18.069815 18.069815 18.069815
18.069815 18.069815 24.019814999999998
18.069815 18.069815 29.969815
18.069815 24.019814999999998 12.119815
18.069815 24.019814999999998 18.069815
18.069815 24.019814999999998 24.019814999999998
18.069815 24.019814999999998 29.969815
18.069815 29.969815 12.119815
18.069815 29.969815 29.969815
24.019814999999998 12.119815 24.019814999999998
24.019814999999998 12.119815 29.969815
24.019814999999998 18.069815 18.069815
24.019814999999998 18.069815 24.019814999999998
24.019814999999998 24.019814999999998 18.069815
24.019814999999998 24.019814999999998 24.019814999999998
24.019814999999998 29.969815 24.019814999999998
29.969815 18.069815 12.119815
29.969815 18.069815 29.969815
29.969815 24.019814999999998 18.069815
19.893098 22.444172 34.048206
21.60898 20.348855999999998 34.58963
22.37031 19.436201999999998 32.105501000000004
26.354876 25.299194 34.048206
27.317382 27.830631999999998 34.58963
27.729674999999997 28.945341 32.105501000000004
25.930428 22.511694 34.048206
27.515562999999997 20.315801 34.58963
28.219917 19.358489 32.105501000000004
19.232802 15.059286 34.048206
21.940651 15.105713999999999 34.58963
23.128753999999997 15.136875 32.105501000000004
14.160345999999999 19.49194 34.048206
15.562448 21.808988 34.58963
16.168503 22.831366999999997 32.105501000000004
13.568565999999999 16.072167999999998 34.048206
15.845668 14.606081999999999 34.58963
16.850772 13.971789 32.105501000000004
16.82417 20.502611 8.041424
14.237974999999999 21.306475 7.499999999999999
13.106273999999999 21.669538 9.984129
25.721791999999997 13.804827999999999 8.041424
27.619345 15.737155999999999 7.499999999999999
28.459749 16.577562999999998 9.984129
28.714017 21.618399 8.041424
26.147097 20.754960999999998 7.499999999999999
25.017213 20.386284 9.984129
15.366774 25.202975 8.041424
14.953792 27.879548 7.499999999999999
14.783224999999998 29.055758 9.984129
28.131073 28.406754 8.041424
26.438337999999998 26.292694 7.499999999999999
25.687092 25.371722 9.984129
20.557302 13.349253999999998 8.041424
21.279380999999997 15.959464999999998 7.499999999999999
21.60665 17.102031 9.984129
8.041424 19.640090999999998 28.139981
7.499999999999999 21.743402 26.433908
9.984129 22.659603999999998 25.676851
8.041424 16.341262999999998 13.779133
7.499999999999999 14.473838999999998 15.740592
9.984129 13.662168 16.608781999999998
8.041424 26.40813 25.28004
7.499999999999999 27.278516 27.844612
9.984129 27.670685 28.966559
8.041424 27.915946 16.655639
7.499999999999999 26.545226 14.319889
9.984129 25.934406 13.300349999999998
8.041424 27.730845 19.388641
7.499999999999999 26.624894 21.86078
9.984129 26.149416 22.950038
8.041424 22.271838 16.428632
7.499999999999999 20.443185 14.430976999999999
9.984129 19.632756 13.561627999999999
34.048206 16.331176 22.369981
34.58963 14.47879 20.394312
32.105501000000004 13.673775999999998 19.519948
34.048206 15.726244 25.296006
34.58963 14.788937999999998 27.836882999999997
32.105501000000004 14.367496 28.948166
34.048206 28.323224 13.861939
34.58963 26.342696999999998 15.709128999999999
32.105501000000004 25.466221 16.511845
34.048206 21.205364999999997 28.800051
34.58963 20.958814 26.10305
32.105501000000004 20.861363 24.918539999999997
34.048206 22.527843 22.086584
34.58963 20.307901 20.535307
32.105501000000004 19.339900999999998 19.845715
34.048206 28.445632 25.908637
34.58963 26.281648999999998 27.537065
32.105501000000004 25.325537999999998 28.243049
28.372808 8.041424 28.17201
26.309323 7.499999999999999 26.417978
25.410788999999998 9.984129 25.640033
28.798099999999998 8.041424 14.913658999999999
26.104091 7.499999999999999 15.190995
24.92077 9.984129 15.301966
19.706654 8.041424 25.772530999999997
21.710783 7.499999999999999 27.594087
22.583001 9.984129 28.401426999999998
20.850434 8.041424 13.292907999999999
21.147527 7.499999999999999 15.98481
21.267177 9.984129 17.167284
22.839898 8.041424 21.294476
20.156561 7.499999999999999 20.928005
18.980488 9.984129 20.756496
16.900267 8.041424 27.152913
14.201771999999998 7.499999999999999 26.923303999999998
13.018502 9.984129 26.811795
19.615239 34.048206 16.208801
21.755573 34.58963 14.549411999999998
22.688207 32.105501000000004 13.812693999999999
16.650423 34.048206 21.974726999999998
14.329273999999998 34.58963 20.579425
13.305122999999998 32.105501000000004 19.97637
21.697864999999997 34.048206 25.304199999999998
20.715785 34.58963 27.82811
20.294873 32.105501000000004 28.939591999999998
21.704722 34.048206 19.356865
20.712405999999998 34.58963 21.876766999999997
20.286985 32.105501000000004 22.986532
27.706263 34.048206 13.427933
26.637005 34.58963 15.916163
26.177694 32.105501000000004 17.012335999999998
28.021275999999997 34.048206 22.538479
26.492912999999998 34.58963 20.3027
25.813312999999997 32.105501000000004 19.327658999999997
23.87067 10.112964999999999 11.567529999999998
23.203652 11.295220999999998 10.385273999999999
24.985122999999998 11.112556 10.567937999999998
24.157268 13.055064999999999 11.71453
24.771995 11.965491 12.804103999999999
23.130182 12.133837 12.635758999999998
31.16133 31.337435 25.051619
31.925257 30.573508 23.611755
30.661561 31.837205 23.396072
29.785981 29.623683 23.068899
29.081943 30.327721 24.395886
30.246572 29.163092 24.59466
31.72411 11.314974999999999 24.813157999999998
30.526198 10.117062999999998 24.204564
31.49784 11.088705 23.041724
29.267321 11.947287 23.288666
30.371323 13.051288999999999 23.849549999999997
29.475852 12.155818 24.921229
10.310233 24.540739 17.170502
10.310233 22.980524999999997 18.068337999999997
10.310233 24.538180999999998 18.970603999999998
12.494557 23.539728999999998 18.898626
12.494557 24.97763 18.071176
12.494557 23.542086 17.239643
23.100116 10.310233 17.585791
24.898841 10.310233 17.515344
24.060487 10.310233 19.108309
24.867414 12.494557 18.515894
23.2097 12.494557 18.580818
23.982331 12.494557 17.112733
31.779397 19.002637 24.478038
31.779397 17.206571 24.598550999999997
31.779397 18.000237 22.982856
29.595073 17.210122 23.597514
29.595073 18.865385 23.486448999999997
29.595073 18.133938 24.975482
10.903956999999998 10.776537999999999 19.105193
10.174356 11.506139 17.630153999999997
11.442429999999998 10.238064999999999 17.474099
12.326082999999999 12.443511999999998 17.115605
12.998486999999999 11.771109 18.475009
11.829823 12.939772 18.61883
10.310233 19.012508999999998 24.457368
10.310233 17.9774 22.984641
10.310233 17.219535999999998 24.617436
12.494557 17.201023 23.616564999999998
12.494557 18.154986 24.973836
12.494557 18.853436 23.469044
30.933263 24.958038 10.524128
31.981984 23.937869 11.572848999999998
30.8329 23.163538 10.423765
29.996169 23.155144 12.676134999999999
29.029663 24.095336999999997 11.709627999999999
30.088665 24.808964 12.76863
31.163632 10.754496999999999 19.102006
30.660172 10.251037 17.448697
31.924343 11.515208 17.658742
29.783860999999998 12.463826 17.118541999999998
30.247851 12.927817 18.642241
29.082784999999998 11.762749999999999 18.448662
31.779397 24.43807 23.068402
31.779397 24.634635999999997 24.857741
31.779397 22.986738999999996 24.133301999999997
29.595073 23.634348 24.896642
29.595073 23.453193 23.247578
29.595073 24.971903 23.915225
10.110881 17.942641 11.569613999999998
11.127053 19.02669 10.553441999999999
11.282808 17.240114 10.397687
13.056985999999998 18.187018 11.712608999999999
12.120476 17.187953999999998 12.64912
11.976931999999998 18.834471999999998 12.792663999999998
10.310233 17.030775 18.046973
10.310233 18.569553 18.981071
10.310233 18.609116 17.181401
12.494557 19.027399 18.090866
12.494557 17.609254 17.229996999999997
12.494557 17.572792 18.888582
31.779397 17.561791999999997 18.976478
31.779397 17.538632999999997 17.176523
31.779397 19.109019 18.056445
29.595073 18.538012 17.23423
29.595073 18.559354 18.893078
29.595073 17.112078999999998 18.082137
19.086154 10.686656 10.993839
17.373535 10.294666 11.385829
17.749757 11.539420999999999 10.141074
17.133152 12.526349 12.243246
18.711509999999997 12.887609 11.881986999999999
18.364781999999998 11.740435999999999 13.02916
30.577406 23.599076999999998 31.921359
31.843018999999998 23.407185 30.655746
31.327721999999998 25.053183999999998 31.171042999999997
30.324129 24.40757 29.085535999999998
29.157733 24.584418 30.251931
29.632634 23.067457 29.77703
23.046812 23.654588 31.779397
24.822612 23.359782999999997 31.779397
24.190020999999998 25.045073 31.779397
24.916538999999997 24.35641 29.595073
23.279953 24.628103 29.595073
23.862953 23.074931 29.595073
23.529003999999997 17.15372 10.310233
23.471859 18.952917 10.310233
25.058581999999998 18.102808 10.310233
24.472148999999998 18.914093 12.494557
24.524814 17.255943 12.494557
23.062482 18.039409 12.494557
17.032028 10.310233 18.125693
18.540316999999998 10.310233 17.143126
18.6371 10.310233 18.940625999999998
19.026245 12.494557 18.018318
17.636198 12.494557 18.923856999999998
17.547002 12.494557 17.267271
11.325185999999999 23.238921 31.734320999999998
11.075975999999999 25.004186999999998 31.485111
10.119581 23.816336 30.528716
11.937876 24.73949 29.257911
12.167549 23.112612 29.487584
13.048967999999999 24.207342999999998 30.369002
23.280756 31.766063 30.732702
23.756542999999997 30.538463 31.960302
25.022146 31.443621999999998 31.055144
24.700936 29.228657 30.181008
24.262448 30.360018999999998 29.049644999999998
23.096062 29.52582 29.883844
19.035809 31.779397 18.453197
17.918836 31.779397 17.041549
17.2548 31.779397 18.714699
17.17955 29.595073 17.716489
18.208958 29.595073 19.01747
18.820937 29.595073 17.475486
23.348887 30.688142 10.279007
23.667903 31.94086 11.531724999999998
25.042655 31.119145 10.710009999999999
24.638146 30.222074 12.902038999999998
24.344139 29.067563 11.747527999999999
23.077161 29.824859999999997 12.504826
25.057306 23.958688 10.310233
23.448131999999998 23.151884999999996 10.310233
23.554007 24.948873 10.310233
23.063658 24.076151 12.494557
24.546682 24.819703999999998 12.494557
24.449105999999997 23.163591 12.494557
31.914481 30.584284 17.627758999999998
30.64613 31.852635 17.476267999999997
31.187537 31.311228 19.105418999999998
29.091874999999998 30.31779 18.477217
30.260793 29.148872 18.616830999999998
29.761829 29.647835 17.115396999999998
24.186747999999998 17.044018 31.779397
24.824715 18.727280999999998 31.779397
23.047983 18.438145 31.779397
23.865969 19.015194 29.595073
23.278015999999997 17.463891 29.595073
24.915460999999997 17.730359999999997 29.595073
17.402298 18.866399 10.310233
19.093435999999997 18.249609 10.310233
17.713711 17.093436999999998 10.310233
18.685001999999997 17.335679 12.494557
17.126441 17.904116 12.494557
18.398003 18.969649999999998 12.494557
24.627295 31.779397 18.913078
24.446361999999997 31.779397 17.12209
22.985788 31.779397 18.174277
23.459957999999997 29.595073 17.292659999999998
23.626707 29.595073 18.943243
24.972779999999997 29.595073 17.973542
24.019814999999998 12.119815 12.119815
29.969815 29.969815 24.019814999999998
29.969815 12.119815 24.019814999999998
12.119815 24.019814999999998 18.069815
24.019814999999998 12.119815 18.069815
29.969815 18.069815 24.019814999999998
12.119815 12.119815 18.069815
12.119815 18.069815 24.019814999999998
29.969815 24.019814999999998 12.119815
29.969815 12.119815 18.069815
29.969815 24.019814999999998 24.019814999999998
12.119815 18.069815 12.119815
12.119815 18.069815 18.069815
29.969815 18.069815 18.069815
18.069815 12.119815 12.119815
29.969815 24.019814999999998 29.969815
24.019814999999998 24.019814999999998 29.969815
24.019814999999998 18.069815 12.119815
18.069815 12.119815 18.069815
12.119815 24.019814999999998 29.969815
24.019814999999998 29.969815 29.969815
18.069815 29.969815 18.069815
24.019814999999998 29.969815 12.119815
24.019814999999998 24.019814999999998 12.119815
29.969815 29.969815 18.069815
24.019814999999998 18.069815 29.969815
18.069815 18.069815 12.119815
24.019814999999998 29.969815 18.069815
20.270237 21.983042 32.061344
21.701556999999998 20.202685 29.269219
20.402332 21.868585999999997 29.236599
26.566944 25.855883 32.061344
27.398034999999997 27.983706 29.269219
26.600415 26.027431 29.236599
26.278794 22.028457999999997 32.061344
27.599068999999997 20.164265 29.269219
26.403675 21.906173 29.236599
19.828435 15.069122 32.061344
22.112728999999998 15.087675999999998 29.269219
20.000145 15.101752999999999 29.236599
14.469078999999999 20.00141 32.061344
15.669315999999998 21.94506 29.269219
14.532858 20.164141 29.236599
14.069241 15.749367 32.061344
15.978710999999999 14.495465 29.269219
14.230132999999999 15.681080999999999 29.236599
16.255191 20.679072 10.028286
14.067741999999999 21.337411999999997 12.820411
16.099519 20.758542 12.853031
26.138915 14.230132999999999 10.028286
27.724706 15.874398999999999 12.820411
26.280778 14.332232 12.853031
28.149509 21.428118 10.028286
25.991006 20.680316 12.820411
27.976789999999998 21.401335999999997 12.853031
15.275561 25.791665 10.028286
14.906863 28.046083999999997 12.820411
15.278630999999999 25.966421 12.853031
27.759027999999997 27.941504 10.028286
26.347374 26.145514 12.820411
27.6282 27.825602 12.853031
20.71577 13.923504 10.028286
21.304945999999997 16.130587 12.820411
20.790302 14.081598999999999 12.853031
10.028286 20.102978999999998 27.764999999999997
12.820411 21.890004 26.342015
12.853031 20.218051 27.633442
10.028286 15.930226 14.210322
12.820411 14.340216999999999 15.850508999999999
12.853031 15.832956 14.355536999999998
10.028286 26.599227 25.844272
12.820411 27.313838999999998 28.013989
12.853031 26.682691 25.997839
10.028286 27.614763 16.141669999999998
12.820411 26.476401 14.161145999999999
12.853031 27.501986 16.008139
10.028286 27.487233 19.932266
12.820411 26.535604 22.008982
12.853031 27.443989 20.101615
10.028286 21.869879 15.988968
12.820411 20.342699 14.290125
12.853031 21.731683 15.881958999999998
32.061344 15.923445 21.935664999999997
29.269219 14.346011999999998 20.283378
29.236599 15.827285999999999 21.78971
32.061344 15.520425 25.855036
29.269219 14.749185999999998 28.005277
29.236599 15.432963999999998 26.006362999999997
32.061344 27.887838 14.268528
29.269219 26.231415 15.841615999999998
29.236599 27.741631 14.364301999999999
32.061344 21.150758 28.206844999999998
29.269219 20.922279999999997 25.93393
29.236599 21.164637 28.032614
32.061344 22.039322 21.745669
29.269219 20.155102999999997 20.454134
29.236599 21.915136 21.622677
32.061344 27.969862 26.267132
29.269219 26.157037999999996 27.6571
29.236599 27.814384999999998 26.346982
27.918674 10.028286 27.786474
26.164875 12.820411 26.322734999999998
27.806661 12.853031 27.652302
28.205555999999998 10.028286 14.975036999999999
25.935398 12.820411 15.229457
28.031177 12.853031 14.963149999999999
20.147742 10.028286 26.172926999999998
21.851989999999997 12.820411 27.694072
20.25524 12.853031 26.310743
20.916158 10.028286 13.884984999999999
21.187226 12.820411 16.153215
20.90555 12.853031 14.059446
22.249612 10.028286 21.214239
19.983556 12.820411 20.925558
22.082967999999997 12.853031 21.161522
16.306666 10.028286 27.102783
14.028866999999998 12.820411 26.929654
16.137558 12.853031 27.058604
20.086264 32.061344 15.844093999999998
21.904161 29.269219 14.460766999999999
20.204202 29.236599 15.715098999999999
16.14005 32.061344 21.667489
14.192889999999998 29.269219 20.472956
15.977132999999998 29.236599 21.604187999999997
21.481492999999997 32.061344 25.85923
20.63395 29.269219 27.980554
21.446695 29.236599 26.030514
21.486099 32.061344 19.911012
20.629952 29.269219 22.028878
21.450605999999997 29.236599 20.082154
27.470719999999996 32.061344 13.975102999999999
26.549918 29.269219 16.065669
27.429986 29.236599 14.145074
27.685404 32.061344 22.046477
26.413316 29.269219 20.149075
27.563695999999997 29.236599 21.921032999999998
15.094814999999999 15.094814999999999 15.094814999999999
15.094814999999999 15.094814999999999 21.044815
15.094814999999999 15.094814999999999 26.994815
15.094814999999999 21.044815 15.094814999999999
15.094814999999999 21.044815 21.044815
15.094814999999999 21.044815 26.994815
15.094814999999999 26.994815 15.094814999999999
15.094814999999999 26.994815 21.044815
15.094814999999999 26.994815 26.994815
21.044815 15.094814999999999 15.094814999999999
21.044815 15.094814999999999 21.044815
21.044815 15.094814999999999 26.994815
21.044815 21.044815 15.094814999999999
21.044815 21.044815 21.044815
21.044815 21.044815 26.994815
21.044815 26.994815 15.094814999999999
21.044815 26.994815 21.044815
21.044815 26.994815 26.994815
26.994815 15.094814999999999 15.094814999999999
26.994815 15.094814999999999 21.044815
26.994815 15.094814999999999 26.994815
26.994815 21.044815 15.094814999999999
26.994815 21.044815 21.044815
26.994815 21.044815 26.994815
26.994815 26.994815 15.094814999999999
26.994815 26.994815 21.044815
26.994815 26.994815 26.994815
