1_train/27_cspbbr3_methylammonium_3_0.40\27_cspbbr3_methylammonium_3_0.40.xyz
1.0
41.906369 0 0
0 41.906369 0
0 0 41.906369
Br C Cs H N Pb 
108 19 35 114 19 27 
Cartesian
27.1110155 14.8773015 18.0445025
29.7971785 14.7923525 20.9957335
24.0021705 14.8209515 14.8628215
26.710454500000004 11.9569485 15.0235355
30.1042895 15.0835065 27.0204465
26.7944385 15.1283125 12.2562265
29.8062805 21.0962855 14.7596585
21.174760499999998 29.7503905 26.822162499999997
21.0843475 29.691998499999997 20.8869245
20.899013500000002 29.6798895 15.1253975
20.967029500000002 26.9980355 29.645838500000004
26.818690500000002 23.8661235 20.7957775
21.0797605 23.7905965 26.8510135
20.9448115 26.8181935 23.644797500000003
29.995245500000003 20.8616435 27.1042225
29.763746500000003 27.026073500000003 14.9119825
17.8571455 26.8067645 21.0482855
21.081025500000003 23.754979499999997 20.773466499999998
21.1830505 26.7402825 17.910405500000003
29.9936705 26.969804500000002 21.1816835
29.7572465 26.7698185 27.040527500000003
17.7580625 26.762671500000003 14.960060499999999
20.8075265 23.7107435 15.1299375
18.117569500000002 26.7683825 26.995076500000003
26.8143465 11.9588735 20.7165605
29.724140499999997 15.0534895 14.8228665
23.709365500000004 26.7428765 21.0415385
26.7468115 26.6581475 17.988569499999997
24.046096500000004 26.759690499999998 15.1531435
26.886892500000002 24.173049499999998 15.0584205
26.777997499999998 26.954645499999998 12.1909795
26.861582500000004 26.991972500000003 23.645712500000002
26.9098555 24.105748500000004 27.0059125
26.6734085 20.982735500000004 29.784206500000003
23.985927500000003 20.991321499999998 27.151593500000004
27.099607499999998 18.084824500000003 27.086895500000004
23.8765765 26.767832500000004 27.0331275
26.8028835 21.0723985 23.718661500000003
23.754909500000004 21.036361499999998 21.143620500000004
26.963392499999998 17.701733500000003 20.892987500000004
26.8707285 27.0512565 29.734297499999997
20.7125245 26.784285500000003 12.1554525
26.903400500000004 29.679323500000002 14.9177225
23.6623845 21.020312500000003 15.091668499999999
26.9825145 18.095839500000004 15.1333505
27.0510065 21.128905500000002 12.1517725
26.845617500000003 30.042683500000003 20.7285105
26.8238385 14.9709135 29.6461685
23.7442875 15.1460455 26.864163500000004
26.9127825 12.1304175 27.053222500000004
26.9343225 29.9617905 27.1121195
26.9094785 15.1557525 23.791047499999998
24.069694500000004 14.9384295 20.8195245
27.0460395 20.7863835 18.0374245
29.782227499999998 20.8087455 20.711222499999998
18.086555500000003 20.942328500000002 26.731528500000003
12.1045735 20.877877500000004 15.2639385
11.8656865 15.1292435 21.0672135
15.074856500000001 14.9452555 23.747184500000003
14.9525095 29.7219155 21.068219499999998
14.8307385 30.0252815 14.9401455
15.048809499999999 27.0102355 29.707528500000002
14.9449325 12.1127475 27.1220145
12.2349275 26.8323355 26.7506055
15.000714499999999 23.6473005 26.8157755
15.065215499999999 27.0764195 23.9376715
12.2866575 14.8561145 26.9213065
11.9270015 26.820269500000002 20.7184455
20.7884515 15.1017185 11.9653265
15.1232395 23.7046165 20.8356905
12.1683955 26.757116500000002 14.8719415
14.9620935 24.139740500000002 15.157664500000001
14.9802255 26.8305735 12.284430500000001
15.0873615 21.2035895 29.7511535
11.9160735 21.101510500000003 26.7729135
14.8243425 18.138904500000002 26.736262500000002
14.9030705 20.760346500000004 23.832877500000002
15.1164395 15.1981505 29.698286500000002
12.2885775 20.881797499999998 20.9829705
15.1854125 17.8512505 20.9010525
15.1849135 20.9057655 17.9606085
14.8538485 20.8720705 11.875543500000001
14.7847305 26.973839500000004 18.0692405
20.811890500000004 11.8828365 14.8627385
14.8550925 29.991502500000003 26.8175035
18.137601500000002 14.8457965 14.8141325
20.8108425 17.9293625 27.108563500000002
21.026301500000002 20.7029145 29.831686500000004
20.8532655 20.881477500000003 24.1648245
17.8206165 21.086135499999997 21.1622955
21.0002275 17.787881499999997 21.0471795
15.1920905 15.0437895 12.0217815
21.085876499999998 20.7252255 18.021663500000003
17.8684595 21.084329500000003 15.1379295
20.7594025 17.9572735 14.9014775
20.8666185 21.034772500000003 11.8836785
15.0495575 11.9303195 14.8327885
14.864772499999999 11.8972865 20.8704495
21.020332500000002 14.8812765 29.998813499999997
11.951285500000001 14.8780625 15.2125585
14.8373355 17.873445500000003 15.0690045
17.8452775 14.779443500000001 26.9044495
14.850317500000001 15.1301225 18.1376875
20.971106499999998 12.2689105 27.018131500000003
20.9325745 14.7273315 23.971984499999998
20.822695500000002 15.115562500000001 18.066615499999997
20.953830500000002 11.9043205 21.1082805
17.9569805 14.9364335 21.131502500000003
17.9208025 23.9607825 10.6299345
18.0718435 23.975717500000002 31.3547235
30.9819515 17.932931500000002 30.9288605
23.9885315 11.0186595 10.9470525
10.9004675 10.9666765 23.893662499999998
17.9962345 11.0562535 10.9611085
23.871117500000004 23.8987275 10.6188385
11.0669245 30.892419500000003 18.0090045
30.8553925 10.9784045 18.062565499999998
31.4240395 23.8683725 17.999796500000002
18.001779499999998 31.276402500000003 18.0171025
10.5123125 23.9972615 18.000553500000002
30.8658115 30.865274499999998 17.921805499999998
18.037968499999998 10.9375345 30.8518605
30.912476499999997 10.9950305 24.007315500000004
30.8717405 17.929402500000002 11.0112165
17.912803500000003 18.0375985 31.313925500000003
23.8933095 18.0305205 31.3917485
10.9725415 23.866569500000004 10.8979215
11.9903755 17.8060975 11.6765285
30.177654500000003 29.934273500000003 23.5634425
24.1271585 29.9916045 12.5763775
23.8232165 29.532545499999998 17.5357805
29.5632885 23.779850500000002 12.4910395
29.698755499999997 17.457998500000002 23.7712035
29.920278500000002 23.526314499999998 23.924372500000004
24.4866825 29.801444500000002 23.743827500000002
12.4922895 11.7232945 17.7857865
30.265026499999998 18.213911500000002 17.987520500000002
24.398802500000002 29.7313165 29.827591499999997
29.4016315 24.075458500000003 29.963747499999997
23.6793135 23.9209915 24.2527325
11.7234005 18.2006125 17.634738499999997
17.5689255 18.1797075 24.322280499999998
17.6327585 24.2910995 24.274894500000002
17.723107499999998 18.101747500000002 18.2446415
17.6187605 29.8386565 12.1197405
18.348063500000002 17.9932385 12.2309735
17.9450775 29.444939499999997 24.230667500000003
18.189307499999998 30.1543555 30.1126705
18.160450500000003 11.9326935 23.402471500000004
24.212591500000002 12.0269825 18.3024525
18.0345845 23.993106500000003 17.4493935
24.2868455 12.3658925 24.1709995
18.2383685 11.5993215 17.9045845
12.4231645 18.2220395 23.9520955
24.0820955 17.7377405 23.4737625
11.8858225 24.398511499999998 23.967997500000003
23.6547925 18.4525225 17.9161565
23.8586605 23.504329500000004 17.5611605
24.379690500000002 17.6217135 11.8609105
24.2411545 12.2654845 29.576862499999997
12.2737965 30.1502895 24.0052735
11.7542235 24.2370435 29.5545805
31.222038500000004 18.986534499999998 31.0427345
11.1030065 24.813877500000004 10.3869815
11.0860225 23.057415499999998 10.4051475
31.7186855 23.986363500000003 19.023014500000002
31.7029335 24.7950485 17.4392955
11.9824105 24.749711500000004 12.6487985
11.9296605 23.1247975 12.6747285
12.9588815 23.933688500000002 11.6251315
29.555518499999998 17.005052499999998 29.7125135
29.0933365 18.576992500000003 30.131100500000002
31.6780445 23.0163375 17.4751865
30.5196095 17.5934455 31.8436455
31.762390500000002 17.3192995 30.5464185
30.215624499999997 18.368562500000003 29.011269499999997
9.9925325 23.9594285 11.5087675
29.491406499999997 23.0885695 18.492549500000003
31.2346815 10.7879395 16.9617675
29.5291005 24.759161499999998 18.4036135
29.960179500000002 29.267751500000003 17.1481755
29.1968385 17.193112499999998 11.8736585
30.723583499999997 31.535362499999998 17.1069715
31.894667499999997 30.3906055 17.964375500000003
30.784707500000003 31.4692345 18.9004725
12.7363505 11.7984945 23.239090500000003
11.6539945 12.9264565 23.737975499999997
12.5205605 12.0920405 24.8181715
10.2500835 11.2173735 24.667365500000002
11.5070705 10.0423305 24.1713065
10.5684595 10.9442445 22.925616500000004
17.568118499999997 29.523458499999997 17.079179500000002
18.9576285 29.487787500000003 18.0820675
29.5407965 23.856936500000003 17.0065635
17.4327705 29.527522500000003 18.728975499999997
16.9351045 31.6508775 17.8659855
18.565045500000004 31.677716500000002 17.128989500000003
30.2016165 12.8906285 17.5027155
29.040004500000002 11.6955175 17.4344965
29.608827499999997 12.2422755 18.944877500000004
30.537954499999998 10.0918465 18.436592500000003
31.743376499999997 11.3857775 18.568698500000004
23.9631295 16.9924815 29.535881500000002
23.0534945 18.386829499999997 29.511585500000002
24.703630500000003 18.521742500000002 29.4900425
23.855397500000002 19.0027695 31.6611665
24.8220235 17.485834500000003 31.695434499999998
23.091373500000003 17.3901325 31.6775745
18.3826075 31.718421499999998 18.9232515
30.316101500000002 17.8163725 12.9670025
11.8823825 29.1567925 17.248943500000003
31.583259499999997 18.7759005 11.2092385
18.4470885 23.1116905 29.5299135
17.0075425 23.9628405 29.4877265
17.474636500000003 23.0111895 31.6727955
17.4957855 24.849383500000002 31.7163585
19.022516500000002 23.8955815 31.6661985
12.9457285 30.265294500000003 17.787443500000002
12.0449035 29.378662499999997 18.915150500000003
11.2536475 31.612950499999997 18.773936499999998
10.0018015 30.404605500000002 18.1386415
11.0294685 31.380857499999998 16.998115499999997
24.8959775 23.927107499999998 12.441195500000001
23.419304500000003 24.766906499999997 12.4286935
23.492870500000002 23.059458499999998 12.4073885
22.8682905 23.933235500000002 10.2369085
24.485229500000003 23.0124025 10.2383355
24.401042500000003 24.855459500000002 10.1978385
12.3806505 23.5062455 17.1188255
12.3955495 24.851758500000003 18.032267500000003
12.3724485 23.4116255 18.821453499999997
10.2301355 24.4406515 18.9178735
10.1907385 22.899961500000003 17.9608555
10.2203225 24.4525655 17.0680595
17.053774500000003 18.091429500000004 29.4831425
18.5143785 18.7764185 29.5206085
18.404709500000003 17.1341085 29.517703500000003
19.021178499999998 17.8925895 31.717890500000003
17.371776500000003 17.1139935 31.651743500000002
17.537214499999997 18.9517435 31.6529295
28.964923499999998 30.2671645 18.0125995
18.497992500000002 24.741729499999998 29.531664499999998
29.3845265 18.8543735 12.0136765
18.9823825 23.8798545 10.2473045
17.5228075 24.8130125 10.2125815
30.3961945 18.1266835 10.0390975
31.4590205 17.040969500000003 11.0374385
24.6329785 11.7955065 12.7705195
24.119600500000004 12.9443755 11.6431045
22.9787635 12.1252965 12.4848645
23.140505500000003 11.2787685 10.244412500000001
23.6580065 10.0189165 11.4314455
24.9509155 10.9536295 10.5162315
18.784014499999998 12.6384355 11.9023765
17.160349500000002 12.6059755 11.9923855
17.9918465 11.6258715 12.9698495
17.1393205 10.3751045 11.1555765
18.9129785 10.4124315 11.0446545
17.8995695 11.5079165 10.0127175
17.9352145 11.6076725 28.9176875
17.1371495 12.6179425 29.979336500000002
18.816098500000003 12.6486365 29.9115015
17.970980500000003 11.5161985 31.9190865
18.8385665 10.3951955 30.7845655
17.052623500000003 10.3947685 30.824645500000003
29.4237275 12.1420145 23.006967500000002
29.091308499999997 11.7982315 24.590602500000003
30.2504115 12.9253925 24.224858500000003
31.3598935 10.9195995 24.9101905
31.713516499999997 11.2498115 23.2118215
30.4647205 10.0236755 23.6684945
18.4457145 23.041962500000004 12.3929635
18.4922125 24.7735445 12.4102605
17.000960499999998 23.997342500000002 12.4052115
17.443161500000002 23.0553265 10.1996405
30.0005765 29.2334685 18.756102499999997
17.932843499999997 23.9861335 12.0861715
17.9242675 12.0790675 12.0765515
29.828013499999997 12.1135135 17.971625500000002
29.9751895 12.0360925 23.8883365
23.8703085 17.8993675 29.878918499999997
17.8935975 23.872200499999998 29.901801499999998
29.8876385 23.990185500000003 17.8982935
17.944768500000002 11.9472645 29.884972500000003
29.8143325 18.0143505 29.897687500000004
12.0176855 23.853489500000002 12.0255625
12.0658845 29.933530500000003 17.947981499999997
17.9177555 17.9264735 29.908196500000003
29.921746499999998 17.8947595 12.0753455
23.895362499999997 23.8378965 12.0122265
29.8088745 29.841868499999997 17.943026500000002
11.9227965 12.0220425 23.9372135
23.9288655 12.0130635 12.1310985
17.952738500000002 29.934470500000003 18.0379925
12.0060355 23.9156835 18.0584025
15.1205655 14.8275895 14.8176135
26.635931499999998 26.6980365 14.976981499999999
15.1558175 27.189750500000002 15.0363425
15.2581115 26.982761500000002 21.1727475
27.0338395 21.134640500000003 27.0632265
15.2517535 26.9999695 27.147910500000002
26.9921425 20.619749499999998 20.8984825
26.778383500000004 20.8018145 15.1575255
20.913889500000003 14.8588925 14.7120395
15.0964135 21.0853545 26.6319265
27.247378500000003 15.0052375 26.8487795
26.986759499999998 15.2251075 21.2027585
20.7226845 14.9893385 26.6696905
26.9610355 14.7789745 15.2603375
20.822984500000004 21.152882500000004 14.9414145
21.1939255 20.893288500000004 20.855737500000004
20.8877005 26.7473625 27.118139499999998
20.9670895 21.2430935 27.070232500000003
20.8299435 26.753162500000002 20.810312500000002
20.813596500000003 15.1987815 20.911941499999998
27.105807500000004 26.867183500000003 20.8485905
21.035836500000002 26.653521500000004 15.0204595
15.1878405 20.751923500000004 15.1943005
14.8529555 20.891026500000002 20.7728745
26.8490715 26.7875055 27.0936435
15.3100495 14.9375175 20.883962500000003
15.1327275 14.8362165 27.0279745
