3_train/225_cspbbr3_MA-BzO_3_0.60\225_cspbbr3_MA-BzO_3_0.60.xyz
1.0
43.838651999999996 0 0
0 43.838651999999996 0
0 0 43.838651999999996
Br C Cs H N O Pb 
72 280 26 348 28 72 27 
Cartesian
15.969325999999999 15.969325999999999 12.994326
15.969325999999999 12.994326 15.969325999999999
15.969325999999999 15.969325999999999 18.944325999999997
15.969325999999999 15.969325999999999 24.894326
15.969325999999999 15.969325999999999 30.844326000000002
15.969325999999999 21.919325999999998 12.994326
15.969325999999999 18.944325999999997 15.969325999999999
12.994326 21.919325999999998 15.969325999999999
15.969325999999999 21.919325999999998 18.944325999999997
15.969325999999999 18.944325999999997 21.919325999999998
15.969325999999999 21.919325999999998 24.894326
15.969325999999999 18.944325999999997 27.869326
12.994326 21.919325999999998 27.869326
15.969325999999999 27.869326 12.994326
15.969325999999999 24.894326 15.969325999999999
15.969325999999999 27.869326 18.944325999999997
15.969325999999999 24.894326 21.919325999999998
12.994326 27.869326 21.919325999999998
15.969325999999999 27.869326 24.894326
15.969325999999999 24.894326 27.869326
15.969325999999999 27.869326 30.844326000000002
15.969325999999999 30.844326000000002 15.969325999999999
21.919325999999998 12.994326 15.969325999999999
18.944325999999997 15.969325999999999 15.969325999999999
21.919325999999998 15.969325999999999 18.944325999999997
18.944325999999997 15.969325999999999 21.919325999999998
21.919325999999998 15.969325999999999 24.894326
18.944325999999997 15.969325999999999 27.869326
21.919325999999998 15.969325999999999 30.844326000000002
21.919325999999998 18.944325999999997 15.969325999999999
18.944325999999997 21.919325999999998 15.969325999999999
21.919325999999998 21.919325999999998 18.944325999999997
21.919325999999998 18.944325999999997 21.919325999999998
18.944325999999997 21.919325999999998 21.919325999999998
21.919325999999998 21.919325999999998 24.894326
21.919325999999998 18.944325999999997 27.869326
18.944325999999997 21.919325999999998 27.869326
21.919325999999998 24.894326 15.969325999999999
18.944325999999997 27.869326 15.969325999999999
21.919325999999998 27.869326 18.944325999999997
21.919325999999998 24.894326 21.919325999999998
18.944325999999997 27.869326 21.919325999999998
21.919325999999998 27.869326 24.894326
21.919325999999998 24.894326 27.869326
18.944325999999997 27.869326 27.869326
21.919325999999998 30.844326000000002 15.969325999999999
27.869326 12.994326 15.969325999999999
24.894326 15.969325999999999 15.969325999999999
27.869326 15.969325999999999 18.944325999999997
24.894326 15.969325999999999 21.919325999999998
27.869326 15.969325999999999 24.894326
24.894326 15.969325999999999 27.869326
27.869326 18.944325999999997 15.969325999999999
24.894326 21.919325999999998 15.969325999999999
27.869326 21.919325999999998 18.944325999999997
27.869326 18.944325999999997 21.919325999999998
24.894326 21.919325999999998 21.919325999999998
27.869326 21.919325999999998 24.894326
27.869326 18.944325999999997 27.869326
24.894326 21.919325999999998 27.869326
27.869326 24.894326 15.969325999999999
24.894326 27.869326 15.969325999999999
27.869326 27.869326 18.944325999999997
27.869326 24.894326 21.919325999999998
24.894326 27.869326 21.919325999999998
27.869326 27.869326 24.894326
27.869326 24.894326 27.869326
24.894326 27.869326 27.869326
27.869326 30.844326000000002 27.869326
30.844326000000002 15.969325999999999 15.969325999999999
30.844326000000002 21.919325999999998 15.969325999999999
30.844326000000002 21.919325999999998 21.919325999999998
26.799805 15.429689999999999 34.554175
26.785293000000003 15.412951999999999 33.155752
27.869326 15.969325999999999 32.478695
28.949409000000003 16.535437 34.542055
27.875717 15.988297 35.246705
27.869326 15.969325999999999 30.844326000000002
28.957112000000002 16.532181 33.144039
17.016775 21.338006999999998 34.554175
17.038775 21.335411 33.155752
15.969325999999999 21.919325999999998 32.478695
14.894041999999999 22.494501999999997 34.542055
15.950042999999999 21.91395 35.246705
15.969325999999999 21.919325999999998 30.844326000000002
14.892406999999999 22.502702999999997 33.144039
28.66297 21.021991 34.554175
28.682845 21.012206999999997 33.155752
27.869326 21.919325999999998 32.478695
27.047392000000002 22.820152 34.542055
27.849353999999998 21.920688 35.246705
27.869326 21.919325999999998 30.844326000000002
27.048585000000003 22.828428000000002 33.144039
27.217835 28.874632 34.554175
27.199634000000003 28.887261000000002 33.155752
27.869326 27.869326 32.478695
28.548274 26.856364 34.542055
27.888874 27.865011000000003 35.246705
27.869326 27.869326 30.844326000000002
28.545865 26.848356000000003 33.144039
21.067459 22.761588000000003 34.554175
21.046974 22.770021 33.155752
21.919325999999998 21.919325999999998 32.478695
22.799652000000002 21.075473 34.542055
21.939344 21.919302000000002 35.246705
21.919325999999998 21.919325999999998 30.844326000000002
22.799016 21.067135 33.144039
20.741701999999997 27.649592 34.554175
20.723095 27.637569 33.155752
21.919325999999998 27.869326 32.478695
23.114480999999998 28.111536 34.542055
21.930757 27.885759 35.246705
21.919325999999998 27.869326 30.844326000000002
23.120969000000002 28.106259 33.144039
28.297179999999997 17.088264 9.284476999999999
28.312351999999997 17.104405999999997 10.6829
27.869326 15.969325999999999 11.359957
27.416210999999997 14.837183 9.296596999999998
27.851104999999997 15.961034999999999 8.591947
27.869326 15.969325999999999 12.994326
27.420234999999998 14.829851999999999 10.694612999999999
20.738089000000002 27.669922 9.284476999999999
20.716479999999997 27.674799 10.6829
21.919325999999998 27.869326 11.359957
23.124763 28.053669999999997 9.296596999999998
21.935719 27.857837000000004 8.591947
21.919325999999998 27.869326 12.994326
23.129036 28.060858000000003 10.694612999999999
28.401435999999997 26.796041000000002 9.284476999999999
28.403008999999997 26.773944 10.6829
27.869326 27.869326 11.359957
27.344644000000002 28.970131000000002 9.296596999999998
27.875591 27.888339000000002 8.591947
27.869326 27.869326 12.994326
27.336528 28.972144999999998 10.694612999999999
28.998457000000002 21.519143999999997 9.284476999999999
29.014967 21.504374 10.6829
27.869326 21.919325999999998 11.359957
26.726371999999998 22.344437 9.296596999999998
27.860588999999997 21.937337 8.591947
27.869326 21.919325999999998 12.994326
26.719143000000003 22.340232999999998 10.694612999999999
23.066322999999997 21.573669000000002 9.284476999999999
23.083522000000002 21.559707000000003 10.6829
21.919325999999998 21.919325999999998 11.359957
20.757328 22.289220999999998 9.296596999999998
21.909737 21.936898 8.591947
21.919325999999998 21.919325999999998 12.994326
20.750307999999997 22.284675999999997 10.694612999999999
20.855663999999997 15.418232 9.284476999999999
20.833598000000002 15.416267 10.6829
21.919325999999998 15.969325999999999 11.359957
23.010635 16.513482 9.296596999999998
21.938447000000004 15.963399999999998 8.591947
21.919325999999998 15.969325999999999 12.994326
23.012504999999997 16.521633 10.694612999999999
9.284476999999999 28.611962 16.909312
10.6829 28.631264 16.920183
11.359957 27.869326 15.969325999999999
9.296596999999998 27.098636999999997 15.024285999999998
8.591947 27.84946 15.966858
12.994326 27.869326 15.969325999999999
10.694612999999999 27.100287 15.016087999999998
9.284476999999999 17.166756 15.934080999999999
10.6829 17.186996 15.925075999999999
11.359957 15.969325999999999 15.969325999999999
9.296596999999998 14.751104 16.024070000000002
8.591947 15.955494 15.983797
12.994326 15.969325999999999 15.969325999999999
10.694612999999999 14.745508999999998 16.017854999999997
9.284476999999999 17.161886 27.982823000000003
10.6829 17.183087 27.976397
11.359957 15.969325999999999 27.869326
9.296596999999998 14.753717 27.772599
8.591947 15.953805999999998 27.881970000000003
12.994326 15.969325999999999 27.869326
10.694612999999999 14.748935 27.765739000000004
9.284476999999999 27.037730000000003 27.007044
10.6829 27.017451 26.998126
11.359957 27.869326 27.869326
9.296596999999998 28.729336000000004 28.733874999999998
8.591947 27.889338000000002 27.869826000000003
12.994326 27.869326 27.869326
10.694612999999999 28.728501 28.742196
9.284476999999999 20.794876000000002 21.506174
10.6829 20.772739 21.506995000000003
11.359957 21.919325999999998 21.919325999999998
9.296596999999998 23.070332999999998 22.322124000000002
8.591947 21.937551999999997 21.911046
12.994326 21.919325999999998 21.919325999999998
10.694612999999999 23.073211 22.329974999999997
9.284476999999999 16.919913 22.648342999999997
10.6829 16.941293 22.654145
11.359957 15.969325999999999 21.919325999999998
9.296596999999998 14.990302999999999 21.192293
8.591947 15.949461999999999 21.921808
12.994326 15.969325999999999 21.919325999999998
10.694612999999999 14.989890999999998 21.183940999999997
34.554175 14.888330999999999 21.403058
33.155752 14.873458999999999 21.38664
32.478695 15.969325999999999 21.919325999999998
34.542055 17.061456 22.461833
35.246705 15.976128 21.938153
30.844326000000002 15.969325999999999 21.919325999999998
33.144039 17.069086 22.45841
34.554175 26.727987 16.33323
33.155752 26.705906 16.331448
32.478695 27.869326 15.969325999999999
34.542055 29.036747 15.616921
35.246705 27.887175 15.97839
30.844326000000002 27.869326 15.969325999999999
33.144039 29.039963999999998 15.609202
34.554175 29.058407000000003 21.773834
33.155752 29.079772 21.779688
32.478695 27.869326 21.919325999999998
34.542055 26.656754 22.048673
35.246705 27.853472000000004 21.907103
30.844326000000002 27.869326 21.919325999999998
33.144039 26.652158999999997 22.055660000000003
34.554175 23.101554999999998 28.062756999999998
33.155752 23.120424999999997 28.074362
32.478695 21.919325999999998 27.869326
34.542055 20.719068999999998 27.653816
35.246705 21.907531 27.853150999999997
30.844326000000002 21.919325999999998 27.869326
33.144039 20.712699999999998 27.659235000000002
34.554175 15.351553 26.842955000000003
33.155752 15.348184999999999 26.821058999999998
32.478695 15.969325999999999 27.869326
34.542055 16.581938 28.92373
35.246705 15.964630999999999 27.888786000000003
30.844326000000002 15.969325999999999 27.869326
33.144039 16.590190999999997 28.925077
34.554175 27.966050000000003 29.063364
33.155752 27.959325999999997 29.084471999999998
32.478695 27.869326 27.869326
34.542055 27.789695000000002 26.652476999999998
35.246705 27.882187000000002 27.853986
30.844326000000002 27.869326 27.869326
33.144039 27.782902 26.647599999999997
17.024845999999997 9.284476999999999 28.435858000000003
17.038930999999998 10.6829 28.452956999999998
15.969325999999999 11.359957 27.869326
14.903915999999999 9.296596999999998 27.27606
15.963417 8.591947 27.8502
15.969325999999999 12.994326 27.869326
14.896133999999998 10.694612999999999 27.279121000000004
21.187601 9.284476999999999 28.81783
21.168425999999997 10.6829 28.828924
21.919325999999998 11.359957 27.869326
22.679043999999998 9.296596999999998 26.915444
21.939162000000003 8.591947 27.866629000000003
21.919325999999998 12.994326 27.869326
22.677298999999998 10.694612999999999 26.907266
14.805242999999999 9.284476999999999 21.636499
14.78731 10.6829 21.623491
15.969325999999999 11.359957 21.919325999999998
17.149704999999997 9.296596999999998 22.225540000000002
15.979856 8.591947 21.936351000000002
15.969325999999999 12.994326 21.919325999999998
17.156467 10.694612999999999 22.220621
26.682746 9.284476999999999 28.033979000000002
26.661289000000004 10.6829 28.02847
27.869326 11.359957 27.869326
29.079653999999998 9.296596999999998 27.720436999999997
27.885375000000003 8.591947 27.881292000000002
27.869326 12.994326 27.869326
29.084136 10.694612999999999 27.713377
26.881214 9.284476999999999 22.596612
26.859555 10.6829 22.601266000000003
27.869326 11.359957 21.919325999999998
28.885727000000003 9.296596999999998 21.245537
27.889029 8.591947 21.922863999999997
27.869326 12.994326 21.919325999999998
28.886584 10.694612999999999 21.237219
22.614891999999998 9.284476999999999 20.943995
22.633636000000003 10.6829 20.932187999999996
21.919325999999998 11.359957 21.919325999999998
21.19599 9.296596999999998 22.901083
21.899606 8.591947 21.922767
21.919325999999998 12.994326 21.919325999999998
21.198041 10.694612999999999 22.909190000000002
23.117184 34.554175 27.854540999999998
23.137575 33.155752 27.845883
21.919325999999998 32.478695 27.869326
20.700345999999996 34.542055 27.903250999999997
21.905248999999998 35.246705 27.883558999999998
21.919325999999998 30.844326000000002 27.869326
20.694857999999996 33.144039 27.896942000000003
26.838075000000003 34.554175 22.528919000000002
26.824708 33.155752 22.546585
27.869326 32.478695 21.919325999999998
28.909354999999998 34.542055 21.282614
27.874440999999997 35.246705 21.899971999999998
27.869326 30.844326000000002 21.919325999999998
28.917257 33.144039 21.285351
27.791477 34.554175 17.164743
27.798533999999997 33.155752 17.185741999999998
27.869326 32.478695 15.969325999999999
27.929724 34.542055 14.751370999999999
27.856223999999997 35.246705 15.954191
27.869326 30.844326000000002 15.969325999999999
27.936439 33.144039 14.746386999999999
15.798867 34.554175 23.105085000000003
15.804270999999998 33.155752 23.126569000000003
15.969325999999999 32.478695 21.919325999999998
16.124136999999997 34.542055 20.709741
15.957438999999999 35.246705 21.903219
15.969325999999999 30.844326000000002 21.919325999999998
16.131219 33.144039 20.705294000000002
15.905292 34.554175 29.065562
15.91259 33.155752 29.086478999999997
15.969325999999999 32.478695 27.869326
16.01565 34.542055 26.650754999999997
15.95605 35.246705 27.854343
15.969325999999999 30.844326000000002 27.869326
16.022306999999998 33.144039 26.645693
22.148936999999997 34.554175 20.743588
22.144615 33.155752 20.72186
21.919325999999998 32.478695 21.919325999999998
21.70415 34.542055 23.119643000000003
21.930391999999998 35.246705 21.936008
21.919325999999998 30.844326000000002 21.919325999999998
21.696855 33.144039 23.123731
18.944325999999997 11.950876 11.950876
31.887776000000002 18.944325999999997 11.950876
11.950876 11.950876 24.894326
11.518664999999999 18.944325999999997 24.894326
11.518664999999999 18.944325999999997 18.944325999999997
11.518664999999999 24.894326 18.944325999999997
24.894326 24.894326 11.518664999999999
24.894326 11.950876 31.887776000000002
24.894326 31.887776000000002 31.887776000000002
32.319987 18.944325999999997 18.944325999999997
31.887776000000002 31.887776000000002 18.944325999999997
32.319987 24.894326 24.894326
24.894326 11.950876 11.950876
11.950876 11.950876 18.944325999999997
31.887776000000002 24.894326 11.950876
18.944325999999997 24.894326 32.319987
18.944325999999997 18.944325999999997 11.518664999999999
18.944325999999997 11.518664999999999 18.944325999999997
18.944325999999997 24.894326 11.518664999999999
31.887776000000002 31.887776000000002 24.894326
18.944325999999997 18.944325999999997 32.319987
18.944325999999997 31.887776000000002 11.950876
24.894326 32.319987 24.894326
11.950876 24.894326 11.950876
18.944325999999997 31.887776000000002 31.887776000000002
11.950876 18.944325999999997 31.887776000000002
18.944325999999997 11.950876 31.887776000000002
18.944325999999997 32.319987 18.944325999999997
12.994326 18.944325999999997 12.994326
12.994326 24.894326 24.894326
12.994326 24.894326 30.844326000000002
12.994326 30.844326000000002 18.944325999999997
18.944325999999997 12.994326 24.894326
18.944325999999997 18.944325999999997 18.944325999999997
18.944325999999997 18.944325999999997 24.894326
18.944325999999997 24.894326 18.944325999999997
18.944325999999997 24.894326 24.894326
18.944325999999997 30.844326000000002 24.894326
24.894326 12.994326 18.944325999999997
24.894326 12.994326 24.894326
24.894326 18.944325999999997 12.994326
24.894326 18.944325999999997 18.944325999999997
24.894326 18.944325999999997 24.894326
24.894326 18.944325999999997 30.844326000000002
24.894326 24.894326 18.944325999999997
24.894326 24.894326 24.894326
24.894326 24.894326 30.844326000000002
24.894326 30.844326000000002 12.994326
24.894326 30.844326000000002 18.944325999999997
30.844326000000002 12.994326 18.944325999999997
30.844326000000002 12.994326 24.894326
30.844326000000002 18.944325999999997 30.844326000000002
30.844326000000002 24.894326 18.944325999999997
30.844326000000002 24.894326 30.844326000000002
29.796010000000003 16.974311 35.074540999999996
27.876675 15.997791 36.338651999999996
25.955316000000003 14.999291999999999 35.097378
25.952710000000003 14.979073 32.605855999999996
29.785739999999997 16.957189 32.582131
14.055224999999998 22.948073 35.074540999999996
15.941650999999998 21.909405999999997 36.338651999999996
17.847395999999996 20.881417999999996 35.097378
17.865585 20.890625999999997 32.605855999999996
14.075159 22.949202 32.582131
26.407837999999998 23.527479 35.074540999999996
27.839927000000003 21.919202 36.338651999999996
29.293791 20.314552 35.097378
29.314008 20.317166999999998 32.605855999999996
26.427007000000003 23.521897000000003 32.582131
29.075620999999998 26.061853 35.074540999999996
27.898417000000002 27.86508 36.338651999999996
26.699142000000002 29.667955999999997 35.097378
26.678759999999997 29.668373000000003 32.605855999999996
29.057494 26.070223 32.582131
23.485069000000003 20.412491 35.074540999999996
21.948650999999998 21.921415000000003 36.338651999999996
20.390749 23.425265000000003 35.097378
20.370751 23.421304 32.605855999999996
23.46557 20.416779 32.582131
24.049922000000002 28.296719000000003 35.074540999999996
21.934327000000003 27.89461 36.338651999999996
19.810654 27.471958 35.097378
19.802508 27.453270000000003 32.605855999999996
24.035282000000002 28.283143000000003 32.582131
27.065882000000002 13.950270999999999 8.764111
27.841757 15.959114999999999 7.499999999999999
28.639293000000002 17.972212 8.741273999999999
28.659140999999998 17.976864999999997 11.232795999999999
27.081868 13.962231999999998 11.256521
24.066738 28.202078 8.764111
21.942118999999998 27.850758 7.499999999999999
19.802839 27.515939000000003 8.741273999999999
19.788753999999997 27.530678 11.232795999999999
24.048318000000002 28.209780000000002 11.256521
26.930467999999998 29.829084 8.764111
27.880519 27.896510999999997 7.499999999999999
28.819006 25.945135999999998 8.741273999999999
28.808964000000003 25.927394 11.232795999999999
26.928416 29.809224 11.256521
25.831107000000003 22.672829 8.764111
27.858438999999997 21.946635 7.499999999999999
29.890557 21.198892 8.741273999999999
29.895697 21.179164 11.232795999999999
25.843457 22.657141000000003 11.256521
19.847364999999996 22.574368 8.764111
21.907144000000002 21.946081999999997 7.499999999999999
23.972735 21.296501999999997 8.741273999999999
23.978814 21.277043 11.232795999999999
19.860452000000002 22.559289999999997 11.256521
23.862094999999997 16.942853 8.764111
21.946705 15.958618 7.499999999999999
20.012310999999997 14.985610999999999 8.741273999999999
19.994394 14.995336 11.232795999999999
23.842201000000003 16.944552 11.256521
8.764111 26.499312000000003 14.282565
7.499999999999999 27.839965999999997 15.967818
8.741273999999999 29.202562 17.650660000000002
11.232795999999999 29.222893 17.649169999999998
11.256521 26.518141999999997 14.289202
8.764111 13.798288 16.062576999999997
7.499999999999999 15.950600999999999 15.99199
8.741273999999999 18.114067 15.902353999999999
11.232795999999999 18.125000999999997 15.885148
11.256521 13.814848 16.051425000000002
8.764111 13.803477999999998 27.69267
7.499999999999999 15.947935 27.889493
8.741273999999999 18.105821 28.068798
11.232795999999999 18.118803999999997 28.05308
11.256521 13.821294 27.683656999999997
8.764111 29.398792999999998 29.41297
7.499999999999999 27.898691999999997 27.867935000000003
8.741273999999999 26.376994000000003 26.327461999999997
11.232795999999999 26.356907999999997 26.330947000000002
11.256521 29.379399999999997 29.408219000000003
8.764111 23.968972 22.641166
7.499999999999999 21.945144 21.905264000000003
8.741273999999999 19.903871 21.182888
11.232795999999999 19.887317 21.194786
11.256521 23.94945 22.64535
8.764111 14.227295999999999 20.620313
7.499999999999999 15.940494 21.925069
8.741273999999999 17.674369999999996 23.222102
11.232795999999999 17.693714999999997 23.215669
11.256521 14.247179 20.622127
35.074540999999996 17.917394 22.882205
36.338651999999996 15.977291999999998 21.947625000000002
35.097378 14.034688999999998 20.991113
32.605855999999996 14.031643999999998 20.970954999999996
32.582131 17.906754 22.865311
35.074540999999996 29.948400999999997 15.337226
36.338651999999996 27.894508000000002 15.984495999999998
35.097378 25.823776000000002 16.617496
32.605855999999996 25.807754000000003 16.604889999999997
32.582131 29.929079 15.332196999999999
35.074540999999996 25.709006000000002 22.154100999999997
36.338651999999996 27.847400999999998 21.899741
35.097378 29.999691 21.662532
32.605855999999996 30.013092 21.677895
32.582131 25.727057000000002 22.162632000000002
35.074540999999996 19.779733 27.489528999999997
36.338651999999996 21.903765 27.844383
35.097378 24.036330999999997 28.219594999999998
32.605855999999996 24.044891 28.238097000000003
32.582131 19.794672 27.502775
35.074540999999996 17.064709 29.746088999999998
36.338651999999996 15.960384999999999 27.897332
35.097378 14.866054 26.028894
32.605855999999996 14.874616999999999 26.010393
32.582131 17.065137 29.726127999999996
35.074540999999996 27.723129 25.701209
36.338651999999996 27.889792 27.848221000000002
35.097378 28.038749000000003 30.008414000000002
32.605855999999996 28.02285 30.021174000000002
32.582131 27.713866000000003 25.718896
14.068695 8.764111 26.815900999999997
15.9627 7.499999999999999 27.840684000000003
17.858171999999996 8.741273999999999 28.887490999999997
17.860266 11.232795999999999 28.90777
14.078527 11.256521 26.833278
23.269759 8.764111 26.166846999999997
21.948667 7.499999999999999 27.867479000000003
20.605607 8.741273999999999 29.565953
20.585259 11.232795999999999 29.564698
23.251007 11.256521 26.173702
18.073817 8.764111 22.460825999999997
15.982944 7.499999999999999 21.945380999999998
13.88511 8.741273999999999 21.408988
13.877982999999999 11.232795999999999 21.389888
18.059928999999997 11.256521 22.446481
30.025579 8.764111 27.599736
27.891564000000002 7.499999999999999 27.888554999999997
25.743380000000002 8.741273999999999 28.160449
25.729734 11.232795999999999 28.145304000000003
30.007391999999996 11.256521 27.591496999999997
29.678151999999997 8.764111 20.715061
27.897810999999997 7.499999999999999 21.926598
26.097233000000003 8.741273999999999 23.129320999999997
26.078259000000003 11.232795999999999 23.121865
29.6582 11.256521 20.715812999999997
20.633823 8.764111 23.671349
21.890075000000003 7.499999999999999 21.922274
23.168360999999997 8.741273999999999 20.174529999999997
23.188741999999998 11.232795999999999 20.175019999999996
20.652304 11.256521 23.663795
19.747011 35.074540999999996 27.925477
21.900216 36.338651999999996 27.891666999999998
24.064898 35.097378 27.839001000000003
24.076124 32.605855999999996 27.821984
19.763759999999998 32.582131 27.914609
29.724883 35.074540999999996 20.788390999999997
27.874765000000004 36.338651999999996 21.890434999999997
26.02409 35.097378 23.014545
26.022834000000003 32.605855999999996 23.034892
29.715775 32.582131 20.806159
27.981253000000002 35.074540999999996 13.799169999999998
27.848529 36.338651999999996 15.948547
27.733717 35.097378 18.110822999999996
27.749814999999998 32.605855999999996 18.123331
27.990794 32.582131 13.816709
16.249467 35.074540999999996 19.764418999999997
15.950206 36.338651999999996 21.896994
15.667800999999999 35.097378 24.043822
15.682879 32.605855999999996 24.057541999999998
16.257616 32.582131 19.782645000000002
16.056176999999998 35.074540999999996 25.698022
15.948289999999998 36.338651999999996 27.848788
15.858464 35.097378 30.012247000000002
15.874706 32.605855999999996 30.024568000000002
16.06592 32.582131 25.715449
21.53165 35.074540999999996 24.057505
21.937303999999997 36.338651999999996 21.942587000000003
22.326836999999998 35.097378 19.81259
22.312464 32.605855999999996 19.798132
21.524423 32.582131 24.038894
19.982706999999998 11.745501999999998 11.684014999999999
18.462787999999996 11.063510999999998 12.366005999999999
18.387483 12.335263 11.094254
17.987349000000002 13.230975999999998 13.287640999999999
19.388114 13.859501999999999 12.659116
19.457515 12.687448999999999 13.831169
32.511138 19.82762 12.102003
32.471176 18.028402999999997 12.062040999999999
31.389367 18.976954999999997 10.980231
30.222457 18.130277999999997 12.902421999999998
30.259285999999996 19.788445 12.939252
31.256287 18.914254999999997 13.936252999999999
11.096204 12.333313 25.455491000000002
11.680394 11.749122999999999 23.856172
12.367676999999999 11.061838999999999 25.371315000000003
13.829372 12.689245999999999 24.377153999999997
13.290979 13.227637999999999 25.851094000000003
12.657575 13.861042 24.454729999999998
11.184743999999998 17.907289 24.962735000000002
11.184743999999998 19.522087999999997 25.758222000000004
11.184743999999998 19.403599999999997 23.962021
13.369067999999999 19.900064 24.831279000000002
13.369067999999999 18.411856999999998 24.098156000000003
13.369067999999999 18.521057 25.753543
11.184743999999998 17.946067 19.233469999999997
11.184743999999998 19.693862 19.664271
11.184743999999998 19.193049000000002 17.935235999999996
13.369067999999999 19.864326 18.677849000000002
13.369067999999999 18.253549999999997 18.280821
13.369067999999999 18.715102 19.874308
11.184743999999998 24.562801999999998 19.929322
11.184743999999998 25.913119000000002 18.738936
11.184743999999998 24.207057 18.16472
13.369067999999999 25.19986 18.036549
13.369067999999999 23.955401000000002 19.133614
13.369067999999999 25.527717000000003 19.662815000000002
24.620739 23.891692 11.184743999999998
24.162813 25.632576 11.184743999999998
25.899426 25.15871 11.184743999999998
25.146465 25.818359 13.369067999999999
25.568492 24.213951 13.369067999999999
23.968021 24.650669 13.369067999999999
25.082441000000003 10.992007999999998 31.401142999999998
25.685454 12.191330999999998 32.600466
23.915083000000003 11.960937 32.370072
24.720958000000003 13.925398999999999 31.245433999999996
24.165219 12.820096999999999 30.140132
25.796802 13.032428999999999 30.352463999999998
25.930782999999998 32.069660999999996 32.178126
24.442518999999997 32.785707 31.46208
24.309676000000003 31.516312999999997 32.731474999999996
23.939121999999998 30.629323999999997 30.529362
25.310713999999997 29.969412 31.189273999999997
25.433141999999997 31.139293000000002 30.019393
32.653908 19.654584 19.703048
32.653908 17.932125 19.180067
32.653908 19.246268999999998 17.949863999999998
30.469583999999998 18.289749 18.245084
30.469583999999998 19.877176 18.727066
30.469583999999998 18.666052999999998 19.860827
31.526851999999998 32.720935 18.338349
32.051331 32.196456 19.978538
32.793498 31.45429 18.51609
31.129579999999997 30.029106999999996 19.502797
30.646217 30.512468999999996 17.991191
29.962232999999998 31.196453999999996 19.33899
32.653908 25.062821 23.868785000000003
32.653908 25.698223 25.553018
32.653908 23.921934 25.261175
30.469583999999998 24.739040000000003 25.83947
30.469583999999998 24.153450999999997 24.287272
30.469583999999998 25.790488000000003 24.556236
25.572353 11.157801 12.271716
23.873181000000002 11.578032 11.851485
25.237443 12.408441999999999 11.021073999999999
24.269453 13.772604 12.746013
25.835417999999997 13.385316 13.133301
24.578107000000003 12.620006 13.898612
11.512113999999999 11.917402 17.945329
12.427838999999999 11.001677999999998 19.195636999999998
11.204322 12.225195 19.692012
13.446065999999998 13.072550999999999 19.865007
12.602129999999999 13.916486999999998 18.712716
13.729729999999998 12.788888 18.255255
32.051829 25.928607999999997 11.642693999999999
32.793290999999996 24.465445000000003 12.384155999999999
31.526559999999996 24.288925 11.117424999999999
30.645758 23.941127 13.325723
29.962423 25.289585000000002 12.642388
31.129849 25.452266 13.809814999999999
18.37739 25.765365000000003 32.653908
18.473452 23.967826000000002 32.653908
19.982135999999997 24.949787 32.653908
19.466817 24.091572 30.469583999999998
19.378286 25.748193 30.469583999999998
17.987875 24.843212 30.469583999999998
19.603136 19.748126 11.184743999999998
19.311033000000002 17.97188 11.184743999999998
17.91881 19.112972 11.184743999999998
18.337162999999997 18.203539999999997 13.369067999999999
18.606367 19.840536999999998 13.369067999999999
19.889446999999997 18.788901 13.369067999999999
18.378845 11.184743999999998 18.072342
19.982227 11.184743999999998 18.890597999999997
18.471905999999997 11.184743999999998 19.870039
19.465476 13.369067999999999 19.747951
17.987791 13.369067999999999 18.993842
19.379711 13.369067999999999 18.091185
19.853746 25.397396999999998 11.184743999999998
18.925288000000002 23.85521 11.184743999999998
18.053944 25.430371 11.184743999999998
18.1062 24.430694000000003 13.369067999999999
18.961872 25.851981000000002 13.369067999999999
19.764907 24.400304 13.369067999999999
31.432729000000002 32.815058 25.247466000000003
32.685729 31.562058 25.564256
32.253222 31.994565 23.871256000000002
31.216324 29.942363 24.568869999999997