3_train/248_cspbbr3_MA-Py_4_0.40\248_cspbbr3_MA-Py_4_0.40.xyz
1.0
46.607088000000005 0 0
0 46.607088000000005 0
0 0 46.607088000000005
Br C Cs H N Pb 
198 244 78 414 76 64 
Cartesian
14.378544 14.378544 11.403544
14.378544 11.403544 14.378544
11.403544 14.378544 14.378544
14.378544 14.378544 17.353544
14.378544 11.403544 20.328544
11.403544 14.378544 20.328544
14.378544 14.378544 23.303544
11.403544 14.378544 26.278544
14.378544 14.378544 29.253544
11.403544 14.378544 32.228544
14.378544 20.328544 11.403544
14.378544 17.353544 14.378544
11.403544 20.328544 14.378544
14.378544 20.328544 17.353544
14.378544 17.353544 20.328544
14.378544 20.328544 23.303544
14.378544 17.353544 26.278544
11.403544 20.328544 26.278544
14.378544 20.328544 29.253544
14.378544 17.353544 32.228544
14.378544 23.303544 14.378544
14.378544 26.278544 17.353544
14.378544 23.303544 20.328544
14.378544 26.278544 23.303544
14.378544 23.303544 26.278544
14.378544 26.278544 29.253544
14.378544 23.303544 32.228544
11.403544 26.278544 32.228544
14.378544 32.228544 11.403544
14.378544 29.253544 14.378544
14.378544 32.228544 17.353544
14.378544 29.253544 20.328544
11.403544 32.228544 20.328544
14.378544 32.228544 23.303544
14.378544 29.253544 26.278544
14.378544 32.228544 29.253544
14.378544 29.253544 32.228544
11.403544 32.228544 32.228544
14.378544 35.203544 14.378544
14.378544 35.203544 26.278544
14.378544 35.203544 32.228544
20.328544 14.378544 11.403544
20.328544 11.403544 14.378544
17.353544 14.378544 14.378544
20.328544 14.378544 17.353544
20.328544 11.403544 20.328544
17.353544 14.378544 20.328544
20.328544 14.378544 23.303544
20.328544 11.403544 26.278544
17.353544 14.378544 26.278544
20.328544 14.378544 29.253544
20.328544 11.403544 32.228544
17.353544 14.378544 32.228544
20.328544 14.378544 35.203544
20.328544 20.328544 11.403544
20.328544 17.353544 14.378544
17.353544 20.328544 14.378544
20.328544 20.328544 17.353544
20.328544 17.353544 20.328544
17.353544 20.328544 20.328544
20.328544 20.328544 23.303544
20.328544 17.353544 26.278544
17.353544 20.328544 26.278544
20.328544 20.328544 29.253544
20.328544 17.353544 32.228544
17.353544 20.328544 32.228544
20.328544 20.328544 35.203544
20.328544 26.278544 11.403544
20.328544 23.303544 14.378544
17.353544 26.278544 14.378544
20.328544 26.278544 17.353544
20.328544 23.303544 20.328544
17.353544 26.278544 20.328544
20.328544 26.278544 23.303544
20.328544 23.303544 26.278544
17.353544 26.278544 26.278544
20.328544 26.278544 29.253544
20.328544 23.303544 32.228544
17.353544 26.278544 32.228544
20.328544 26.278544 35.203544
20.328544 29.253544 14.378544
17.353544 32.228544 14.378544
20.328544 32.228544 17.353544
20.328544 29.253544 20.328544
17.353544 32.228544 20.328544
20.328544 32.228544 23.303544
20.328544 29.253544 26.278544
17.353544 32.228544 26.278544
20.328544 32.228544 29.253544
20.328544 29.253544 32.228544
17.353544 32.228544 32.228544
20.328544 32.228544 35.203544
20.328544 35.203544 14.378544
20.328544 35.203544 26.278544
26.278544 14.378544 11.403544
23.303544 14.378544 14.378544
26.278544 14.378544 17.353544
23.303544 14.378544 20.328544
26.278544 14.378544 23.303544
26.278544 11.403544 26.278544
23.303544 14.378544 26.278544
26.278544 14.378544 29.253544
23.303544 14.378544 32.228544
26.278544 14.378544 35.203544
26.278544 20.328544 11.403544
26.278544 17.353544 14.378544
23.303544 20.328544 14.378544
26.278544 20.328544 17.353544
26.278544 17.353544 20.328544
23.303544 20.328544 20.328544
26.278544 20.328544 23.303544
26.278544 17.353544 26.278544
23.303544 20.328544 26.278544
26.278544 20.328544 29.253544
26.278544 17.353544 32.228544
23.303544 20.328544 32.228544
26.278544 23.303544 14.378544
23.303544 26.278544 14.378544
26.278544 26.278544 17.353544
26.278544 23.303544 20.328544
23.303544 26.278544 20.328544
26.278544 26.278544 23.303544
26.278544 23.303544 26.278544
23.303544 26.278544 26.278544
26.278544 26.278544 29.253544
26.278544 23.303544 32.228544
23.303544 26.278544 32.228544
26.278544 26.278544 35.203544
26.278544 29.253544 14.378544
23.303544 32.228544 14.378544
26.278544 32.228544 17.353544
26.278544 29.253544 20.328544
23.303544 32.228544 20.328544
26.278544 32.228544 23.303544
26.278544 29.253544 26.278544
23.303544 32.228544 26.278544
26.278544 32.228544 29.253544
26.278544 29.253544 32.228544
23.303544 32.228544 32.228544
26.278544 32.228544 35.203544
26.278544 35.203544 14.378544
26.278544 35.203544 20.328544
32.228544 14.378544 11.403544
32.228544 11.403544 14.378544
29.253544 14.378544 14.378544
32.228544 14.378544 17.353544
29.253544 14.378544 20.328544
32.228544 14.378544 23.303544
29.253544 14.378544 26.278544
32.228544 14.378544 29.253544
32.228544 11.403544 32.228544
29.253544 14.378544 32.228544
32.228544 17.353544 14.378544
29.253544 20.328544 14.378544
32.228544 20.328544 17.353544
32.228544 17.353544 20.328544
29.253544 20.328544 20.328544
32.228544 20.328544 23.303544
32.228544 17.353544 26.278544
29.253544 20.328544 26.278544
32.228544 20.328544 29.253544
32.228544 17.353544 32.228544
29.253544 20.328544 32.228544
32.228544 23.303544 14.378544
29.253544 26.278544 14.378544
32.228544 26.278544 17.353544
32.228544 23.303544 20.328544
29.253544 26.278544 20.328544
32.228544 26.278544 23.303544
32.228544 23.303544 26.278544
29.253544 26.278544 26.278544
32.228544 26.278544 29.253544
32.228544 23.303544 32.228544
29.253544 26.278544 32.228544
32.228544 26.278544 35.203544
32.228544 29.253544 14.378544
29.253544 32.228544 14.378544
32.228544 32.228544 17.353544
32.228544 29.253544 20.328544
29.253544 32.228544 20.328544
32.228544 32.228544 23.303544
32.228544 29.253544 26.278544
29.253544 32.228544 26.278544
32.228544 32.228544 29.253544
32.228544 29.253544 32.228544
29.253544 32.228544 32.228544
32.228544 32.228544 35.203544
32.228544 35.203544 14.378544
32.228544 35.203544 26.278544
35.203544 14.378544 14.378544
35.203544 14.378544 20.328544
35.203544 14.378544 32.228544
35.203544 20.328544 20.328544
35.203544 20.328544 26.278544
35.203544 26.278544 14.378544
35.203544 26.278544 20.328544
35.203544 32.228544 26.278544
35.203544 32.228544 32.228544
14.541546 25.145526 35.905792000000005
14.549063 25.091147 37.302058
14.378544 26.278544 38.015077000000005
14.214586 27.411503 35.905394
14.206430000000001 27.464952 37.301339
14.541546 13.245526 35.905792000000005
14.549063 13.191147 37.302058
14.378544 14.378544 38.015077000000005
14.214586 15.511503000000001 35.905394
14.206430000000001 15.564952 37.301339
32.391546000000005 13.245526 35.905792000000005
32.399063 13.191147 37.302058
32.228544 14.378544 38.015077000000005
32.064586 15.511503000000001 35.905394
32.05643 15.564952 37.301339
26.441546 19.195526 35.905792000000005
26.449063 19.141147 37.302058
26.278544 20.328544 38.015077000000005
26.114586 21.461503 35.905394
26.10643 21.514952 37.301339
14.541546 19.195526 35.905792000000005
14.549063 19.141147 37.302058
14.378544 20.328544 38.015077000000005
14.214586 21.461503 35.905394
14.206430000000001 21.514952 37.301339
14.541546 31.095526 35.905792000000005
14.549063 31.041147 37.302058
14.378544 32.228544 38.015077000000005
14.214586 33.361503 35.905394
14.206430000000001 33.414952 37.301339
32.391546000000005 19.195526 35.905792000000005
32.399063 19.141147 37.302058
32.228544 20.328544 38.015077000000005
32.064586 21.461503 35.905394
32.05643 21.514952 37.301339
32.065542 19.195526 10.701296
32.058025 19.141147 9.30503
32.228544 20.328544 8.592011
32.392502 21.461503 10.701694
32.400658 21.514952 9.305749
32.065542 31.095526 10.701296
32.058025 31.041147 9.30503
32.228544 32.228544 8.592011
32.392502 33.361503 10.701694
32.400658 33.414952 9.305749
26.115542 25.145526 10.701296
26.108025 25.091147 9.30503
26.278544 26.278544 8.592011
26.442502 27.411503 10.701694
26.450658 27.464952 9.305749
26.115542 31.095526 10.701296
26.108025 31.041147 9.30503
26.278544 32.228544 8.592011
26.442502 33.361503 10.701694
26.450658 33.414952 9.305749
32.065542 25.145526 10.701296
32.058025 25.091147 9.30503
32.228544 26.278544 8.592011
32.392502 27.411503 10.701694
32.400658 27.464952 9.305749
14.215542 25.145526 10.701296
14.208025 25.091147 9.30503
14.378544 26.278544 8.592011
14.542502 27.411503 10.701694
14.550658 27.464952 9.305749
20.165542 31.095526 10.701296
20.158025 31.041147 9.30503
20.328544 32.228544 8.592011
20.492501999999998 33.361503 10.701694
20.500657999999998 33.414952 9.305749
10.701296 25.145526 14.541546
9.30503 25.091147 14.549063
8.592011 26.278544 14.378544
10.701694 27.411503 14.214586
9.305749 27.464952 14.206430000000001
10.701296 31.095526 26.441546
9.30503 31.041147 26.449063
8.592011 32.228544 26.278544
10.701694 33.361503 26.114586
9.305749 33.414952 26.10643
10.701296 31.095526 14.541546
9.30503 31.041147 14.549063
8.592011 32.228544 14.378544
10.701694 33.361503 14.214586
9.305749 33.414952 14.206430000000001
10.701296 19.195526 20.491546
9.30503 19.141147 20.499063
8.592011 20.328544 20.328544
10.701694 21.461503 20.164586
9.305749 21.514952 20.15643
10.701296 25.145526 20.491546
9.30503 25.091147 20.499063
8.592011 26.278544 20.328544
10.701694 27.411503 20.164586
9.305749 27.464952 20.15643
10.701296 25.145526 26.441546
9.30503 25.091147 26.449063
8.592011 26.278544 26.278544
10.701694 27.411503 26.114586
9.305749 27.464952 26.10643
10.701296 19.195526 32.391546000000005
9.30503 19.141147 32.399063
8.592011 20.328544 32.228544
10.701694 21.461503 32.064586
9.305749 21.514952 32.05643
35.905792000000005 25.145526 26.115542
37.302058 25.091147 26.108025
38.015077000000005 26.278544 26.278544
35.905394 27.411503 26.442502
37.301339 27.464952 26.450658
35.905792000000005 25.145526 32.065542
37.302058 25.091147 32.058025
38.015077000000005 26.278544 32.228544
35.905394 27.411503 32.392502
37.301339 27.464952 32.400658
35.905792000000005 31.095526 14.215542
37.302058 31.041147 14.208025
38.015077000000005 32.228544 14.378544
35.905394 33.361503 14.542502
37.301339 33.414952 14.550658
35.905792000000005 19.195526 32.065542
37.302058 19.141147 32.058025
38.015077000000005 20.328544 32.228544
35.905394 21.461503 32.392502
37.301339 21.514952 32.400658
35.905792000000005 19.195526 14.215542
37.302058 19.141147 14.208025
38.015077000000005 20.328544 14.378544
35.905394 21.461503 14.542502
37.301339 21.514952 14.550658
35.905792000000005 13.245526 26.115542
37.302058 13.191147 26.108025
38.015077000000005 14.378544 26.278544
35.905394 15.511503000000001 26.442502
37.301339 15.564952 26.450658
35.905792000000005 31.095526 20.165542
37.302058 31.041147 20.158025
38.015077000000005 32.228544 20.328544
35.905394 33.361503 20.492501999999998
37.301339 33.414952 20.500657999999998
32.391546000000005 10.701296 25.145526
32.399063 9.30503 25.091147
32.228544 8.592011 26.278544
32.064586 10.701694 27.411503
32.05643 9.305749 27.464952
14.541546 10.701296 31.095526
14.549063 9.30503 31.041147
14.378544 8.592011 32.228544
14.214586 10.701694 33.361503
14.206430000000001 9.305749 33.414952
26.441546 10.701296 31.095526
26.449063 9.30503 31.041147
26.278544 8.592011 32.228544
26.114586 10.701694 33.361503
26.10643 9.305749 33.414952
14.541546 10.701296 25.145526
14.549063 9.30503 25.091147
14.378544 8.592011 26.278544
14.214586 10.701694 27.411503
14.206430000000001 9.305749 27.464952
32.391546000000005 10.701296 19.195526
32.399063 9.30503 19.141147
32.228544 8.592011 20.328544
32.064586 10.701694 21.461503
32.05643 9.305749 21.514952
26.441546 10.701296 13.245526
26.449063 9.30503 13.191147
26.278544 8.592011 14.378544
26.114586 10.701694 15.511503000000001
26.10643 9.305749 15.564952
26.441546 10.701296 19.195526
26.449063 9.30503 19.141147
26.278544 8.592011 20.328544
26.114586 10.701694 21.461503
26.10643 9.305749 21.514952
26.441546 35.905792000000005 27.411562
26.449063 37.302058 27.465941
26.278544 38.015077000000005 26.278544
26.114586 35.905394 25.145585
26.10643 37.301339 25.092136
26.441546 35.905792000000005 33.361562
26.449063 37.302058 33.415941000000004
26.278544 38.015077000000005 32.228544
26.114586 35.905394 31.095585
26.10643 37.301339 31.042136
20.491546 35.905792000000005 33.361562
20.499063 37.302058 33.415941000000004
20.328544 38.015077000000005 32.228544
20.164586 35.905394 31.095585
20.15643 37.301339 31.042136
32.391546000000005 35.905792000000005 21.461562
32.399063 37.302058 21.515941
32.228544 38.015077000000005 20.328544
32.064586 35.905394 19.195585
32.05643 37.301339 19.142136
32.391546000000005 35.905792000000005 33.361562
32.399063 37.302058 33.415941000000004
32.228544 38.015077000000005 32.228544
32.064586 35.905394 31.095585
32.05643 37.301339 31.042136
14.541546 35.905792000000005 21.461562
14.549063 37.302058 21.515941
14.378544 38.015077000000005 20.328544
14.214586 35.905394 19.195585
14.206430000000001 37.301339 19.142136
20.491546 35.905792000000005 21.461562
20.499063 37.302058 21.515941
20.328544 38.015077000000005 20.328544
20.164586 35.905394 19.195585
20.15643 37.301339 19.142136
29.253544 10.360094 36.246994
10.360094 36.246994 17.353544
29.253544 17.353544 9.927883000000001
36.246994 36.246994 29.253544
29.253544 29.253544 36.679204999999996
9.927883000000001 29.253544 17.353544
23.303544 29.253544 36.679204999999996
10.360094 10.360094 17.353544
17.353544 36.246994 10.360094
36.246994 17.353544 36.246994
23.303544 23.303544 9.927883000000001
10.360094 23.303544 10.360094
29.253544 36.679204999999996 29.253544
23.303544 10.360094 10.360094
10.360094 10.360094 29.253544
9.927883000000001 29.253544 29.253544
36.246994 17.353544 10.360094
17.353544 29.253544 9.927883000000001
36.679204999999996 29.253544 17.353544
29.253544 23.303544 9.927883000000001
29.253544 36.246994 36.246994
36.246994 10.360094 29.253544
10.360094 29.253544 10.360094
9.927883000000001 23.303544 23.303544
10.360094 17.353544 10.360094
10.360094 10.360094 23.303544
23.303544 36.679204999999996 17.353544
23.303544 9.927883000000001 23.303544
17.353544 9.927883000000001 23.303544
17.353544 23.303544 9.927883000000001
36.679204999999996 29.253544 23.303544
29.253544 36.679204999999996 23.303544
36.679204999999996 23.303544 23.303544
29.253544 10.360094 10.360094
11.403544 17.353544 17.353544
11.403544 17.353544 23.303544
11.403544 17.353544 29.253544
11.403544 17.353544 35.203544
11.403544 23.303544 17.353544
11.403544 23.303544 29.253544
11.403544 23.303544 35.203544
11.403544 29.253544 23.303544
11.403544 29.253544 35.203544
11.403544 35.203544 23.303544
11.403544 35.203544 29.253544
17.353544 11.403544 11.403544
17.353544 11.403544 17.353544
17.353544 11.403544 29.253544
17.353544 11.403544 35.203544
17.353544 17.353544 11.403544
17.353544 17.353544 17.353544
17.353544 17.353544 23.303544
17.353544 17.353544 29.253544
17.353544 17.353544 35.203544
17.353544 23.303544 17.353544
17.353544 23.303544 23.303544
17.353544 23.303544 29.253544
17.353544 23.303544 35.203544
17.353544 29.253544 17.353544
17.353544 29.253544 23.303544
17.353544 29.253544 29.253544
17.353544 29.253544 35.203544
17.353544 35.203544 17.353544
17.353544 35.203544 29.253544
17.353544 35.203544 35.203544
23.303544 11.403544 17.353544
23.303544 11.403544 29.253544
23.303544 11.403544 35.203544
23.303544 17.353544 11.403544
23.303544 17.353544 17.353544
23.303544 17.353544 23.303544
23.303544 17.353544 29.253544
23.303544 17.353544 35.203544
23.303544 23.303544 17.353544
23.303544 23.303544 23.303544
23.303544 23.303544 29.253544
23.303544 23.303544 35.203544
23.303544 29.253544 11.403544
23.303544 29.253544 17.353544
23.303544 29.253544 23.303544
23.303544 29.253544 29.253544
23.303544 35.203544 11.403544
23.303544 35.203544 29.253544
23.303544 35.203544 35.203544
29.253544 11.403544 17.353544
29.253544 11.403544 23.303544
29.253544 11.403544 29.253544
29.253544 17.353544 17.353544
29.253544 17.353544 23.303544
29.253544 17.353544 29.253544
29.253544 17.353544 35.203544
29.253544 23.303544 17.353544
29.253544 23.303544 23.303544
29.253544 23.303544 29.253544
29.253544 29.253544 11.403544
29.253544 29.253544 17.353544
29.253544 29.253544 23.303544
29.253544 29.253544 29.253544
29.253544 35.203544 11.403544
35.203544 11.403544 17.353544
35.203544 11.403544 23.303544
35.203544 17.353544 17.353544
35.203544 17.353544 23.303544
35.203544 17.353544 29.253544
35.203544 23.303544 17.353544
35.203544 23.303544 29.253544
35.203544 23.303544 35.203544
35.203544 29.253544 11.403544
35.203544 29.253544 29.253544
35.203544 29.253544 35.203544
35.203544 35.203544 17.353544
35.203544 35.203544 23.303544
14.380049 26.282564 39.107088000000005
14.083282 28.32569 35.317633
14.674428 24.232298 35.316863
14.686035 24.136527 37.813964999999996
14.06759 28.418075 37.815220999999994
14.380049 14.382564 39.107088000000005
14.083282 16.42569 35.317633
14.674428 12.332298 35.316863
14.686035 12.236527 37.813964999999996
14.06759 16.518075 37.815220999999994
32.230049 14.382564 39.107088000000005
31.933282 16.42569 35.317633
32.524428 12.332298 35.316863
32.536035 12.236527 37.813964999999996
31.91759 16.518075 37.815220999999994
26.280049 20.332564 39.107088000000005
25.983282 22.375690000000002 35.317633
26.574428 18.282298 35.316863
26.586035 18.186526999999998 37.813964999999996
25.967589999999998 22.468075000000002 37.815220999999994
14.380049 20.332564 39.107088000000005
14.083282 22.375690000000002 35.317633
14.674428 18.282298 35.316863
14.686035 18.186526999999998 37.813964999999996
14.06759 22.468075000000002 37.815220999999994
14.380049 32.232563999999996 39.107088000000005
14.083282 34.27569 35.317633
14.674428 30.182298 35.316863
14.686035 30.086527 37.813964999999996
14.06759 34.368075000000005 37.815220999999994
32.230049 20.332564 39.107088000000005
31.933282 22.375690000000002 35.317633
32.524428 18.282298 35.316863
32.536035 18.186526999999998 37.813964999999996
31.91759 22.468075000000002 37.815220999999994
32.227039000000005 20.332564 7.5
32.523806 22.375690000000002 11.289455
31.93266 18.282298 11.290225
31.921053 18.186526999999998 8.793123
32.539498 22.468075000000002 8.791867
32.227039000000005 32.232563999999996 7.5
32.523806 34.27569 11.289455
31.93266 30.182298 11.290225
31.921053 30.086527 8.793123
32.539498 34.368075000000005 8.791867
26.277039 26.282564 7.5
26.573806 28.32569 11.289455
25.98266 24.232298 11.290225
25.971053 24.136527 8.793123
26.589498000000003 28.418075 8.791867
26.277039 32.232563999999996 7.5
26.573806 34.27569 11.289455
25.98266 30.182298 11.290225
25.971053 30.086527 8.793123
26.589498000000003 34.368075000000005 8.791867
32.227039000000005 26.282564 7.5
32.523806 28.32569 11.289455
31.93266 24.232298 11.290225
31.921053 24.136527 8.793123
32.539498 28.418075 8.791867
14.377039 26.282564 7.5
14.673805999999999 28.32569 11.289455
14.08266 24.232298 11.290225
14.071053 24.136527 8.793123
14.689498 28.418075 8.791867
20.327039000000003 32.232563999999996 7.5
20.623806 34.27569 11.289455
20.03266 30.182298 11.290225
20.021053 30.086527 8.793123
20.639498 34.368075000000005 8.791867
7.5 26.282564 14.380049
11.289455 28.32569 14.083282
11.290225 24.232298 14.674428
8.793123 24.136527 14.686035
8.791867 28.418075 14.06759
7.5 32.232563999999996 26.280049
11.289455 34.27569 25.983282
11.290225 30.182298 26.574428
8.793123 30.086527 26.586035
8.791867 34.368075000000005 25.967589999999998
7.5 32.232563999999996 14.380049
11.289455 34.27569 14.083282
11.290225 30.182298 14.674428
8.793123 30.086527 14.686035
8.791867 34.368075000000005 14.06759
7.5 20.332564 20.330049
11.289455 22.375690000000002 20.033282
11.290225 18.282298 20.624427999999998
8.793123 18.186526999999998 20.636035
8.791867 22.468075000000002 20.017590000000002
7.5 26.282564 20.330049
11.289455 28.32569 20.033282
11.290225 24.232298 20.624427999999998
8.793123 24.136527 20.636035
8.791867 28.418075 20.017590000000002
7.5 26.282564 26.280049
11.289455 28.32569 25.983282
11.290225 24.232298 26.574428
8.793123 24.136527 26.586035
8.791867 28.418075 25.967589999999998
7.5 20.332564 32.230049
11.289455 22.375690000000002 31.933282
11.290225 18.282298 32.524428
8.793123 18.186526999999998 32.536035
8.791867 22.468075000000002 31.91759
39.107088000000005 26.282564 26.277039
35.317633 28.32569 26.573806
35.316863 24.232298 25.98266
37.813964999999996 24.136527 25.971053
37.815220999999994 28.418075 26.589498000000003
39.107088000000005 26.282564 32.227039000000005
35.317633 28.32569 32.523806
35.316863 24.232298 31.93266
37.813964999999996 24.136527 31.921053
37.815220999999994 28.418075 32.539498
39.107088000000005 32.232563999999996 14.377039
35.317633 34.27569 14.673805999999999
35.316863 30.182298 14.08266
37.813964999999996 30.086527 14.071053
37.815220999999994 34.368075000000005 14.689498
39.107088000000005 20.332564 32.227039000000005
35.317633 22.375690000000002 32.523806
35.316863 18.282298 31.93266
37.813964999999996 18.186526999999998 31.921053
37.815220999999994 22.468075000000002 32.539498
39.107088000000005 20.332564 14.377039
35.317633 22.375690000000002 14.673805999999999
35.316863 18.282298 14.08266
37.813964999999996 18.186526999999998 14.071053
37.815220999999994 22.468075000000002 14.689498
39.107088000000005 14.382564 26.277039
35.317633 16.42569 26.573806
35.316863 12.332298 25.98266
37.813964999999996 12.236527 25.971053
37.815220999999994 16.518075 26.589498000000003
39.107088000000005 32.232563999999996 20.327039000000003
35.317633 34.27569 20.623806
35.316863 30.182298 20.03266
37.813964999999996 30.086527 20.021053
37.815220999999994 34.368075000000005 20.639498
32.230049 7.5 26.282564
31.933282 11.289455 28.32569
32.524428 11.290225 24.232298
32.536035 8.793123 24.136527
31.91759 8.791867 28.418075
14.380049 7.5 32.232563999999996
14.083282 11.289455 34.27569
14.674428 11.290225 30.182298
14.686035 8.793123 30.086527
14.06759 8.791867 34.368075000000005
26.280049 7.5 32.232563999999996
25.983282 11.289455 34.27569
26.574428 11.290225 30.182298
26.586035 8.793123 30.086527
25.967589999999998 8.791867 34.368075000000005
14.380049 7.5 26.282564
14.083282 11.289455 28.32569
14.674428 11.290225 24.232298
14.686035 8.793123 24.136527
14.06759 8.791867 28.418075
32.230049 7.5 20.332564
31.933282 11.289455 22.375690000000002
32.524428 11.290225 18.282298
32.536035 8.793123 18.186526999999998
31.91759 8.791867 22.468075000000002
26.280049 7.5 14.382564
25.983282 11.289455 16.42569
26.574428 11.290225 12.332298
26.586035 8.793123 12.236527
25.967589999999998 8.791867 16.518075
26.280049 7.5 20.332564
25.983282 11.289455 22.375690000000002
26.574428 11.290225 18.282298
26.586035 8.793123 18.186526999999998
25.967589999999998 8.791867 22.468075000000002
26.280049 39.107088000000005 26.274524
25.983282 35.317633 24.231398000000002
26.574428 35.316863 28.32479
26.586035 37.813964999999996 28.420561
25.967589999999998 37.815220999999994 24.139013000000002
26.280049 39.107088000000005 32.224524
25.983282 35.317633 30.181398
26.574428 35.316863 34.274789999999996
26.586035 37.813964999999996 34.370560999999995
25.967589999999998 37.815220999999994 30.089013
20.330049 39.107088000000005 32.224524
20.033282 35.317633 30.181398
20.624427999999998 35.316863 34.274789999999996
20.636035 37.813964999999996 34.370560999999995
20.017590000000002 37.815220999999994 30.089013
32.230049 39.107088000000005 20.324524
31.933282 35.317633 18.281398
32.524428 35.316863 22.37479
32.536035 37.813964999999996 22.470561
31.91759 37.815220999999994 18.189013
32.230049 39.107088000000005 32.224524
31.933282 35.317633 30.181398
32.524428 35.316863 34.274789999999996
32.536035 37.813964999999996 34.370560999999995
31.91759 37.815220999999994 30.089013
14.380049 39.107088000000005 20.324524
14.083282 35.317633 18.281398
14.674428 35.316863 22.37479
14.686035 37.813964999999996 22.470561
14.06759 37.815220999999994 18.189013
20.330049 39.107088000000005 20.324524
20.033282 35.317633 18.281398
20.624427999999998 35.316863 22.37479
20.636035 37.813964999999996 22.470561
20.017590000000002 37.815220999999994 18.189013
28.359254 9.749563 36.108698000000004
30.15925 9.763545 36.12268
29.242128 10.858820999999999 37.217957
30.077726 12.013588 35.283623
28.418841 12.000702 35.270737
29.264066 10.99129 34.261324
9.412081 35.771215999999995 17.095599
10.321966 36.681101 18.354406
10.637882000000001 36.997017 16.610626
12.324613 35.594648 17.591267000000002
11.486059000000001 34.756093 16.431144
11.194908999999999 34.464943000000005 18.038221
30.147834 16.824043 9.593962000000001
28.347838 16.843817 9.593962000000001
29.26496 18.392772 9.593962000000001
28.429362 17.841535 11.778286000000001
30.088247 17.823311 11.778286000000001
29.243022 16.395786 11.778286000000001
36.30071699999999 36.66550599999999 30.260316
37.190827999999996 35.775395 28.973545
35.957789000000005 37.008433999999994 28.526772
35.106657 34.770466 28.325698
34.286326 35.590796 29.511593
35.422701 34.454420999999996 29.923341
28.359254 28.724043 37.013126
30.15925 28.743817 37.013126
29.242128 30.292772 37.013126
30.077726 29.741535 34.828801999999996
28.418841 29.723311 34.828801999999996
29.264066 28.295786 34.828801999999996
9.593962000000001 28.724043 16.459254
9.593962000000001 28.743817 18.25925
9.593962000000001 30.292772 17.342128
11.778286000000001 29.741535 18.177726
11.778286000000001 29.723311 16.518841000000002
11.778286000000001 28.295786 17.364066
22.409254 28.724043 37.013126
24.20925 28.743817 37.013126
23.292128 30.292772 37.013126
24.127726 29.741535 34.828801999999996
22.468841 29.723311 34.828801999999996
23.314066 28.295786 34.828801999999996
9.941582 10.306371 16.346772
10.831693000000001 9.416260000000001 17.633543
9.598654 10.649299 18.080316
11.836622 11.500430999999999 18.281390000000002
11.016292 12.320762 17.095495
12.152667000000001 11.184387000000001 16.683747
16.459254 36.857524999999995 10.49839
18.25925 36.843543 10.484408
17.342128 35.748267 9.389131
18.177726 34.5935 11.323465
16.518841000000002 34.606386 11.336351
17.364066 35.615798 12.345764
35.850753 16.824043 37.11547
37.123542 16.843817 35.842681
36.475038999999995 18.392772 36.491184000000004
35.521346 17.841535 34.355777
34.348337 17.823311 35.528786
34.946000999999995 16.395786 34.931121000000005
24.197834 22.774043000000002 9.593962000000001
22.397838 22.793817 9.593962000000001
23.31496 24.342772 9.593962000000001
22.479362 23.791535 11.778286000000001
24.138247 23.773311 11.778286000000001
23.293022 22.345786 11.778286000000001
10.756335 22.774043000000002 9.491617999999999
9.483546 22.793817 10.764407
10.132049 24.342772 10.115904
11.085742 23.791535 12.251311
12.258751 23.773311 11.078302
11.661087 22.345786 11.675967
28.359254 37.013126 29.783045
30.15925 37.013126 29.763271
29.242128 37.013126 28.214316
30.077726 34.828801999999996 28.765553
28.418841 34.828801999999996 28.783777
29.264066 34.828801999999996 30.211302
22.409254 10.49839 9.749563
24.20925 10.484408 9.763545
23.292128 9.389131 10.858820999999999
24.127726 11.323465 12.013588
22.468841 11.336351 12.000702
23.314066 12.345764 10.99129
9.941582 10.306371 28.246772
10.831693000000001 9.416260000000001 29.533543
9.598654 10.649299 29.980316
11.836622 11.500430999999999 30.18139
11.016292 12.320762 28.995495000000002
12.152667000000001 11.184387000000001 28.583747
9.593962000000001 28.724043 28.359254
9.593962000000001 28.743817 30.15925
9.593962000000001 30.292772 29.242128
11.778286000000001 29.741535 30.077726
11.778286000000001 29.723311 28.418841
11.778286000000001 28.295786 29.264066
37.11547 16.824043 10.756335
35.842681 16.843817 9.483546
36.491184000000004 18.392772 10.132049
34.355777 17.841535 11.085742
35.528786 17.823311 12.258751
34.931121000000005 16.395786 11.661087
18.247834 28.724043 9.593962000000001
16.447838 28.743817 9.593962000000001
17.36496 30.292772 9.593962000000001
16.529362 29.741535 11.778286000000001
18.188247 29.723311 11.778286000000001
17.343022 28.295786 11.778286000000001
37.013126 28.724043 18.247834
37.013126 28.743817 16.447838
37.013126 30.292772 17.36496
34.828801999999996 29.741535 16.529362
34.828801999999996 29.723311 18.188247
34.828801999999996 28.295786 17.343022
30.147834 22.774043000000002 9.593962000000001
28.347838 22.793817 9.593962000000001
29.26496 24.342772 9.593962000000001
28.429362 23.791535 11.778286000000001
30.088247 23.773311 11.778286000000001
29.243022 22.345786 11.778286000000001
28.359254 36.108698000000004 36.857524999999995
30.15925 36.12268 36.843543
29.242128 37.217957 35.748267
30.077726 35.283623 34.5935
28.418841 35.270737 34.606386
29.264066 34.261324 35.615798
35.771215999999995 9.412081 29.511489
36.681101 10.321966 28.252682
36.997017 10.637882000000001 29.996462
35.594648 12.324613 29.015821
34.756093 11.486059000000001 30.175944
34.464943000000005 11.194908999999999 28.568867
10.756335 28.724043 9.491617999999999
9.483546 28.743817 10.764407
10.132049 30.292772 10.115904
11.085742 29.741535 12.251311
12.258751 29.723311 11.078302
11.661087 28.295786 11.675967
9.593962000000001 22.774043000000002 22.409254
9.593962000000001 22.793817 24.20925
9.593962000000001 24.342772 23.292128
11.778286000000001 23.791535 24.127726
11.778286000000001 23.773311 22.468841
11.778286000000001 22.345786 23.314066
10.756335 16.824043 9.491617999999999