1_train/16_cspbbr3_methylammonium_3_0.30\16_cspbbr3_methylammonium_3_0.30.xyz
1.0
41.838486 0 0
0 41.838486 0
0 0 41.838486
Br C Cs H N Pb 
108 14 40 84 14 27 
Cartesian
26.676291999999997 23.906748999999998 14.818468999999999
29.987308 14.752524 26.788103
23.872347999999995 15.214882999999999 15.090594
26.820172999999997 11.908372 15.129909
26.735965999999998 15.088197999999998 11.806481999999999
29.736863 20.869422999999998 15.113226
29.905720000000002 21.100448999999998 20.739978999999998
20.981941999999997 29.62495 26.917851
20.795755999999997 29.790081999999998 21.113121
20.726008999999998 29.973644 15.083988
20.975257 26.655543 29.986568999999996
26.701885999999995 26.993809 17.908896
18.055130999999996 26.968466 26.76553
20.886615999999997 23.804474 26.613971999999997
20.704302999999996 26.777705999999995 23.743674999999996
29.682629999999996 20.892288999999998 26.978184
29.736959999999996 26.848393 15.193378
18.110467999999997 26.829856999999997 21.059264999999996
20.78568 23.782131 21.032381
20.870798999999998 26.714310999999995 17.820959000000002
30.044795 26.818942999999997 20.869858999999998
30.072307000000002 26.991073999999998 26.722665
17.774625999999998 26.790605999999997 15.055389
20.949829 23.962519 15.179072999999999
29.983109 15.085661 20.900193
26.784644999999998 15.166516 17.808411999999997
27.060916 11.929867999999999 20.871964
24.012796 15.11455 20.726276
26.79851 27.090851 11.902363
23.90818 27.008074999999998 27.052603999999995
26.685849999999995 20.814996999999998 29.683672
27.051088999999997 23.822041999999996 26.646268999999997
24.021541 20.986869 26.632464
26.729957999999996 18.113248 26.944820999999997
26.804845 20.661949999999997 23.765265
26.999445 26.851346 29.975479999999997
26.977303999999997 29.991388 14.773131999999999
23.715348999999996 20.755362999999996 21.015695
26.839126999999998 17.708743 20.866338
23.949477 26.784056 15.195551
26.777361999999997 21.087703999999995 17.758943000000002
26.994374999999998 29.624465 20.987344
23.805132 21.071574999999996 15.180714
27.043301 18.020941999999998 14.933475
27.020775 20.810168999999995 11.912291999999999
26.761989999999997 29.983879 27.069372
26.696399999999997 14.985287 29.697556999999996
23.812039 14.772474999999998 26.812373
26.777563999999998 11.998705 27.045148999999995
26.970487 15.08344 24.010858
29.964847 14.955613 15.163279999999999
26.917549 26.862274999999997 24.139381999999998
20.820864 26.712227999999996 11.799389999999999
23.882250999999997 27.084010999999997 20.733128
26.926426 23.640639 21.060738999999998
20.859032 15.019943 11.773171
14.939613999999999 17.93903 14.743184999999999
15.149365999999999 29.805459999999997 26.756758999999995
15.136947 29.741639 21.117773
11.827523999999999 15.112720999999999 20.731507999999998
14.772930999999998 29.828096000000002 15.156726999999998
14.950633999999999 26.692661 29.906621
11.820303 26.838533999999996 26.688491999999997
14.994143 23.711425999999996 26.642010999999997
14.821549999999998 15.020062 24.006344999999996
14.832391 27.132269 23.916123999999996
14.865011999999998 12.191140999999998 26.872122999999995
12.192924999999999 27.028852999999998 20.875955999999995
15.082887999999999 23.809714 20.785598
15.01853 26.578023 17.945141999999997
12.027569999999999 26.625609999999995 14.890697999999999
15.032953 24.019158999999995 15.225826999999999
15.118678 27.024681 11.801723999999998
15.117085 21.081272999999996 29.921172
12.061437 15.073635 27.133527
11.883811 20.738606999999995 27.028194999999997
14.902446 17.946855 27.070487
15.113171 20.947426999999998 23.755961999999997
14.717089 14.969821999999999 29.786569
12.197602 20.967056 20.734848999999997
14.979764999999999 17.799663 20.669288
14.982007999999999 20.698917 18.072268
11.876797999999999 20.794398 14.867097999999999
14.966688 12.188602 20.830208
20.892061999999996 12.240957 14.934804
15.092065999999999 21.017519 11.88171
14.829299999999998 14.956385 17.785057000000002
20.823093 20.780564999999996 29.780924
17.771236000000002 21.012788999999998 27.079062999999998
20.736328 17.721719999999998 26.914840999999996
21.072643 20.79634 23.793602999999997
17.785742 20.822389 20.782409
21.074461 18.104694000000002 21.053343999999996
20.823006 20.694023 18.009048
14.737819 14.877562 11.921582999999998
17.856454 21.004976999999997 14.761998
21.05805 17.734218 15.016770999999999
17.811901999999996 15.073996999999999 14.875663
20.879019999999997 15.153574999999998 30.069907
14.827246999999998 11.979565 14.853129999999998
20.986182999999997 20.779851999999998 11.881037
12.007292 15.135665 14.742415
20.955442999999995 15.181023 17.809731999999997
17.720601000000002 14.898833999999999 26.99062
20.807500999999995 12.211312 26.838808999999998
21.163337999999996 11.882577 20.989109999999997
21.070380999999998 14.897561 23.698704
17.975989 14.872468999999999 21.09565
23.826712999999998 17.971708 31.255065000000002
31.34182 17.967708000000002 18.026348
17.938055 17.867344 10.576106
23.889288 23.966653 10.528232999999998
23.943469999999998 17.956335 10.432654
17.975748 31.388872999999997 23.824382
23.841541999999997 30.904114999999997 30.837404999999997
10.472024999999999 18.016374999999996 17.939093
30.862448999999998 11.025701 17.926353999999996
11.011963 30.817876999999996 23.867196
10.994698 23.865428 11.005942999999998
30.941166000000003 17.999125999999997 10.988444999999999
10.436729 23.945991999999997 17.950439
23.983539999999998 10.970775 10.99875
29.548899 18.393957 24.02919
12.369095 17.721489 11.882701999999998
24.283190999999995 30.099866999999996 11.659163
29.891112 30.287013 23.954308999999995
23.739989 29.723644999999998 18.514685
12.193529999999999 12.286354 17.716668999999996
30.228133999999997 24.228347999999997 17.829155
30.109021999999996 12.18513 24.124604999999995
29.816536999999997 24.053818 29.481155
29.932933 24.337533999999998 12.260999
11.791016999999998 11.502127999999999 23.798029999999997
23.751011 29.536589 24.086982
29.460091 24.077481999999996 24.169587999999997
29.936977999999996 30.248505 17.729306
17.564644 23.932406999999998 11.877464
23.533364 24.219006 18.025807999999998
23.660875999999995 23.598005 23.834674999999997
24.460032999999996 24.043560999999997 29.842951999999997
18.019036 24.275602999999997 17.962266
17.907989 18.045735999999998 24.460617
18.329099 23.517333999999998 23.803990999999996
18.006569 17.940927000000002 18.333208
18.3602 24.076465 29.638833999999996
18.125982999999998 29.502131 12.455976
18.293372999999995 11.880773999999999 30.060930999999997
17.462539 29.88064 18.094533
17.771572 17.539214 29.597752
17.72037 11.918904999999999 23.512015999999996
23.893828999999997 11.760394999999999 18.262242
18.253594999999997 29.546588 30.098335999999996
24.265166 12.331845999999999 23.839284999999997
11.690256999999999 30.337128999999997 17.835842
23.652246999999996 11.542869999999999 29.927293999999996
11.751906 23.472021999999996 29.854478
23.522517 17.865164999999998 18.101379
12.194939999999999 23.721706999999995 23.516954999999996
24.05827 17.921745 23.416370999999998
11.613193999999998 17.838769 30.217103
17.610096 11.981544999999999 17.437644
11.807737 17.918304999999997 23.526896
23.071143999999997 10.260658999999999 11.120085999999999
12.335953 24.444359999999996 17.156542
12.359138 24.327905 18.836481
12.394521999999998 22.91549 17.858587
10.157760999999999 23.29264 18.799002
10.179843 23.469057999999997 17.030974
10.173653999999999 24.958625999999995 17.995654000000002
30.246975 12.929409 18.030979000000002
29.210178999999997 11.904763999999998 18.778174999999997
22.929169 17.758411 29.448029999999996
24.565404 17.237854 29.438319
24.924493 18.198597 31.662627999999998
23.595828999999995 16.921996999999998 31.683009
23.209235999999997 18.737245 31.654623
10.154324999999998 18.745216 17.307912
10.165591999999998 16.994993 17.59017
29.454993 17.279283 17.293827
24.171881999999997 18.83356 29.433374
29.292896999999996 11.932407 17.119017
31.516331 11.145537 17.089819999999996
10.584573999999998 31.006087 22.894194
30.192586 17.485298 12.879036
31.158800999999997 16.915326 10.759516999999999
31.731001999999997 18.459193999999997 11.334928999999999
30.491281 18.424234 10.097995999999998
29.031950000000002 17.433804000000002 11.704490999999999
12.473875 24.840488 12.046408
11.578928 23.682826 12.897245
12.694334999999999 23.213591 11.773112
29.429052999999996 17.708311000000002 18.876759999999997
10.487782 22.920144 10.901212999999998
10.235401999999999 24.621581 11.208170999999998
31.469392999999997 11.017012999999999 18.849936
30.351096 9.973059999999998 17.884698
11.643471 28.990598999999996 23.546124
12.784018 30.124888999999996 23.326101
12.376024 29.646157000000002 24.835099
11.384391999999998 31.811546 24.244858
10.120278999999998 30.542811999999998 24.566632999999996
11.409355999999999 24.168892 10.001002999999999
29.455452 18.843964999999997 17.633943000000002
31.637650999999998 18.722631 18.638557999999996
31.627826999999996 18.204026999999996 16.918587
22.921293999999996 23.624041 10.186257999999999
24.669815999999997 23.16111 10.178242
22.900554 31.174144999999996 31.057527
24.356314999999995 30.452981 31.747766
18.69616 29.477255999999997 24.547345
17.002603999999998 29.460158 24.228370999999996
18.131760999999997 29.460853999999998 22.911871999999995
17.163973 31.654415999999998 23.189555999999996
18.902752999999997 31.678371999999996 23.525207
17.728158 31.666376 24.899307
23.358740999999995 28.997904 30.165005999999998
24.890952999999996 29.542561 29.630001999999998
23.006972999999995 12.515676 12.004828999999999
24.012689 11.611652 12.940724999999999
24.66281 12.678944999999999 11.862269999999999
24.805020999999996 10.391426 11.030204
23.786238999999995 11.425642999999999 9.955223
24.084303999999996 24.887000999999998 10.185853
23.180293 24.570515 12.333872999999999
24.803674 24.214315 12.355485
23.647774999999996 22.9604 12.386921
31.642473000000003 16.976956 18.255094999999997
10.160390999999999 18.083272 18.965204
12.394357 17.200085 18.578472999999995
18.253963999999996 18.844651999999996 12.349338999999999
17.006591999999998 17.740105999999997 12.339025999999999
18.620103 17.228434999999998 12.386507
17.639339999999997 16.972122 10.209105
18.989441 18.191713 10.178085
23.490626 30.155887999999997 28.949621999999998
17.246206 18.729172 10.15006
12.332923999999998 17.809634 16.980759
23.824816 18.919987999999996 12.349153999999999
23.09552 17.452177999999996 12.386472999999999
24.767206 17.513509 12.346457999999998
23.915965999999997 16.895904 10.16969
24.783459999999998 18.51294 10.148200999999998
22.963105999999996 18.414896 10.150177
24.454665 31.723736000000002 30.546982
12.376154999999999 18.85758 18.312953999999998
29.555985 18.882092 12.207773999999999
11.998982999999999 23.951105999999996 17.996994
23.852398 17.908253000000002 29.79876
29.899881 18.000101 17.945769999999996
11.909609999999999 29.894422 23.901948999999995
17.894190000000002 17.898801999999996 12.016411999999999
12.02675 23.943438 12.069355
23.881172 17.995342 12.052313
23.947733999999997 23.831249 11.937192999999999
23.853291999999996 11.903500999999999 11.999263999999998
17.964303 29.905188000000003 23.811856999999996
29.915532999999996 17.906658999999998 11.957521
12.065681 17.97117 17.900306
29.755663 12.040247999999998 17.951003999999998
23.856401999999996 29.910046 29.794283
14.879498 14.826844999999999 15.156249999999998
15.160540999999998 20.701456 26.812458
26.682947 27.058819999999997 15.107069
15.009704999999999 27.091037 14.959655
14.795325 26.812174999999996 21.119986999999995
26.650267999999997 20.879914999999997 26.75181
26.637940999999998 20.988737999999998 20.709995
26.697932 20.804426 14.840898
21.018083999999995 15.131317 14.840689
26.654699 26.592695 20.986359
26.676384999999996 14.858396999999998 27.072465
27.071131 15.005082999999999 21.024288999999996
21.152107 14.794300999999999 27.012327999999997
26.809112999999996 15.13327 15.136897999999999
21.070541 20.71331 14.968020999999998
20.833428999999995 26.715266 27.062872
20.669536 20.780834999999996 20.773156999999998
20.803312999999996 26.623751999999996 20.826839
21.148311 20.971246 26.782505
20.925543999999995 15.125296999999998 21.156725
27.006408 26.877736 26.676587999999995
14.768886 27.124158 27.008786
15.109174 14.751425 27.024155999999998
14.987432 14.882748999999999 20.645229999999998
15.150471 20.855109 20.736953
15.140893 21.061817999999995 14.938051999999999
21.125405 26.935317999999995 14.721697999999998
