3_train/219_cspbbr3_MA-4-Br-2-TPC_3_0.60\219_cspbbr3_MA-4-Br-2-TPC_3_0.60.xyz
1.0
43.008448 0 0
0 43.008448 0
0 0 43.008448
Br C Cs H N O Pb S 
108 208 26 240 28 72 27 36 
Cartesian
15.554224 15.554224 12.579224
12.579224 15.554224 15.554224
15.554224 15.554224 18.529224
15.554224 15.554224 24.479224
12.579224 15.554224 27.454224
15.554224 18.529224 15.554224
15.554224 21.504224 18.529224
15.554224 18.529224 21.504224
15.554224 21.504224 24.479224
15.554224 18.529224 27.454224
12.579224 21.504224 27.454224
15.554224 21.504224 30.429224
15.554224 24.479224 15.554224
15.554224 27.454224 18.529224
15.554224 24.479224 21.504224
15.554224 27.454224 24.479224
15.554224 24.479224 27.454224
18.529224 15.554224 15.554224
21.504224 15.554224 18.529224
21.504224 12.579224 21.504224
18.529224 15.554224 21.504224
21.504224 15.554224 24.479224
21.504224 12.579224 27.454224
18.529224 15.554224 27.454224
21.504224 21.504224 12.579224
21.504224 18.529224 15.554224
18.529224 21.504224 15.554224
21.504224 21.504224 18.529224
21.504224 18.529224 21.504224
18.529224 21.504224 21.504224
21.504224 21.504224 24.479224
21.504224 18.529224 27.454224
18.529224 21.504224 27.454224
21.504224 21.504224 30.429224
21.504224 27.454224 12.579224
21.504224 24.479224 15.554224
18.529224 27.454224 15.554224
21.504224 27.454224 18.529224
21.504224 24.479224 21.504224
18.529224 27.454224 21.504224
21.504224 27.454224 24.479224
21.504224 24.479224 27.454224
18.529224 27.454224 27.454224
21.504224 30.429224 15.554224
21.504224 30.429224 27.454224
24.479224 15.554224 15.554224
27.454224 15.554224 18.529224
27.454224 12.579224 21.504224
24.479224 15.554224 21.504224
27.454224 15.554224 24.479224
24.479224 15.554224 27.454224
27.454224 18.529224 15.554224
24.479224 21.504224 15.554224
27.454224 21.504224 18.529224
27.454224 18.529224 21.504224
24.479224 21.504224 21.504224
27.454224 21.504224 24.479224
27.454224 18.529224 27.454224
24.479224 21.504224 27.454224
27.454224 24.479224 15.554224
24.479224 27.454224 15.554224
27.454224 27.454224 18.529224
27.454224 24.479224 21.504224
24.479224 27.454224 21.504224
27.454224 27.454224 24.479224
27.454224 24.479224 27.454224
24.479224 27.454224 27.454224
27.454224 27.454224 30.429224
27.454224 30.429224 27.454224
30.429224 15.554224 21.504224
30.429224 21.504224 15.554224
30.429224 21.504224 27.454224
19.579318999999998 27.77721 35.508448
29.238411 22.295589 35.508448
15.076761 25.56171 35.508448
27.944288 17.443514 35.508448
16.979121 16.888109 35.508448
21.772434999999998 17.487522 35.508448
29.208785 20.649183 7.5
21.466894999999997 17.505682 7.5
17.366055 22.230067000000002 7.5
28.13418 17.38377 7.5
25.504682 27.548374 7.5
13.952454 26.338915 7.5
7.5 25.514551 27.236855000000002
7.5 29.262483 14.819526
7.5 13.656275 21.048844000000003
7.5 26.120548 20.079131
7.5 23.125667 20.417714
7.5 21.95284 13.654665
35.508448 29.220397 14.723434000000001
35.508448 15.922343 17.47101
35.508448 25.510277 21.329156
35.508448 29.338993 27.961399
35.508448 23.449876 21.659205
35.508448 16.415708000000002 29.20563
26.866260999999998 7.5 17.415374
17.314678 7.5 20.661382
22.624874000000002 7.5 17.152261
15.045535000000001 7.5 29.338585
29.061396 7.5 26.346715
13.659577 7.5 15.085298
19.55594 35.508448 21.386886999999998
25.503043 35.508448 15.504497
28.842887 35.508448 22.87579
16.529411 35.508448 17.244961
16.604205999999998 35.508448 19.858892
15.431899 35.508448 29.402202
20.795425 27.57234 34.076764
20.414372 27.631646999999997 32.716546
21.504224 27.454224 31.882082
22.146677999999998 27.352679 34.258629
21.504224 27.454224 30.429224
28.110757 21.796305999999998 34.076764
28.461401 21.956827999999998 32.716546
27.454224 21.504224 31.882082
26.862182999999998 21.23488 34.258629
27.454224 21.504224 30.429224
15.379223 26.757286 34.076764
15.289321000000001 26.382271 32.716546
15.554224 27.454224 31.882082
15.707347 28.086373 34.258629
15.554224 27.454224 30.429224
27.633865 16.24998 34.076764
27.726264 16.624388 32.716546
27.454224 15.554224 31.882082
27.296891 14.92311 34.258629
27.454224 15.554224 30.429224
16.078259 16.04589 34.076764
16.356650000000002 16.312755 32.716546
15.554224 15.554224 31.882082
15.083623 15.105232 34.258629
15.554224 15.554224 30.429224
21.602169999999997 16.266091 34.076764
21.650636000000002 16.648674 32.716546
21.504224 15.554224 31.882082
21.420958000000002 14.909146 34.258629
21.504224 15.554224 30.429224
28.099824 21.188712 8.931684
28.444466000000002 21.015679 10.291902
27.454224 21.504224 11.126366
26.872256 21.794693 8.749819
27.454224 21.504224 12.579224
21.491286 16.272681 8.931684
21.488477 16.658311 10.291902
21.504224 15.554224 11.126366
21.510496 14.903824 8.749819
21.504224 15.554224 12.579224
16.221561 21.770701 8.931684
16.581216 21.909862999999998 10.291902
15.554224 21.504224 11.126366
14.948176 21.268078 8.749819
15.554224 21.504224 12.579224
27.705309 16.227503 8.931684
27.843926 16.587369 10.291902
27.454224 15.554224 11.126366
27.221861 14.946716 8.749819
27.454224 15.554224 12.579224
26.736526 27.48969 8.931684
26.351582 27.512852 10.291902
27.454224 27.454224 11.126366
28.10357 27.41669 8.749819
27.454224 27.454224 12.579224
14.964062 27.044276 8.931684
14.644995999999999 26.827676 10.291902
15.554224 27.454224 11.126366
16.091504 27.820815 8.749819
15.554224 27.454224 12.579224
8.931684 26.740031 27.374998
10.291902 26.356308000000002 27.336592
11.126366 27.454224 27.454224
8.749819 28.101266 27.520528000000002
12.579224 27.454224 27.454224
8.931684 28.119643 15.282995
10.291902 28.475176 15.133612
11.126366 27.454224 15.554224
8.749819 26.853982 15.804761
12.579224 27.454224 15.554224
8.931684 14.855294 21.337355
10.291902 14.479257 21.251828
11.126366 15.554224 21.504224
8.749819 16.188114 21.649972
12.579224 15.554224 21.504224
8.931684 26.962635000000002 20.980117
10.291902 26.695811000000003 20.701687
11.126366 27.454224 21.504224
8.749819 27.903147 21.974891
12.579224 27.454224 21.504224
8.931684 22.100721 21.103550000000002
10.291902 22.418521000000002 20.885098
11.126366 21.504224 21.504224
8.749819 20.967347 21.871404000000002
12.579224 21.504224 21.504224
8.931684 21.668602 14.854704
10.291902 21.752788 14.478365
11.126366 21.504224 15.554224
8.749819 21.360735000000002 16.188629
12.579224 21.504224 15.554224
34.076764 28.104795 15.249092000000001
32.716546 28.455676 15.089088
31.882082 27.454224 15.554224
34.258629 26.863059 15.825485
30.429224 27.454224 15.554224
34.076764 15.688959 16.260053
32.716546 15.757202 16.639606999999998
31.882082 15.554224 15.554224
34.258629 15.437614 14.914333
30.429224 15.554224 15.554224
34.076764 26.738619 21.43897
32.716546 26.354969999999998 21.399832999999997
31.882082 27.454224 21.504224
34.258629 28.10145 21.568704999999998
30.429224 27.454224 21.504224
34.076764 28.147904999999998 27.641721
32.716546 28.519085 27.746332
31.882082 27.454224 27.454224
34.258629 26.827768000000003 27.279262
30.429224 27.454224 27.454224
34.076764 22.220464 21.562084000000002
32.716546 22.604498 21.597255
31.882082 21.504224 21.504224
34.258629 20.856367 21.446431
30.429224 21.504224 21.504224
34.076764 15.870663 28.099371
32.716546 16.036765 28.447405999999997
31.882082 15.554224 27.454224
34.258629 15.272688 26.867883000000003
30.429224 15.554224 27.454224
27.236994 8.931684 16.239176
27.116477 10.291902 16.605501
27.454224 11.126366 15.554224
27.656032 8.749819 14.935894
27.454224 12.579224 15.554224
16.202694 8.931684 21.194652
16.552473 10.291902 21.032254000000002
15.554224 11.126366 21.504224
14.964927 8.749819 21.77952
15.554224 12.579224 21.504224
21.916140000000002 8.931684 16.143014
22.133803 10.291902 16.461355
21.504224 11.126366 15.554224
21.135841 8.749819 15.018171
21.504224 12.579224 15.554224
15.36617 8.931684 28.147754000000003
15.261261 10.291902 28.51885
15.554224 11.126366 27.454224
15.729689 8.749819 26.827909000000002
15.554224 12.579224 27.454224
28.046372 8.931684 27.04715
28.366487 10.291902 26.832103999999998
27.454224 11.126366 27.454224
26.915167999999998 8.749819 27.818199
27.454224 12.579224 27.454224
14.856891000000001 8.931684 15.380805
14.483668999999999 10.291902 15.283726999999999
15.554224 11.126366 15.554224
16.184093 8.749819 15.716471
15.554224 12.579224 15.554224
20.786901999999998 34.076764 21.461828999999998
20.401712 32.716546 21.443206
21.504224 31.882082 21.504224
22.153819000000002 34.258629 21.537167
21.504224 30.429224 21.504224
26.735864 34.076764 15.536721
26.350258999999998 32.716546 15.531462
27.454224 31.882082 15.554224
28.104571 34.258629 15.564627999999999
27.454224 30.429224 15.554224
27.966035 34.076764 22.008602
28.243598000000002 32.716546 22.276329
27.454224 31.882082 21.504224
26.987147 34.258629 21.051567
27.454224 30.429224 21.504224
15.913943 34.076764 16.176277
16.110563 32.716546 16.508029
15.554224 31.882082 15.554224
15.223921 34.258629 14.993904
15.554224 30.429224 15.554224
15.940103 34.076764 20.898051000000002
16.143695 32.716546 20.570532
15.554224 31.882082 21.504224
15.20954 34.258629 22.055814
15.554224 30.429224 21.504224
15.509992 34.076764 28.171435
15.490383 32.716546 28.556576
15.554224 31.882082 27.454224
15.58883 34.258629 26.804714999999998
15.554224 30.429224 27.454224
31.472674 18.529224 31.472674
24.479224 18.529224 11.103563000000001
18.529224 31.904885 18.529224
18.529224 24.479224 31.904885
18.529224 11.535774 31.472674
31.472674 31.472674 24.479224
31.472674 24.479224 11.535774
11.535774 31.472674 24.479224
11.535774 31.472674 18.529224
31.904885 18.529224 24.479224
24.479224 31.472674 11.535774
24.479224 11.103563000000001 18.529224
31.472674 11.535774 18.529224
18.529224 18.529224 31.904885
24.479224 31.472674 31.472674
31.904885 18.529224 18.529224
11.535774 11.535774 18.529224
18.529224 31.472674 31.472674
24.479224 18.529224 31.904885
11.535774 18.529224 31.472674
24.479224 24.479224 11.103563000000001
18.529224 31.904885 24.479224
11.103563000000001 18.529224 18.529224
24.479224 11.535774 31.472674
24.479224 31.904885 18.529224
31.472674 31.472674 18.529224
11.535774 18.529224 11.535774
11.103563000000001 18.529224 24.479224
12.579224 12.579224 24.479224
12.579224 24.479224 18.529224
12.579224 24.479224 24.479224
12.579224 24.479224 30.429224
18.529224 12.579224 12.579224
18.529224 12.579224 18.529224
18.529224 12.579224 24.479224
18.529224 18.529224 12.579224
18.529224 18.529224 18.529224
18.529224 18.529224 24.479224
18.529224 24.479224 12.579224
18.529224 24.479224 18.529224
18.529224 24.479224 24.479224
24.479224 12.579224 12.579224
24.479224 12.579224 24.479224
24.479224 18.529224 18.529224
24.479224 18.529224 24.479224
24.479224 24.479224 18.529224
24.479224 24.479224 24.479224
24.479224 24.479224 30.429224
24.479224 30.429224 24.479224
30.429224 12.579224 24.479224
30.429224 18.529224 12.579224
30.429224 24.479224 18.529224
30.429224 24.479224 24.479224
30.429224 24.479224 30.429224
22.685767000000002 27.264881 35.198685999999995
19.399026 27.79691 32.360323
26.363968 21.011032999999998 35.198685999999995
29.399708 22.378516 32.360323
15.838417 28.616605 35.198685999999995
15.042558 25.383598 32.360323
27.162291 14.393762 35.198685999999995
27.979677 17.621394 32.360323
14.686678 14.730052 35.198685999999995
17.104195 17.019449 32.360323
21.348499 14.367782 35.198685999999995
21.787008 17.668302 32.360323
26.382417 22.036319000000002 7.809762
29.366995 20.560507 10.648125
21.518322 14.357689 7.809762
21.473837 17.686915 10.648125
14.440188 21.067394999999998 7.809762
17.538006 22.287741999999998 10.648125
27.029129 14.435658 7.809762
28.207013999999997 17.549869 10.648125
28.648993 27.387726 7.809762
25.324327 27.567502 10.648125
16.541233 28.130765999999998 7.809762
13.797914 26.24399 10.648125
7.809762 28.644345 27.578751
10.648125 25.333451 27.227031999999998
7.809762 26.348955 16.012783
10.648125 29.426315 14.741728
7.809762 16.719837 21.774855
10.648125 13.477777 21.016717999999997
7.809762 28.278268999999998 22.371891
10.648125 25.989226 19.954039
7.809762 20.515069 22.177625000000003
10.648125 23.270292 20.308275000000002
7.809762 21.237748 16.720793999999998
10.648125 21.984329 13.476054
35.198685999999995 26.367707 16.055598
32.360323 29.388673 14.65578
35.198685999999995 15.337175 14.377455
32.360323 15.946273 17.65079
35.198685999999995 28.645199 21.620306
32.360323 25.330873 21.30255
35.198685999999995 26.301025 27.134807
32.360323 29.511136 28.018497999999997
35.198685999999995 20.312114 21.40045
32.360323 23.629545 21.683956
35.198685999999995 15.033966 26.376621
32.360323 16.486289 29.372699
27.823064 7.809762 14.415869
26.801793 10.648125 17.584895
14.471159 7.809762 22.013013
17.482486 10.648125 20.592579
20.82439 7.809762 14.56948
22.720315 10.648125 17.306484
15.874568 7.809762 26.301282
14.988297 10.648125 29.510682
26.463938000000002 7.809762 28.12596
29.216397 10.648125 26.252542000000002
16.713651 7.809762 15.850237
13.486312999999999 10.648125 15.031694
22.699174 35.198685999999995 21.567386000000003
19.374574 32.360323 21.386388999999998
28.650646 35.198685999999995 15.575924
25.321769 32.360323 15.510288
26.596709 35.198685999999995 20.669620000000002
28.979025 32.360323 22.995624
14.948758999999999 35.198685999999995 14.522086
16.628892999999998 32.360323 17.396608
14.917927 35.198685999999995 22.517644999999998
16.692839 32.360323 19.700658
15.620445 35.198685999999995 26.259439
15.430937 32.360323 29.583565
32.271012999999996 17.859941 31.14657
31.837531 19.552443 31.580052
31.017831 18.175287 32.399752
29.646095 19.146038 30.682388
30.045594 17.58622 30.282888
30.801034 18.855414 29.527448
25.511533 18.649483 10.769642000000001
24.067217 17.575088 10.769642000000001
23.858922 19.3631 10.769642000000001
23.527842 18.418393000000002 12.953966000000001
24.858932 19.40856 12.953966000000001
25.050898 17.760719 12.953966000000001
19.260562 32.238806 17.790801000000002
17.524061 32.238806 18.265078
18.803048 32.238806 19.531793
17.855218999999998 30.054482 19.209759
19.455587 30.054482 18.772662
18.276866 30.054482 17.605251
17.792981 23.745691 32.238806
19.532604 24.208386 32.238806
18.262087 25.483596000000002 32.238806
19.207749 25.155252 30.054482
17.604504 24.72883 30.054482
18.775419 23.55359 30.054482
17.514751 11.140017 31.549152
19.231977999999998 10.758241 31.167376
18.840942 12.000710999999999 32.409847
19.464167 12.991332 30.311366
17.881562 13.343178 30.663212
18.241943 12.198111 29.518145
31.792461 31.625122 25.511757
32.299251 31.118332 23.860484
31.034662 32.382920999999996 24.065431999999998
30.087131 30.241352 23.527637000000002
29.620071 30.708412 25.049459000000002
30.785522 29.54296 24.860577
31.027022 24.867174000000002 10.617887
32.287245999999996 25.120243 11.878111
31.812106 23.450255000000002 11.402971
30.792564 24.121686999999998 13.472529
29.631134 23.888458 12.3111
30.069026 25.427527 12.748992000000001
10.696846 31.105982 23.884778999999998
11.23704 31.646175 25.514734999999998
11.965083 32.374218 24.038158
13.39976 30.719794 25.027068
12.901914999999999 30.221949 23.524891999999998
12.230946 29.55098 24.885713
10.565242 30.974377 18.566580000000002
11.689739 32.098873999999995 19.410017
11.643988 32.053123 17.611076
13.521047 30.841082 18.494796
12.484704 29.804739 17.717481
12.526869 29.846904 19.375394
32.238806 18.071306 23.546252
32.238806 19.56616 24.549141000000002
32.238806 17.950206 25.342278
30.054482 18.951242999999998 25.339056
30.054482 17.573578 24.414787999999998
30.054482 19.06285 23.683829
23.636362000000002 31.278844 10.869709
24.374079 32.43991 12.030775
25.427229999999998 31.40762 10.998485
25.25601 30.560483 13.240448
24.576126 29.490438 12.170404
23.605537 30.441803 13.121768
24.454255999999997 10.769642000000001 19.568215000000002
23.591916 10.769642000000001 17.988106000000002
25.3915 10.769642000000001 18.031352
24.502235000000002 12.953966000000001 17.571685
25.296972 12.953966000000001 19.027922
23.638465 12.953966000000001 18.988065
31.023058 10.613923 18.90294
31.822805 11.41367 17.502517
32.280512 11.871376 19.182215
30.796217 13.476182 18.184806000000002
30.059166 12.739131 19.475442
29.637341 12.317307 17.927424000000002
19.532138 18.801782 32.238806
17.791725 19.261494 32.238806
18.263809000000002 17.524396 32.238806
17.604933 18.278033 30.054482
19.208907 17.85436 30.054482
18.773831 19.455279 30.054482
23.478955 31.908275 31.509308
24.735042 30.996513 32.42107
25.223675 32.221587 31.195996
25.401077 29.980397 30.348086
24.243461 30.820681 29.507801
23.793135 29.691646 30.636836
32.238806 17.817521 19.28659
32.238806 18.229177 17.534188
32.238806 19.540974 18.766894
30.054482 19.185133999999998 17.831232
30.054482 18.805748 19.446255
30.054482 17.59679 18.310186
10.721958 11.877355 17.886842
11.981881999999999 10.617431 18.142882
11.195129 11.404184 19.557948
13.376616 12.311797 19.121246
12.215464 13.47295 18.885279
12.94054 12.747873 17.581147
18.281963 30.995003 32.422579999999996
19.527063 31.91427 31.503313
17.778646000000002 32.217101 31.200482
18.757101 30.822072 29.506411
17.609611 29.974871 30.353611
19.220961 29.69578 30.632702
23.577473 18.012532 32.238806
25.377568 18.006631 32.238806
24.482631 19.568509 32.238806
25.310282 19.00541 30.054482
23.651306 19.010848 30.054482
24.476084 17.571414 30.054482
10.930999 17.630164 31.340134
12.034545 18.527243 32.44368
10.933425 19.430265 31.342561
13.183963 19.357802 30.503998
12.16693 18.53105 29.486965
13.181727 17.698819999999998 30.501762
25.513048 24.58568 10.769642000000001
24.054506 23.530677999999998 10.769642000000001
23.870118 25.321313999999997 10.769642000000001
23.526446 24.381114 12.953966000000001
24.870647 25.353409 12.953966000000001
25.040578999999997 23.70315 12.953966000000001
19.069599 32.238806 25.366985
19.02786 32.238806 23.567365
17.490213 32.238806 24.503322
18.031211 30.054482 23.661058999999998
18.069679 30.054482 25.319598
19.486781999999998 30.054482 24.457015000000002
10.769642000000001 19.514183 18.197589999999998
10.769642000000001 17.749541 17.842042
10.769642000000001 18.323949 19.54804
12.953966000000001 17.621481 18.83486
12.953966000000001 19.247784 19.162534
12.953966000000001 18.718407 17.590277
23.619995 11.713087 32.122223
24.402491 10.566773 30.975908
25.415186000000002 11.619109 32.028244
25.271094 12.463187 29.783221
24.549941 13.519636 30.839671
23.616637 12.549797 29.869832
25.514425 32.238806 18.437121
23.88186 32.238806 17.678765
24.041387 32.238806 19.471786
23.525177 30.054482 18.614107
25.029757999999998 30.054482 19.313011
24.882735999999998 30.054482 17.660554
31.049845 32.367738 18.069110000000002
31.756504 31.661079 19.566322
32.320026 31.097558 17.95224
30.77153 29.556953 18.953267
30.120269 30.208213 17.573429
29.600925 30.727558 19.060976
11.903258000000001 19.122061 10.696055
11.360893 17.493548 11.23842
10.634819 18.972063 11.964494
12.287925 17.982862 13.400489
12.787771 19.483709 12.900642999999999
13.456925 18.121101 12.231489
10.769642000000001 19.459744 24.942103
10.769642000000001 18.464828 23.44193
10.769642000000001 17.663099 25.053639
12.953966000000001 17.671651 24.052633
12.953966000000001 18.588572 25.435199
12.953966000000001 19.327449 23.94984
30.429224 18.529224 30.429224
24.479224 18.529224 12.579224
18.529224 30.429224 18.529224
18.529224 24.479224 30.429224
18.529224 12.579224 30.429224
30.429224 30.429224 24.479224
30.429224 24.479224 12.579224
12.579224 30.429224 24.479224
12.579224 30.429224 18.529224
30.429224 18.529224 24.479224
24.479224 30.429224 12.579224
24.479224 12.579224 18.529224
30.429224 12.579224 18.529224
18.529224 18.529224 30.429224
24.479224 30.429224 30.429224
30.429224 18.529224 18.529224
12.579224 12.579224 18.529224
18.529224 30.429224 30.429224
24.479224 18.529224 30.429224
12.579224 18.529224 30.429224
24.479224 24.479224 12.579224
18.529224 30.429224 24.479224
12.579224 18.529224 18.529224
24.479224 12.579224 30.429224
24.479224 30.429224 18.529224
30.429224 30.429224 18.529224
12.579224 18.529224 12.579224
12.579224 18.529224 24.479224
20.461914 27.640297999999998 29.715666
22.539821999999997 27.271337 29.70558
28.426499 21.923407 29.715666
26.489306 21.086081 29.70558
15.28454 26.430357 29.715666
15.82019 28.471659 29.70558
27.730725 16.576271 29.715666
27.181484 14.538584 29.70558
16.334673000000002 16.269718 29.715666
14.780381 14.842130000000001 29.70558
21.660633999999998 16.601396 29.715666
21.35081 14.513852 29.70558
28.410788999999998 21.050333000000002 13.292782
26.504974 21.956811 13.302868
21.47295 16.612551 13.292782
21.533329 14.503004 13.302868
16.532923 21.908182999999998 13.292782
14.581404 21.10481 13.302868
27.812718999999998 16.550474 13.292782
27.096314 14.565381 13.302868
26.396193 27.494279000000002 13.292782
28.505018 27.412482999999998 13.302868
14.69167 26.840192 13.292782
16.412074 28.062504 13.302868
13.292782 26.403307 27.325357
13.302868 28.498265 27.580275
13.292782 28.439237000000002 15.165915
13.302868 26.476598 15.941726
13.292782 14.527284 21.246487
13.302868 16.574688000000002 21.758317
13.292782 26.738844 20.72367
13.302868 28.166205 22.278171
13.292782 22.389889 20.924025
13.302868 20.625628 22.082133000000002
13.292782 21.758301 14.526373
13.302868 21.253767999999997 16.575587
29.715666 28.407563 15.093596999999999
29.70558 26.506487 16.00997
29.715666 15.764734 16.591875
29.70558 15.347058 14.523209
29.715666 26.398771 21.420244
29.70558 28.502377 21.589586999999998
29.715666 28.479453 27.718684
29.70558 26.436425 27.189657999999998
29.715666 22.560488 21.577299
29.70558 20.455246 21.429691000000002
29.715666 16.031418000000002 28.39938
29.70558 15.082008 26.514584
27.145808 13.292782 16.567098
27.762425 13.302868 14.548778
16.504393 13.292782 21.037091
14.609624 13.302868 21.966438
22.121132 13.292782 16.414723000000002
20.893084 13.302868 14.698409999999999
15.28894 13.292782 28.47924
15.819608 13.302868 26.436638
28.319751999999998 13.292782 26.844393
26.593427000000002 13.302868 28.058325999999997
14.523852999999999 13.292782 15.310566999999999
16.577168999999998 13.302868 15.798137
20.448071 29.715666 21.429569
22.553366 29.70558 21.576421
26.396117 29.715666 15.516227
28.505238000000002 29.70558 15.590008000000001
28.199734 29.715666 22.256054000000002
26.712371 29.70558 20.758862
16.073647 29.715666 16.476847
15.036612 29.70558 14.638807
16.133066 29.715666 20.617672
14.98094 29.70558 22.385845
15.476865 29.715666 28.510183
15.629107 29.70558 26.405271000000003
15.554224 15.554224 15.554224
15.554224 15.554224 21.504224
15.554224 15.554224 27.454224
15.554224 21.504224 15.554224
15.554224 21.504224 21.504224
15.554224 21.504224 27.454224
15.554224 27.454224 15.554224
15.554224 27.454224 21.504224
15.554224 27.454224 27.454224
21.504224 15.554224 15.554224
21.504224 15.554224 21.504224
21.504224 15.554224 27.454224
21.504224 21.504224 15.554224
21.504224 21.504224 21.504224
21.504224 21.504224 27.454224
21.504224 27.454224 15.554224
21.504224 27.454224 21.504224
21.504224 27.454224 27.454224
27.454224 15.554224 15.554224
27.454224 15.554224 21.504224
27.454224 15.554224 27.454224
27.454224 21.504224 15.554224
27.454224 21.504224 21.504224
27.454224 21.504224 27.454224
27.454224 27.454224 15.554224
27.454224 27.454224 21.504224
27.454224 27.454224 27.454224
22.967119 27.2181 32.769436999999996
26.10342 20.895006000000002 32.769436999999996
15.907778 28.893257 32.769436999999996
27.091089 14.117579 32.769436999999996
14.47875 14.534826 32.769436999999996
21.309725 14.085215 32.769436999999996
26.126212 22.161644 10.239011
21.523354 14.072519 10.239011
14.175272 20.961722 10.239011
26.929373000000002 14.168458 10.239011
28.933855 27.373545 10.239011
16.775537 28.293397000000002 10.239011
10.239011 28.927832 27.610094
10.239011 26.084878 16.120534
10.239011 16.997279 21.840987000000002
10.239011 28.473465 22.579846999999997
10.239011 20.278367 22.336745
10.239011 21.172604 16.998469
32.769436999999996 26.10944 16.176617
32.769436999999996 15.283798 14.09728
32.769436999999996 28.929225 21.646309
32.769436999999996 26.025718 27.060286
32.769436999999996 20.027834 21.377381
32.769436999999996 14.908459 26.120506000000002
27.909384 10.239011 14.14403
14.213725 10.239011 22.135794
20.660978 10.239011 14.335719
15.94931 10.239011 26.026035
26.228846 10.239011 28.28745
16.99041 10.239011 15.91917
22.983898 32.769436999999996 21.58411
28.935778 32.769436999999996 15.582767
26.39349 32.769436999999996 20.469497
14.805890999999999 32.769436999999996 14.275234
14.764852 32.769436999999996 22.758301
15.637899 32.769436999999996 25.974759000000002
