122_cspbbr3_methylammonium_5_0.60\122_cspbbr3_methylammonium_5_0.60.xyz
1.0
53.815057 0 0
0 53.815057 0
0 0 53.815057
Br C Cs H N Pb 
450 82 118 492 82 125 
Cartesian
41.929088500000006 15.183543500000003 20.817295500000004
29.835739500000003 21.086008500000002 26.756380500000002
38.706100500000005 41.595566500000004 38.754483500000006
32.999249500000005 17.808969500000003 27.0767625
29.717617500000003 15.102105500000002 38.7193135
32.698344500000005 15.048503500000002 41.988785500000006
41.800333499999994 15.1067505 38.595053500000006
32.9191615 20.818030500000003 18.1735715
41.6995785 14.803375500000001 32.8357715
32.7327545 20.851472500000003 24.1536405
32.8726755 18.1393875 21.0888245
41.688520499999996 14.891787500000001 14.811044500000001
32.8653215 20.8136385 12.164910500000001
29.6625255 20.7968005 20.957709500000004
32.769990500000006 18.173945500000002 14.9463015
30.061729500000002 21.081909500000002 14.816087500000002
41.9134835 14.944904500000002 26.6754645
38.945781499999995 41.9655685 27.0509935
32.6769455 18.1123345 32.823591500000006
38.9140735 38.7293145 35.9632105
29.7501755 27.002996500000002 32.6669855
32.9349505 23.718836500000002 32.7728605
32.9949055 26.791746500000002 29.8988075
38.93102450000001 35.9737145 38.7035195
29.778281500000002 27.0773585 27.089162500000004
33.095166500000005 23.8307755 27.002465500000003
35.694950500000004 38.701263499999996 39.0012375
32.9833025 26.8815475 23.751199500000002
38.95411849999999 38.718702500000006 41.7151015
30.0384835 26.903776500000003 21.106853500000003
32.698094499999996 20.780925500000002 29.9207585
32.87666350000001 23.654071500000004 20.9888145
32.7545545 26.8551155 17.833313500000003
30.040285500000003 26.823619500000003 15.191061500000002
32.9849335 24.0481285 15.135026500000002
32.97374550000001 27.1791525 11.986439500000001
38.6532105 41.9571155 20.8002855
32.9943055 21.068128500000004 41.96348449999999
29.845195500000003 20.7610975 38.879003499999996
33.0035645 17.8385295 38.6287605
32.9965545 21.084941500000003 35.6194895
29.8691575 20.873511500000003 33.0743555
38.6944525 41.5600235 32.8669275
38.8679815 41.665646499999994 14.768482500000001
32.895002500000004 12.281584500000001 38.9134985
38.71088949999999 24.074596500000002 39.0260445
41.7791455 21.0933605 15.127523500000002
41.6262505 32.8300445 21.060679500000003
26.7493395 35.941787500000004 32.7185445
26.7245685 39.022020499999996 29.9345815
41.994553499999995 32.9400405 26.7205665
24.140456500000003 38.857093500000005 26.770983500000003
26.755012500000003 35.8054125 26.749471500000002
26.9556305 38.669728500000005 24.050006500000002
41.959048499999994 32.8366015 32.95360650000001
23.985554500000003 39.002320499999996 21.006864500000002
41.933967499999994 32.782002500000004 38.9056815
26.8229195 35.997662500000004 21.169359500000002
27.0262985 38.6729835 18.000699500000003
23.9583755 38.6733385 33.0113865
41.7935555 39.025088499999995 15.102517500000001
27.0977335 36.035867499999995 15.104487500000001
26.926749500000003 39.0385945 12.126474500000002
41.60958049999999 38.6239205 21.017986500000003
26.8051005 32.7574575 41.6642155
24.0767695 32.92008250000001 38.622087500000006
41.540899499999995 38.846706499999996 26.983749500000002
26.7671435 29.729263500000002 38.917756499999996
27.1205805 32.84406250000001 35.669253499999996
41.626178499999995 38.825554499999996 33.0318585
24.0204285 32.755621500000004 33.0290535
41.976774500000005 38.99919250000001 38.831916500000005
26.966476500000002 29.733037500000002 32.9439495
24.0523475 38.643291500000004 15.041892500000001
41.9363075 32.991256500000006 15.0929575
26.817737500000003 38.9217855 35.9913085
26.785035500000003 35.640148499999995 38.8335665
41.8871815 21.1017395 20.8128025
29.7487895 14.874316500000003 32.960671500000004
32.6419745 11.902393500000002 32.9412395
32.884820500000004 15.2263905 29.727207500000002
32.9045055 26.741253500000003 35.890245500000006
29.6972045 15.131490500000002 26.7157315
32.9655305 11.945278500000002 26.7852795
33.075122500000006 15.169675500000002 23.9022695
41.6557985 20.959243500000003 32.6010095
41.74206649999999 21.1195055 38.936456500000006
29.8688585 15.059366500000001 20.779760500000002
33.0058085 12.228601500000002 20.838400500000002
32.7025685 14.948534500000001 18.1083375
41.5900805 27.0009635 14.932676500000001
29.7187485 15.144212500000002 15.033878500000002
32.9732205 12.260680500000001 15.033686500000002
33.0290825 15.190456500000002 12.116771500000002
41.899345499999995 27.0917955 20.8146995
41.8567985 26.7193265 32.851194500000005
26.817025500000003 41.549743500000005 38.8394445
26.738990500000003 41.628418499999995 32.7610945
27.0308295 41.727560499999996 26.7467815
41.9180355 26.9654345 38.612833499999994
26.7192195 41.699813500000005 20.850185500000002
26.9997225 41.980977499999995 15.147785500000001
26.7205195 38.951569500000005 41.79458150000001
24.0857655 38.834352499999994 38.623365500000006
32.8097265 14.8441725 35.716990499999994
41.8663775 20.858454500000004 27.0373895
38.915737500000006 38.874664499999994 29.709962500000003
29.9078045 27.1979535 38.8364605
38.59797450000001 21.120348500000002 23.9215725
35.71022549999999 20.9714505 21.106344500000002
38.79042749999999 17.952321500000004 20.659751500000002
38.681880500000005 21.088918500000002 18.2024225
38.6962305 33.033679500000005 23.755865500000002
38.9708155 29.7834645 27.0522685
35.7525155 20.7802955 15.019852500000002
38.945680499999995 17.887080500000003 15.221238500000002
38.6341235 20.9369355 11.856347500000002
35.9585505 32.7426495 26.795544500000002
38.8407555 15.1825185 41.949785500000004
35.984478499999994 15.166435500000002 38.7621475
38.60605150000001 12.059060500000001 38.6505435
38.706082499999994 15.112550500000001 35.72339649999999
38.760607500000006 32.6592615 30.0759985
35.779377499999995 15.180739500000001 32.8150465
38.7663175 12.247762500000002 33.0176405
38.9639875 14.791930500000001 29.7729205
38.9840935 29.890384500000003 32.7220305
35.9016355 15.205506500000002 26.7212865
38.7364195 11.975606500000001 27.0860285
39.0456935 15.129580500000001 23.8664935
35.6658695 32.8682565 32.622589500000004
35.697385499999996 14.904780500000001 20.846394500000002
38.957156499999996 12.214510500000001 21.1205895
35.741817499999996 32.67811450000001 21.139122500000003
38.836098500000006 15.178975500000002 18.178933500000003
38.640705499999996 17.9195865 26.952829500000004
38.7192345 29.757731500000002 21.1024645
36.0430475 27.0904485 32.8374485
38.9430055 24.0064265 32.647208500000005
38.9194265 27.150803500000002 29.8629305
35.6891835 26.890273500000003 38.65880249999999
38.961462499999996 27.056621500000002 41.7020885
35.7705205 27.0527295 27.1560205
38.956623500000006 23.7745545 26.8366405
38.8867405 26.7253095 23.9718905
35.93003950000001 26.813237500000003 21.1148905
38.8569485 32.7537325 12.283031500000002
39.036364500000005 23.8812265 20.941707500000003
38.7759875 27.0658385 17.7960655
38.7082915 30.014537500000003 15.134564500000002
35.882820499999994 26.857067500000003 15.236517500000001
35.91149849999999 32.9932565 14.820154500000001
38.943244500000006 24.1025105 14.8361385
39.0331865 27.0027785 12.075558500000001
38.6548585 20.802309500000003 41.751838500000005
35.77201650000001 20.8010135 38.7004505
38.635099499999995 18.183985500000002 38.937743499999996
38.9738505 21.0776645 35.6965335
35.5961875 20.956498500000002 33.0112375
38.9799515 17.8966535 33.058873500000004
38.6730725 32.7889455 18.2083735
38.6358745 21.1288085 29.820259500000002
35.855962500000004 20.7332405 26.9949465
32.6772915 23.752020500000004 38.9455315
38.802488499999995 33.0625275 36.0078305
36.00302550000001 15.083500500000001 15.167865500000001
32.7079495 38.868422499999994 12.1401955
36.0671495 38.954321500000006 20.927253500000003
32.991757500000006 33.0327585 41.8733125
30.0081315 32.69949750000001 38.805651499999996
32.8963235 29.6566715 38.672338499999995
32.769777500000004 32.6773035 35.8511575
38.648670499999994 39.00135349999999 23.847290500000003
30.1077525 32.846010500000006 32.7043695
32.887617500000005 30.003795500000003 33.050857500000006
32.9276095 32.9729215 29.7081985
38.740438499999996 35.6170575 27.0938245
29.7780655 32.7686705 26.783441500000002
33.0261755 30.0391005 26.821814500000002
36.0555425 38.9497075 26.8349675
32.9946245 32.988712500000005 24.0194575
29.935516500000002 33.048167500000005 20.9094115
32.900427500000006 29.9632605 20.781323500000003
32.7920425 32.895457500000006 18.1763675
38.7255335 27.0337645 36.010866500000006
29.6993465 32.8433855 14.845356500000001
32.6974165 30.021266500000003 14.8080715
33.0271175 32.809982500000004 11.838811500000002
38.852448499999994 35.9098255 32.6238135
35.906439500000005 38.8506215 32.6279905
32.9635785 26.767650500000002 41.888455500000006
32.8785395 36.0323705 15.028284500000002
38.9503625 29.7675875 38.782884499999994
29.7164605 38.630602499999995 15.069900500000001
33.0483115 38.91151549999999 18.070688500000003
38.650737500000005 11.839123500000001 14.958041500000002
38.8047095 15.184440500000001 11.977970500000001
35.802738500000004 32.7543695 38.654006499999994
38.9188125 32.9557215 41.641291499999994
32.7919995 41.961327499999996 38.6179745
32.9789785 41.5691595 32.9540425
32.9363795 41.646075499999995 26.714326500000002
26.782806500000003 32.9002605 29.7598145
32.6573295 41.772647500000005 14.939945500000002
33.120270500000004 38.787043499999996 41.785964500000006
29.7977825 38.7775235 39.084262499999994
32.728114500000004 35.687103500000006 38.871536500000005
32.7523665 38.7104865 36.056109500000005
38.9685685 38.7006425 11.857268500000002
30.0053015 38.690588500000004 32.9960045
38.6027385 35.6867185 14.963762500000001
33.011486500000004 35.661649499999996 33.021476500000006
32.9634985 38.602808499999995 29.934279500000002
35.980680500000005 38.6901055 15.048979500000002
29.6210945 38.7585625 26.9554205
33.003515500000006 35.718841499999996 26.851298500000002
32.6709055 38.8202615 23.768970500000002
29.715767500000002 38.8227395 20.8681015
38.645154500000004 38.93466050000001 17.957573500000002
33.0012345 35.9324075 20.8601085
38.802443499999995 35.989881499999996 21.116059500000002
32.9831865 41.6490795 20.9854545
41.816869499999996 27.0933205 27.0046985
23.8506445 32.6097455 26.8160315
21.052284500000003 15.147028500000001 41.6571965
18.1548465 15.056452500000002 38.778297499999994
20.8834465 12.015594500000002 38.590488500000006
20.9430315 14.921436500000002 36.0245185
17.8601865 14.843817500000002 32.8789465
20.7885375 12.185158500000002 32.9487705
21.0645145 15.032863500000001 29.697907500000003
18.1739415 14.945576500000001 27.081775500000003
21.0253185 11.9564885 26.718814500000004
21.1038485 15.254343500000001 23.9025535
17.8370685 15.186448500000001 20.842768500000002
21.159706500000002 11.952880500000001 20.7760795
21.1302595 14.912159500000001 18.0624715
17.949991500000003 15.076459500000002 15.173073500000001
20.8441055 20.746048500000004 11.885021500000002
20.814816500000003 11.8173445 14.958872500000002
15.223766500000002 41.7403695 38.9091985
14.792922500000001 41.6906635 32.6945215
14.832950500000003 41.6986685 26.9874815
15.019527500000002 41.930246499999996 20.8078095
14.860996500000002 42.0198915 14.954667500000001
15.0739005 38.906321500000004 41.9201795
11.949240500000002 39.0002695 38.679334499999996
15.041808500000002 35.7140225 38.597581500000004
15.118053500000002 38.9866535 35.8920945
12.1966195 39.026109500000004 32.9018195
15.150200500000002 35.745427500000005 33.0549905
15.2138065 38.6726745 29.877800500000003
12.069177500000002 39.0045885 26.8433905
15.140349500000001 35.989551500000005 26.8691725
21.101002500000003 14.903584500000001 11.8952845
20.8281825 17.941844500000002 14.740067500000002
18.1589725 21.049917500000003 15.054148500000002
20.720343500000002 20.8152035 17.992251500000002
18.054807500000003 32.8750815 15.211313500000001
21.0769755 29.965865500000003 14.869178500000002
21.1554165 32.9539885 12.192632500000002
20.716391500000004 26.9004675 41.6472505
18.107109500000004 26.9040335 39.0269995
21.068572500000002 24.1199945 38.9523885
21.0819335 26.803629500000003 35.6475705
17.9506905 26.7026445 33.0307825
20.904702500000003 23.8209445 32.6687875
21.1354315 26.910519500000003 29.710401500000003
18.1307645 27.073701500000002 26.7150195
21.004846500000003 23.7846595 26.6538765
20.8285015 27.1534815 24.020408500000002
18.114635500000002 26.7477215 21.092682500000002
21.0577365 24.0595995 21.0542535
21.1654315 26.900483500000004 18.0007975
18.054645500000003 27.0089815 14.796511500000001
21.054763500000004 17.851284500000002 20.861134500000002
17.8275305 20.995500500000002 21.0625435
20.768635500000002 21.0003415 23.8937285
20.8605325 17.8127785 26.7654855
18.181493500000002 20.7854585 26.957839500000002
20.856347500000002 21.094991500000003 29.725192500000002
14.973353500000002 38.677299500000004 24.1531635
20.891835500000003 17.792030500000003 32.6686655
20.9962245 20.7203535 35.72444350000001
20.9204815 18.1663585 38.885264500000005
18.038985500000003 21.102893500000004 38.579804499999995
21.1338215 20.9056745 41.654469500000005
21.1018885 26.8941325 11.847059500000002
21.019984500000003 23.921272500000004 15.229837500000002
17.9139725 20.7489095 32.925964500000006
12.274161500000002 38.6680425 20.933138500000002
15.152054500000002 35.766270500000005 21.070667500000003
15.084725500000001 38.599905500000006 17.9785235
12.220660500000001 21.053139500000004 38.6053895
14.875484500000002 18.149332500000003 38.62402349999999
14.880790500000002 20.690286500000003 35.823297499999995
11.830099500000001 21.0145405 32.7717665
15.226980500000002 18.0482255 32.732442500000005
15.054423500000002 21.200485500000003 29.963818500000002
12.237469500000001 21.0666635 27.0556145
14.8050115 17.8413925 26.9019455
14.788117500000002 21.056992500000003 23.9600675
11.935127500000002 20.7447085 20.971052500000003
15.144732500000002 17.9438295 21.0723005
14.838328500000001 20.8291625 17.9590685
12.141554500000002 21.129908500000003 15.210002500000002
15.104444500000001 17.8204475 14.961008500000002
15.021625500000003 21.1867105 12.2006235
15.188347500000003 15.005595500000002 41.78269950000001
11.954258500000002 15.183207500000002 38.9049215
15.0231705 14.842507500000002 11.889071500000002
15.137246500000002 11.959002500000002 15.195805500000002
12.079710500000001 15.155787500000002 15.1452825
15.168766500000002 15.111660500000001 18.0836125
14.844717500000002 11.9530185 20.8466695
12.013879500000002 14.775264500000002 21.002609500000002
14.7780175 20.936596500000004 41.6470815
15.099206500000001 15.024953500000002 24.1459595
12.005270500000002 14.789400500000001 26.9191665
15.282063500000001 15.004165500000001 29.8358795
14.887973500000001 12.114169500000001 32.7353055
11.786031500000002 14.9946625 33.0024765
14.867050500000001 14.837919500000002 35.901773500000004
15.2528225 12.0349695 38.943965500000004
14.8373795 11.887225500000001 26.863135500000002
20.8798645 33.0484075 17.8289675
15.1516075 24.1798045 14.969482500000002
15.148691500000002 27.061162500000002 18.156077500000002
12.057806500000002 38.5390565 15.008489500000001
14.832297500000001 35.9633795 14.8974255
14.864603500000001 38.604057499999996 11.982511500000001
15.136979500000002 32.8489355 41.9377135
11.862787500000001 32.8411165 38.7448325
14.829185500000001 29.756346500000003 38.9832215
15.030030500000002 33.12123750000001 35.707224499999995
11.740001500000002 32.813370500000005 32.8498635
15.147834500000002 30.003370500000003 32.939422500000006
15.0923355 33.010304500000004 29.7414235
12.174372500000002 32.6441095 26.886785500000002
14.9053505 29.6878245 26.7184955
15.135534500000002 33.0238165 23.795161500000003
11.821782500000001 32.6809945 20.871997500000003
14.780735500000002 29.8570035 20.920983500000002
15.012407500000002 32.686479500000004 17.8089315
11.896721500000002 32.935190500000004 15.195683500000001
15.184339500000002 23.8329525 20.7586215
12.150264500000002 26.8961335 21.0988225
15.159157500000001 26.786850500000003 23.803908500000002
14.883963500000002 23.769157500000002 26.946854500000004
11.9128295 26.759404500000002 26.7469195
14.946955500000001 26.7854345 30.0556805
12.108453500000001 26.7236285 14.842358500000001
15.201798500000002 23.7942225 32.897236500000005
15.106993500000002 27.0209605 35.9599795
15.147317500000002 24.0425235 38.92585149999999
12.037014500000002 26.7808865 38.94160049999999
15.093756500000001 26.7217125 41.7577405
14.763905500000002 32.6850345 12.0243575
15.1113715 30.0958775 14.954593500000001
11.956874500000001 27.0326045 32.9928645
21.1111185 29.919767500000003 21.199759500000003
15.104979500000002 26.664459500000003 11.887851500000002
17.9706355 32.6435285 20.8051175
27.0270245 20.7627505 23.9148275
23.792973500000002 21.1436725 20.9665795
26.9608075 18.0455915 20.7250225
26.8850605 21.0940445 17.818110500000003
24.0309755 21.099485500000004 14.864996500000002
27.121433500000002 17.9610135 15.126867500000001
26.7037945 21.0369845 11.833583500000001
26.7818335 15.005794500000002 41.97380149999999
23.8063545 15.159118500000002 38.7354215
27.0483325 12.102441500000001 38.9776095
27.084325500000002 15.107598500000002 35.9515255
23.833165500000003 14.894504500000002 32.9719705
27.0774335 11.844710500000001 32.7711745
27.119311500000002 18.090868500000003 26.809871500000003
26.940843500000003 14.822464500000002 30.0789715
26.7182845 12.057734500000002 26.7132945
26.8800225 15.084632500000001 24.1802245
23.759771500000003 15.155160500000001 20.9440105
26.9826425 11.894187500000001 21.085507500000002
26.6881695 14.940525500000001 17.9945735
23.6560855 14.925859500000001 15.001935500000002
26.6991215 12.185923500000001 15.059930500000002
26.8624385 14.931514500000002 12.205336500000001
20.9284345 41.71483550000001 38.55323249999999
21.160836500000002 41.755463500000005 32.9061615
20.719427500000002 41.932573500000004 26.819203500000004
21.092879500000002 42.002754499999995 20.881931500000004
21.038708500000002 41.784567499999994 15.192656500000002
23.8899675 15.083696500000002 27.078907500000003
21.063552500000004 39.038525500000006 41.76134449999999
24.0303265 21.1138875 27.081090500000002
27.101070500000002 17.918040500000004 32.7657555
26.752392500000003 29.7209365 26.873123500000002
26.8914985 32.8793525 23.6895935
23.9452665 32.676617500000006 21.118644500000002
27.1584715 29.8165295 20.998832500000002
26.760131500000004 32.997785500000006 18.118399500000002
23.9656325 32.5907295 15.122401500000002
26.651156500000003 29.998089500000003 14.9098985
26.7814565 32.832659500000005 11.896679500000001
26.748832500000002 26.904907500000004 41.9369365
23.7486235 27.0376515 38.659456500000005
27.1042285 24.0774455 38.819516500000006
26.9965715 27.0514715 35.7473835
23.746980500000003 27.1182075 32.905291500000004
26.830123500000003 21.055349500000002 30.0759395
27.0157415 23.829134500000002 33.025431499999996
26.9435235 23.7455745 26.769075500000003
26.888044500000003 27.061723500000003 23.765816500000003
23.992815500000003 26.9660275 21.157902500000002
26.737385500000002 24.0836675 20.8953765
26.890436500000003 26.762380500000003 18.1115415
24.1206245 26.8170075 15.220895500000001
26.768397500000003 23.8246445 14.8937585
27.0980965 26.978717500000002 11.993696500000002
27.015982500000003 20.8317185 41.6072985
23.764820500000003 21.028480500000004 38.6569705
26.880554500000002 18.0593405 38.985620499999996
26.708689500000002 21.025368500000003 35.930771500000006
23.904878500000002 20.821831500000002 32.653932499999996
26.7859565 26.788356500000003 30.0604875
17.962273500000002 38.6473445 38.6653505
23.8731745 26.8666495 27.1103025
20.8525155 30.068065500000003 26.731825500000003
20.913401500000003 35.6295305 21.151184500000003
17.8516695 38.780105500000005 21.0999255
21.134515500000003 38.958530499999995 23.784320500000003
21.1990145 38.9192195 17.8974715
20.725656500000003 32.8071535 29.7034065
21.153238500000004 35.6866175 26.9282335
18.2281085 32.7604455 26.9987465
17.9670935 32.7693365 33.028343500000005
17.885780500000003 38.8273875 26.750776500000004
17.968550500000003 38.908572500000005 15.185301500000001
21.121642500000004 35.8887895 15.080461500000002
21.052137500000004 38.975530500000005 30.000519500000003
20.8203335 35.6941035 33.0682925
20.9181275 38.9064355 12.1983305
20.9934565 30.0876555 32.8397475
18.214482500000003 32.9343115 38.66839349999999
20.8375485 35.8401535 38.6673715
17.8010005 38.6952125 32.687936500000006
20.8182465 33.026778500000006 41.9150295
20.872788500000002 29.858297500000003 39.062453500000004
20.893577500000003 33.035711500000005 36.036475499999995
20.786332500000004 38.627868500000005 35.738784499999994
21.0033675 32.6679455 23.9383655
10.9707225 42.7443995 29.9085605
35.8030115 29.963269500000003 10.5723075
42.883799499999995 29.8340345 10.945862500000002
29.7988065 10.959826500000002 42.8658185
35.838646499999996 43.19323249999999 29.8347555
29.8226015 18.019817500000002 10.584259500000002
35.796381499999995 17.928118500000004 43.312833499999996
43.2664425 18.0703335 35.8314245
17.9277315 17.9092425 10.591736500000001
23.9076905 43.333294499999994 35.8408625
29.9412665 10.930428500000001 10.923413500000002
29.828999500000002 42.868416499999995 42.8613625
35.7539795 10.562201500000002 18.0223905
43.342611500000004 18.0136405 29.838403500000002
42.749140499999996 35.848875500000005 11.057706500000002
10.942694500000002 17.946670500000003 11.068235500000002
17.9722185 42.7601375 42.8868195
23.966092500000002 23.8522505 43.2647745
17.979330500000003 10.648939500000001 23.9677235
42.8976205 17.944741500000003 10.9161975
43.2964465 17.9184255 18.0200555
10.944197500000001 42.7430755 23.8786375
17.918071500000003 23.9569535 10.496474500000001
29.9277355 43.324682499999994 29.935637500000002
23.8744445 42.8762115 42.85204950000001
18.0195925 17.932928500000003 43.2034505
10.999825500000002 42.904355499999994 17.9128785
23.983736500000003 17.9598915 10.4877455
29.897828500000003 29.825499500000003 43.309002500000005
43.2591005 35.781720500000006 35.770469500000004
10.982338500000001 11.0180465 23.839604500000004
11.026575500000002 10.973935500000001 29.9453175
17.8958635 43.3102775 29.8936135
29.828681500000002 23.9146015 43.1936115
43.270970500000004 23.900168500000003 29.9507085
10.618191500000002 29.9446525 29.8881535
17.9123005 11.000758500000002 42.778185500000006
10.621295500000002 35.8743135 18.0199795
23.8526285 43.2162445 18.0349815
29.8046565 43.2311045 23.964212500000002
23.882235500000004 10.602935500000001 35.8894985
35.8144095 42.7292745 10.971383500000002
43.3179025 29.8983375 35.781009499999996
42.769259500000004 10.974192500000001 35.8986455
10.5979515 18.0763365 29.886426500000002
43.2152485 35.7777895 29.859309500000002
35.801679500000006 10.587325500000002 35.7698025
10.470398500000002 23.9672095 17.9354255
24.0006205 29.903298500000002 43.3102155
43.325301499999995 23.8845105 23.871025500000002
11.032531500000001 10.9272135 35.8412575
10.533847500000002 29.9498755 23.9660645
35.804278499999995 35.898874500000005 10.535264500000002
10.482534500000002 35.8491465 23.9849345
42.7553695 42.895687499999994 17.945384500000003
35.7710915 18.0398065 10.510954500000002
35.8986415 29.833607500000003 43.2997635
10.996309500000002 35.804190500000004 42.749354499999995
43.309756500000006 29.940579500000002 23.9760725
35.8091635 23.8743545 43.3342315
10.578841500000001 23.8535455 23.937984500000002
11.030764500000002 24.0298305 10.9874275
43.3210155 23.913916500000003 17.9165305
17.911724500000002 35.8985095 43.2371325
23.9704795 42.872206500000004 10.936220500000001
18.031772500000002 42.8829865 10.972191500000001
29.837809500000002 10.616660500000002 35.7612845
35.77643449999999 10.547889500000002 29.943078500000002
17.9924035 43.1888225 23.967987500000003
10.586371500000002 35.7800395 29.949807500000002
42.9037335 29.924858500000003 42.7769565
23.8751085 23.903934500000002 10.520775500000001
35.88781349999999 43.1929265 17.932409500000002
23.881373500000002 17.931047500000002 43.242315500000004
17.9481445 10.493763500000002 29.903116500000003
11.084095500000002 42.8235945 35.8681715
43.1999785 29.8775045 29.927326500000003
23.9523845 10.488168500000002 29.8015295
42.89761849999999 42.7727915 35.794265499999995
43.3337655 29.8107715 17.996668500000002
29.8390515 35.890336500000004 10.6020055
29.9161225 10.621359500000002 29.9205255
11.840177500000001 18.070947500000003 41.3447465
12.077545500000001 17.575506500000003 23.565083500000004
36.1683915 41.35545449999999 35.797463500000006
18.321261500000002 24.2408135 23.613945500000003
29.930605500000002 29.7890365 24.428538500000002
36.28269950000001 35.658814500000005 23.916722500000002
24.199776500000002 24.213068500000002 29.612787500000003
35.5498135 41.7153005 23.5459985
24.3663925 35.8473525 41.9081455
24.2789165 24.2392315 18.1315835
35.617104499999996 36.0595845 41.524178500000005
18.237333500000002 23.524515500000003 30.075755500000003
36.136135499999995 36.03300350000001 29.7154135
12.2731565 17.933699500000003 35.458560500000004
35.96422749999999 41.460551499999994 42.05794950000001
23.661870500000003 35.590065499999994 35.9248085
17.9739425 30.383540500000002 35.9962405
36.1085825 36.2870755 36.0130135
29.5402205 36.0241065 29.501120500000003
24.088194500000004 35.8791595 30.3122285
23.4986025 24.0639335 24.125661500000003
12.309128500000002 18.2182515 18.1146645
30.105404500000002 35.5745175 23.698419500000004
23.6342515 30.104851500000002 29.4719525
30.212336500000003 30.126670500000003 35.776497500000005
41.848993500000006 41.380153500000006 30.0287575
41.57191949999999 41.4968805 24.084066500000002
41.626878500000004 36.20515949999999 41.690993500000005
17.9651585 29.8630135 17.602397500000002
17.907768500000003 29.969964500000003 23.4647155
23.905667500000003 29.529332500000002 23.6560425
41.8967255 35.770182500000004 23.527087500000004
12.389777500000001 11.7598075 17.9791625
24.4086305 30.049965500000003 35.584578500000006
30.0461335 23.4729335 18.340187500000003
17.4789885 29.8107735 11.813375500000001
24.358716500000003 29.8602235 17.854209500000003
41.570466499999995 12.365751500000002 17.8602935
30.061156500000003 30.027407500000002 30.349321500000002
23.7071255 36.179785499999994 12.198065500000002
42.1167425 23.522001500000002 35.9532215
17.646006500000002 24.134411500000002 42.0398275
30.1232505 35.7517345 17.6314025
24.0711915 30.0683925 12.507032500000001
41.8000935 23.892918500000004 12.448049500000002
24.1441535 36.0345315 18.2103645
18.3228185 29.535121500000002 30.0360215
41.74031050000001 17.7009715 24.3412885
17.688997500000003 24.262687500000002 36.0739985
23.967109500000003 23.5788105 36.279852500000004
30.170445500000003 36.1778405 35.962685500000006
41.8501565 11.734439500000002 29.582984500000002
24.073416500000004 35.86229349999999 24.404696500000004
41.4974965 24.283563500000003 41.557027500000004
23.566851500000002 41.684580499999996 23.680861500000002
17.5977445 12.072174500000001 35.8558915
35.567916499999995 35.9818915 17.756139500000003
35.567381499999996 11.672687500000002 24.1333425
29.5948725 17.8684365 17.5989115
17.8299725 17.6421515 24.3611805
36.03084749999999 23.643079500000002 24.048413500000002
29.997992500000002 24.1576905 30.1655185
23.947099500000004 12.469783500000002 23.6366395
29.5407015 17.8271875 23.8569335
35.502067499999995 24.253632500000002 17.6184225
12.258100500000001 35.5473995 36.064265500000005
18.267681500000002 35.961699499999995 30.311567500000002
18.2602325 17.664919500000003 17.866260500000003
23.8114525 12.389997500000002 18.425761500000004
35.8067825 23.9338315 12.491482500000002
30.091455500000002 17.8749055 30.207915500000002
29.6395805 23.6896875 23.5337755
23.8535595 12.3701535 11.555064500000002
36.10965349999999 18.1067085 36.1187685
29.5205205 18.1682765 35.84154649999999
17.605909500000003 12.104286500000002 11.797859500000001
35.842194500000005 17.611974500000002 29.473868500000002
17.7653415 36.1486295 35.75578350000001
17.401951500000003 12.089918500000001 17.931301500000004
30.041435500000002 17.740635500000003 41.3759395
36.12986050000001 18.1401295 23.782564500000003
36.1110415 11.621841500000002 41.7514245
30.1480485 24.2005035 11.690682500000001
18.048627500000002 42.264362500000004 18.1645535
36.1930825 17.977535500000002 18.323813500000004
29.5860965 29.654384500000003 17.7927785
36.1842865 23.9866005 29.6144485
18.3306995 35.389587500000005 23.782142500000003
17.9552105 41.7734095 36.3047725
36.0303715 23.8761495 36.1946835
23.884169500000002 18.3270465 35.543225500000005
17.6323005 23.5812675 18.2584555
18.214835500000003 17.7547085 30.0985455
29.532867500000002 35.8119815 42.1442165
18.340398500000003 35.6344565 12.186182500000001
11.646274500000002 24.193071500000002 42.0788675
35.6352555 30.2245405 35.6542965
11.814049500000001 29.8328285 12.428375500000001
23.481166500000004 18.310129500000002 29.9906685
30.1557105 41.57406949999999 17.6915435
35.8510165 29.6673855 30.358905500000002
11.682668500000002 29.9347555 17.8879555
30.020644500000003 30.186093500000002 12.222867500000001
23.649013500000002 17.572225500000002 24.1008795
30.3794125 11.850859500000002 17.7402255
30.441032500000002 41.7293095 35.736791499999995
12.260693500000002 36.3080015 11.729434500000002
29.501130500000002 23.8573005 35.37893149999999
11.909917500000002 30.2432075 41.51693950000001
36.179770500000004 29.697800500000003 24.0636365