131_cspbbr3_3\131_cspbbr3_3.xyz
1.0
38.821507999999994 0 0
0 38.821507999999994 0
0 0 38.821507999999994
Br Cs Pb 
108 54 27 
Cartesian
19.16605 25.489438999999997 10.598109
25.235934999999998 13.568296999999998 16.617303999999997
19.590671 19.446683 28.238271999999995
22.507281999999996 13.571651999999998 13.652193999999998
25.440906 10.582599999999998 13.303656999999998
28.344909 13.641625999999999 25.582603999999996
25.302923999999997 13.495 10.727258999999998
28.365390999999995 19.229712999999997 13.267389999999999
19.484721999999998 28.172582999999996 25.47611
19.155766 28.429730999999997 19.371505
28.521884 19.420184999999996 19.471162999999997
19.237845999999998 28.208295999999997 13.537080999999999
19.452852999999998 25.264862 28.568891
28.16964 13.380532999999998 19.271906
19.28488 22.241555999999996 25.30478
19.453694999999996 25.515521 22.567361
28.423573999999995 25.579969999999996 25.270406
28.573549 19.40339 25.284939
16.592176000000002 25.183068 19.263984999999998
19.161831 22.460077999999996 19.264344
28.625262 25.360824 13.499877999999997
16.235801 25.436915 13.267431999999998
28.247144999999996 25.533493 19.306074000000002
19.623098 22.527461000000002 13.560249999999998
16.259883 25.224337999999996 25.512262
22.241873 25.364635999999997 19.206747999999997
22.280771 13.561924999999999 19.591113999999997
28.202756 13.670115999999998 13.382283
25.30621 22.250011999999998 19.559181000000002
25.231845999999997 25.227762999999996 16.579105
25.096697 25.277225 22.298409999999997
22.628116 25.326997 13.627341999999999
25.569795999999997 22.39542 13.634959999999998
25.258102 25.541157 10.556241999999997
25.497107 22.463161 25.159982999999997
25.491034 19.338927999999996 28.473861999999997
22.46819 25.501520999999997 25.49268
22.285398 19.244799 25.355126999999996
25.497061000000002 16.520272 25.276345999999997
25.093776999999996 19.458995 22.309388
25.199764000000002 10.538177999999998 19.586008
25.508175 25.308189 28.516722
25.228484 16.587148999999997 19.572899999999997
25.322488999999997 19.331648 16.623398
25.203846 28.533403999999997 13.431419999999997
25.404401 28.220593 19.248039999999996
22.273263 19.354627 13.257592999999998
25.398289 16.692158 13.599246999999998
25.571221 19.605558000000002 10.405370999999999
25.208850999999996 28.382463 25.238053
25.357146 13.722113999999998 28.399738
22.384971999999998 13.616720999999998 25.524827000000002
25.212758 10.332429999999999 25.50643
25.175755000000002 13.626693999999999 22.282235
22.421917 19.448855000000002 19.207707
16.524757 19.361874 25.577194
19.437019999999997 25.588628999999997 16.462775999999998
19.533690999999997 19.503133 22.535738000000002
13.236043999999998 28.139423999999998 13.462735999999998
13.552010999999998 25.523586 28.453573
10.610869999999998 25.266227 25.491185
13.291291 22.534971999999996 25.525391
13.372723999999998 25.246256000000002 22.556342
10.309711999999998 25.510596999999997 19.280797
19.244293999999996 16.535795 25.480891
13.278914999999998 25.496000000000002 16.437176
10.253631999999998 25.373413 13.521669999999999
13.463194999999997 22.575204 13.660879999999999
13.467906999999999 25.51522 10.580457
13.420200999999999 19.514504000000002 28.187695999999995
10.574188999999999 19.193291000000002 25.194519999999997
13.320013999999999 16.310553 25.554722999999996
13.262040999999998 19.217508000000002 22.445182000000003
10.291765999999999 19.241214 19.562151
13.436165999999998 16.42581 19.658980999999997
13.465161999999998 13.700660999999998 10.315061999999998
13.470475999999998 10.709064999999999 13.404462999999998
10.363168999999997 13.576977999999999 13.568149999999997
13.352869999999998 13.461702999999998 16.584593999999996
13.603156999999998 10.566598999999998 19.221891
10.315699999999998 13.310438999999999 19.554195
13.376264999999998 28.145621 19.586850999999996
13.325539999999998 13.493390999999997 22.218123999999996
10.447827999999998 13.717878999999998 25.483106
13.659926999999998 13.540069999999998 28.316961
13.653462 19.470653999999996 10.417935999999997
13.426415999999998 16.625284 13.273704999999998
10.687474999999997 19.612566 13.544333999999997
13.389110999999998 19.466696999999996 16.279908
13.606401999999997 10.565777999999998 25.118763
13.695497999999999 28.230298999999995 25.390181999999996
13.602618999999999 22.232878 19.486916
19.456397000000003 13.371066999999998 28.136693
19.236576999999997 16.26354 13.478231
19.566336999999997 13.495124999999998 10.242452999999998
16.348681 13.571639 25.580816
19.326755999999996 10.371093999999998 25.526842000000002
16.316652999999995 19.531138 13.321005999999999
19.559168 13.325189999999997 22.374847000000003
19.264891 19.205782 16.379995
19.596911 16.618038999999996 19.334212
16.355928999999996 13.361397999999998 19.240595999999996
16.667251999999998 19.460369999999998 19.479597
19.559956 10.348399999999998 19.510551999999997
19.530901999999998 19.285603000000002 10.349435999999999
19.596013 10.477919999999997 13.247613999999999
16.540273 13.626040999999999 13.613313999999997
19.174298999999998 13.282996999999998 16.456959999999995
10.147646999999997 10.897593999999998 16.298966
22.766458999999998 28.276133 10.066595999999999
28.258446999999997 22.283564999999996 28.888104
10.180098999999998 16.79941 10.751340999999998
22.751267 28.030248 16.217706999999997
16.185556999999996 16.337634 28.008944999999997
28.811599 28.019624999999998 16.527127
22.686821000000002 28.228682999999997 22.193613999999997
28.555136999999995 22.501029000000003 21.902361999999997
16.124243999999997 16.691094 22.60944
16.692844 22.472654 16.712665
28.542702 10.692014999999998 16.846368999999996
16.534093 16.213566 16.046825999999996
28.493984999999995 10.167741999999999 22.572916
28.559474 22.118294999999996 16.700676
22.217124999999996 22.737226999999997 28.384436
15.960261999999998 22.319674 10.268625999999998
27.839489 22.464351999999998 10.691309999999998
28.062007 16.048164999999997 16.473150999999998
28.649668 16.362415 28.098110999999996
28.552321999999997 16.550083 22.686555
22.73514 28.017210999999996 28.435209999999998
27.935122 16.144849 10.623700999999999
16.040878 10.163013999999999 10.619828999999998
10.817752999999998 16.589509999999997 16.185212
21.842948999999997 10.491576999999998 22.269118
10.841448999999999 28.454375999999996 22.273151999999996
22.667600999999998 10.907112999999999 16.240069
10.262606999999997 28.377389 16.02472
22.034039 10.460670999999998 28.714493999999995
15.954649999999999 10.764400999999998 16.589672999999998
22.916128 16.533136999999996 10.750081999999999
10.766992999999998 22.252831 28.063611
22.740305 10.437065999999998 10.821707999999997
22.977797000000002 16.515670999999998 16.498646
10.328411999999998 22.064754 22.174025999999998
16.75038 28.119949 28.010036999999997
16.108379 28.021991 22.740997999999998
22.0642 16.366861 22.717549999999996
10.006953999999999 22.380031000000002 16.594172999999998
16.280482 10.129412999999998 22.432567999999996
16.094614 28.284244 16.644931
22.645227 16.819549000000002 28.550205
10.270785999999998 22.656951 10.267586999999999
16.208290999999996 28.425379 10.183415999999998
10.295005999999999 16.643924999999996 27.991819999999997
16.134318 22.123917 27.981828
22.410772 22.316474 16.948307999999997
10.242719999999998 16.085378999999996 22.736235
16.255786 10.075252999999998 27.964126
22.393712 22.681796 22.615132000000003
16.879998999999998 16.560091 10.319594999999998
16.106930999999996 22.456899 22.136860999999996
27.951612999999995 28.79043 22.488109
13.633636999999998 13.493758999999999 13.200812999999998
25.175311 25.489675999999996 13.183729999999999
13.341526999999997 25.182288 13.287783
25.429031000000002 19.462665 25.661388000000002
13.440662999999999 25.057861000000003 19.310088
19.255421 19.526953 25.223754999999997
13.696831999999999 25.436371 25.415943
25.614623 19.414567999999996 13.494321999999999
25.552087999999998 13.379291999999998 25.550128
25.621964999999996 25.555639 19.30874
19.617835999999997 13.419948999999997 13.711529999999998
19.200646999999996 13.309902 19.502907999999998
25.356426999999996 13.692402999999999 13.572447999999998
19.330080000000002 13.290873999999999 25.234007
19.568188 25.129115999999996 25.39983
19.630668999999997 19.403914 13.578423999999998
19.605015 25.156295999999998 19.528920999999997
19.643831999999996 19.422916 19.406155999999996
19.377527999999998 25.196629 13.272814999999998
25.190579 13.709410999999998 19.368207999999996
13.455796999999999 19.315382999999997 25.014663
25.419058999999997 19.308275000000002 19.190708
13.242565999999998 19.253788 13.295432999999997
13.220285999999998 13.319637999999998 25.448777
13.320303999999998 13.681382999999999 19.363571
25.224908999999997 25.310395 25.172865
13.669937 19.521928000000003 19.171335999999997
