3_train/186_cspbbr3_MA-PhP_3_0.60\186_cspbbr3_MA-PhP_3_0.60.xyz
1.0
44.215118000000004 0 0
0 44.215118000000004 0
0 0 44.215118000000004
Br C Cs H N O P Pb 
72 245 25 390 29 108 36 27 
Cartesian
16.157559 13.182559 16.157559
13.182559 16.157559 16.157559
16.157559 16.157559 19.132559
13.182559 16.157559 22.107559000000002
16.157559 16.157559 25.082558999999996
16.157559 16.157559 31.032559
16.157559 19.132559 16.157559
16.157559 22.107559000000002 19.132559
16.157559 19.132559 22.107559000000002
16.157559 22.107559000000002 25.082558999999996
16.157559 19.132559 28.057558999999998
13.182559 22.107559000000002 28.057558999999998
16.157559 22.107559000000002 31.032559
16.157559 25.082558999999996 16.157559
16.157559 28.057558999999998 19.132559
16.157559 25.082558999999996 22.107559000000002
16.157559 28.057558999999998 25.082558999999996
16.157559 25.082558999999996 28.057558999999998
16.157559 31.032559 22.107559000000002
22.107559000000002 13.182559 16.157559
19.132559 16.157559 16.157559
22.107559000000002 16.157559 19.132559
19.132559 16.157559 22.107559000000002
22.107559000000002 16.157559 25.082558999999996
19.132559 16.157559 28.057558999999998
22.107559000000002 19.132559 16.157559
19.132559 22.107559000000002 16.157559
22.107559000000002 22.107559000000002 19.132559
22.107559000000002 19.132559 22.107559000000002
19.132559 22.107559000000002 22.107559000000002
22.107559000000002 22.107559000000002 25.082558999999996
22.107559000000002 19.132559 28.057558999999998
19.132559 22.107559000000002 28.057558999999998
22.107559000000002 28.057558999999998 13.182559
22.107559000000002 25.082558999999996 16.157559
19.132559 28.057558999999998 16.157559
22.107559000000002 28.057558999999998 19.132559
22.107559000000002 25.082558999999996 22.107559000000002
19.132559 28.057558999999998 22.107559000000002
22.107559000000002 28.057558999999998 25.082558999999996
22.107559000000002 25.082558999999996 28.057558999999998
19.132559 28.057558999999998 28.057558999999998
22.107559000000002 31.032559 16.157559
28.057558999999998 16.157559 13.182559
25.082558999999996 16.157559 16.157559
28.057558999999998 16.157559 19.132559
28.057558999999998 13.182559 22.107559000000002
25.082558999999996 16.157559 22.107559000000002
28.057558999999998 16.157559 25.082558999999996
25.082558999999996 16.157559 28.057558999999998
28.057558999999998 16.157559 31.032559
28.057558999999998 22.107559000000002 13.182559
28.057558999999998 19.132559 16.157559
25.082558999999996 22.107559000000002 16.157559
28.057558999999998 22.107559000000002 19.132559
28.057558999999998 19.132559 22.107559000000002
25.082558999999996 22.107559000000002 22.107559000000002
28.057558999999998 22.107559000000002 25.082558999999996
28.057558999999998 19.132559 28.057558999999998
25.082558999999996 22.107559000000002 28.057558999999998
28.057558999999998 25.082558999999996 16.157559
25.082558999999996 28.057558999999998 16.157559
28.057558999999998 28.057558999999998 19.132559
28.057558999999998 25.082558999999996 22.107559000000002
25.082558999999996 28.057558999999998 22.107559000000002
28.057558999999998 28.057558999999998 25.082558999999996
28.057558999999998 25.082558999999996 28.057558999999998
25.082558999999996 28.057558999999998 28.057558999999998
28.057558999999998 31.032559 22.107559000000002
31.032559 16.157559 28.057558999999998
31.032559 22.107559000000002 16.157559
31.032559 28.057558999999998 28.057558999999998
29.643233000000002 22.725682999999997 34.900778
29.609436000000002 22.712603 33.509155
29.057558999999998 21.607559000000002 32.828397
28.612418999999996 20.524348 34.953913
29.146592999999996 21.633498 35.623578
28.56104 20.510553 33.563081
23.693233 28.675683 34.900778
23.659436 28.662602999999997 33.509155
23.107559000000002 27.557558999999998 32.828397
22.662419 26.474348 34.953913
23.196593 27.583498 35.623578
22.611039999999996 26.460552999999997 33.563081
29.643233000000002 28.675683 34.900778
29.609436000000002 28.662602999999997 33.509155
29.057558999999998 27.557558999999998 32.828397
28.612418999999996 26.474348 34.953913
29.146592999999996 27.583498 35.623578
28.56104 26.460552999999997 33.563081
23.693233 22.725682999999997 34.900778
23.659436 22.712603 33.509155
23.107559000000002 21.607559000000002 32.828397
22.662419 20.524348 34.953913
23.196593 21.633498 35.623578
22.611039999999996 20.510553 33.563081
23.693233 16.775683 34.900778
23.659436 16.762603 33.509155
23.107559000000002 15.657559 32.828397
22.662419 14.574347999999999 34.953913
23.196593 15.683497999999998 35.623578
22.611039999999996 14.560552999999999 33.563081
17.743232999999996 28.675683 34.900778
17.709435999999997 28.662602999999997 33.509155
17.157559 27.557558999999998 32.828397
16.712418999999997 26.474348 34.953913
17.246592999999997 27.583498 35.623578
16.66104 26.460552999999997 33.563081
20.521884999999997 22.725682999999997 9.31434
20.555681999999997 22.712603 10.705963
21.107559000000002 21.607559000000002 11.386721
21.552698999999997 20.524348 9.261205
21.018524999999997 21.633498 8.591539999999998
21.604078 20.510553 10.652037
14.571885 22.725682999999997 9.31434
14.605682 22.712603 10.705963
15.157559 21.607559000000002 11.386721
15.602699 20.524348 9.261205
15.068525 21.633498 8.591539999999998
15.654078 20.510553 10.652037
14.571885 28.675683 9.31434
14.605682 28.662602999999997 10.705963
15.157559 27.557558999999998 11.386721
15.602699 26.474348 9.261205
15.068525 27.583498 8.591539999999998
15.654078 26.460552999999997 10.652037
26.471885 28.675683 9.31434
26.505682 28.662602999999997 10.705963
27.057558999999998 27.557558999999998 11.386721
27.502699 26.474348 9.261205
26.968525 27.583498 8.591539999999998
27.554077999999997 26.460552999999997 10.652037
20.521884999999997 16.775683 9.31434
20.555681999999997 16.762603 10.705963
21.107559000000002 15.657559 11.386721
21.552698999999997 14.574347999999999 9.261205
21.018524999999997 15.683497999999998 8.591539999999998
21.604078 14.560552999999999 10.652037
14.571885 16.775683 9.31434
14.605682 16.762603 10.705963
15.157559 15.657559 11.386721
15.602699 14.574347999999999 9.261205
15.068525 15.683497999999998 8.591539999999998
15.654078 14.560552999999999 10.652037
9.31434 22.725682999999997 17.743232999999996
10.705963 22.712603 17.709435999999997
11.386721 21.607559000000002 17.157559
9.261205 20.524348 16.712418999999997
8.591539999999998 21.633498 17.246592999999997
10.652037 20.510553 16.66104
9.31434 28.675683 23.693233
10.705963 28.662602999999997 23.659436
11.386721 27.557558999999998 23.107559000000002
9.261205 26.474348 22.662419
8.591539999999998 27.583498 23.196593
10.652037 26.460552999999997 22.611039999999996
9.31434 22.725682999999997 23.693233
10.705963 22.712603 23.659436
11.386721 21.607559000000002 23.107559000000002
9.261205 20.524348 22.662419
8.591539999999998 21.633498 23.196593
10.652037 20.510553 22.611039999999996
9.31434 28.675683 17.743232999999996
10.705963 28.662602999999997 17.709435999999997
11.386721 27.557558999999998 17.157559
9.261205 26.474348 16.712418999999997
8.591539999999998 27.583498 17.246592999999997
10.652037 26.460552999999997 16.66104
9.31434 16.775683 29.643233000000002
10.705963 16.762603 29.609436000000002
11.386721 15.657559 29.057558999999998
9.261205 14.574347999999999 28.612418999999996
8.591539999999998 15.683497999999998 29.146592999999996
10.652037 14.560552999999999 28.56104
9.31434 28.675683 29.643233000000002
10.705963 28.662602999999997 29.609436000000002
11.386721 27.557558999999998 29.057558999999998
9.261205 26.474348 28.612418999999996
8.591539999999998 27.583498 29.146592999999996
10.652037 26.460552999999997 28.56104
34.900778 16.775683 20.521884999999997
33.509155 16.762603 20.555681999999997
32.828397 15.657559 21.107559000000002
34.953913 14.574347999999999 21.552698999999997
35.623578 15.683497999999998 21.018524999999997
33.563081 14.560552999999999 21.604078
34.900778 22.725682999999997 20.521884999999997
33.509155 22.712603 20.555681999999997
32.828397 21.607559000000002 21.107559000000002
34.953913 20.524348 21.552698999999997
35.623578 21.633498 21.018524999999997
33.563081 20.510553 21.604078
34.900778 22.725682999999997 26.471885
33.509155 22.712603 26.505682
32.828397 21.607559000000002 27.057558999999998
34.953913 20.524348 27.502699
35.623578 21.633498 26.968525
33.563081 20.510553 27.554077999999997
34.900778 28.675683 20.521884999999997
33.509155 28.662602999999997 20.555681999999997
32.828397 27.557558999999998 21.107559000000002
34.953913 26.474348 21.552698999999997
35.623578 27.583498 21.018524999999997
33.563081 26.460552999999997 21.604078
34.900778 28.675683 14.571885
33.509155 28.662602999999997 14.605682
32.828397 27.557558999999998 15.157559
34.953913 26.474348 15.602699
35.623578 27.583498 15.068525
33.563081 26.460552999999997 15.654078
34.900778 16.775683 14.571885
33.509155 16.762603 14.605682
32.828397 15.657559 15.157559
34.953913 14.574347999999999 15.602699
35.623578 15.683497999999998 15.068525
33.563081 14.560552999999999 15.654078
17.743232999999996 9.31434 28.675683
17.709435999999997 10.705963 28.662602999999997
17.157559 11.386721 27.557558999999998
16.712418999999997 9.261205 26.474348
17.246592999999997 8.591539999999998 27.583498
16.66104 10.652037 26.460552999999997
23.693233 9.31434 28.675683
23.659436 10.705963 28.662602999999997
23.107559000000002 11.386721 27.557558999999998
22.662419 9.261205 26.474348
23.196593 8.591539999999998 27.583498
22.611039999999996 10.652037 26.460552999999997
29.643233000000002 9.31434 16.775683
29.609436000000002 10.705963 16.762603
29.057558999999998 11.386721 15.657559
28.612418999999996 9.261205 14.574347999999999
29.146592999999996 8.591539999999998 15.683497999999998
28.56104 10.652037 14.560552999999999
17.743232999999996 9.31434 22.725682999999997
17.709435999999997 10.705963 22.712603
17.157559 11.386721 21.607559000000002
16.712418999999997 9.261205 20.524348
17.246592999999997 8.591539999999998 21.633498
16.66104 10.652037 20.510553
23.693233 9.31434 22.725682999999997
23.659436 10.705963 22.712603
23.107559000000002 11.386721 21.607559000000002
22.662419 9.261205 20.524348
23.196593 8.591539999999998 21.633498
22.611039999999996 10.652037 20.510553
29.643233000000002 9.31434 28.675683
29.609436000000002 10.705963 28.662602999999997
29.057558999999998 11.386721 27.557558999999998
28.612418999999996 9.261205 26.474348
29.146592999999996 8.591539999999998 27.583498
28.56104 10.652037 26.460552999999997
23.693233 34.900778 27.439434999999996
23.659436 33.509155 27.452515
23.107559000000002 32.828397 28.557558999999998
22.662419 34.953913 29.640769999999996
23.196593 35.623578 28.531619999999997
22.611039999999996 33.563081 29.654564999999998
23.693233 34.900778 21.489435
23.659436 33.509155 21.502515
23.107559000000002 32.828397 22.607559000000002
22.662419 34.953913 23.69077
23.196593 35.623578 22.58162
22.611039999999996 33.563081 23.704564999999995
17.743232999999996 34.900778 15.539435
17.709435999999997 33.509155 15.552515
17.157559 32.828397 16.657559
16.712418999999997 34.953913 17.740769999999998
17.246592999999997 35.623578 16.631619999999998
16.66104 33.563081 17.754565
29.643233000000002 34.900778 27.439434999999996
29.609436000000002 33.509155 27.452515
29.057558999999998 32.828397 28.557558999999998
28.612418999999996 34.953913 29.640769999999996
29.146592999999996 35.623578 28.531619999999997
28.56104 33.563081 29.654564999999998
29.643233000000002 34.900778 15.539435
29.609436000000002 33.509155 15.552515
29.057558999999998 32.828397 16.657559
28.612418999999996 34.953913 17.740769999999998
29.146592999999996 35.623578 16.631619999999998
28.56104 33.563081 17.754565
17.743232999999996 34.900778 27.439434999999996
17.709435999999997 33.509155 27.452515
17.157559 32.828397 28.557558999999998
16.712418999999997 34.953913 29.640769999999996
17.246592999999997 35.623578 28.531619999999997
16.66104 33.563081 29.654564999999998
12.139109 19.132559 12.139109
11.706897999999999 19.132559 19.132559
11.706897999999999 19.132559 25.082558999999996
12.139109 25.082558999999996 12.139109
11.706897999999999 25.082558999999996 25.082558999999996
12.139109 25.082558999999996 32.076009
19.132559 12.139109 12.139109
19.132559 11.706897999999999 19.132559
19.132559 11.706897999999999 25.082558999999996
19.132559 19.132559 11.706897999999999
19.132559 25.082558999999996 32.50822
19.132559 32.50822 19.132559
19.132559 32.076009 32.076009
25.082558999999996 11.706897999999999 19.132559
25.082558999999996 11.706897999999999 25.082558999999996
25.082558999999996 12.139109 32.076009
25.082558999999996 19.132559 32.50822
25.082558999999996 25.082558999999996 11.706897999999999
25.082558999999996 25.082558999999996 32.50822
25.082558999999996 32.50822 25.082558999999996
32.076009 12.139109 19.132559
32.076009 12.139109 25.082558999999996
32.50822 19.132559 19.132559
32.50822 19.132559 25.082558999999996
32.076009 19.132559 32.076009
32.076009 25.082558999999996 12.139109
32.50822 25.082558999999996 19.132559
32.076009 25.082558999999996 32.076009
32.076009 32.076009 19.132559
13.182559 13.182559 19.132559
13.182559 13.182559 25.082558999999996
13.182559 19.132559 31.032559
13.182559 31.032559 19.132559
13.182559 31.032559 25.082558999999996
19.132559 13.182559 31.032559
19.132559 19.132559 19.132559
19.132559 19.132559 25.082558999999996
19.132559 19.132559 31.032559
19.132559 25.082558999999996 13.182559
19.132559 25.082558999999996 19.132559
19.132559 25.082558999999996 25.082558999999996
19.132559 31.032559 13.182559
19.132559 31.032559 25.082558999999996
25.082558999999996 13.182559 13.182559
25.082558999999996 19.132559 13.182559
25.082558999999996 19.132559 19.132559
25.082558999999996 19.132559 25.082558999999996
25.082558999999996 25.082558999999996 19.132559
25.082558999999996 25.082558999999996 25.082558999999996
25.082558999999996 31.032559 13.182559
25.082558999999996 31.032559 19.132559
31.032559 19.132559 13.182559
31.032559 25.082558999999996 25.082558999999996
31.032559 31.032559 25.082558999999996
28.236371999999996 19.672255999999997 35.523431
29.178132999999995 21.645018999999998 36.715118
30.057577000000002 23.586667999999996 35.428662
29.990774000000002 23.556908999999997 32.932298
28.142454999999998 19.651412999999998 33.035759999999996
26.917806999999996 21.303213 30.680512
22.286372 25.622256 35.523431
23.228133 27.595019 36.715118
24.107577 29.536668 35.428662
24.040774 29.506909 32.932298
22.192454999999995 25.601413 33.035759999999996
20.967807 27.253212999999995 30.680512
28.236371999999996 25.622256 35.523431
29.178132999999995 27.595019 36.715118
30.057577000000002 29.536668 35.428662
29.990774000000002 29.506909 32.932298
28.142454999999998 25.601413 33.035759999999996
26.917806999999996 27.253212999999995 30.680512
22.286372 19.672255999999997 35.523431
23.228133 21.645018999999998 36.715118
24.107577 23.586667999999996 35.428662
24.040774 23.556908999999997 32.932298
22.192454999999995 19.651412999999998 33.035759999999996
20.967807 21.303213 30.680512
22.286372 13.722256 35.523431
23.228133 15.695019 36.715118
24.107577 17.636668 35.428662
24.040774 17.606909 32.932298
22.192454999999995 13.701412999999999 33.035759999999996
20.967807 15.353212999999998 30.680512
16.336371999999997 25.622256 35.523431
17.278132999999997 27.595019 36.715118
18.157577 29.536668 35.428662
18.090774 29.506909 32.932298
16.242455 25.601413 33.035759999999996
15.017807 27.253212999999995 30.680512
21.928745999999997 19.672255999999997 8.691686999999998
20.986984999999997 21.645018999999998 7.499999999999999
20.107540999999998 23.586667999999996 8.786456
20.174343999999998 23.556908999999997 11.28282
22.022663 19.651412999999998 11.179358
23.247310999999996 21.303213 13.534606
15.978746 19.672255999999997 8.691686999999998
15.036985 21.645018999999998 7.499999999999999
14.157541 23.586667999999996 8.786456
14.224344 23.556908999999997 11.28282
16.072663 19.651412999999998 11.179358
17.297311 21.303213 13.534606
15.978746 25.622256 8.691686999999998
15.036985 27.595019 7.499999999999999
14.157541 29.536668 8.786456
14.224344 29.506909 11.28282
16.072663 25.601413 11.179358
17.297311 27.253212999999995 13.534606
27.878746 25.622256 8.691686999999998
26.936985 27.595019 7.499999999999999
26.057541 29.536668 8.786456
26.124344 29.506909 11.28282
27.972662999999997 25.601413 11.179358
29.197311 27.253212999999995 13.534606
21.928745999999997 13.722256 8.691686999999998
20.986984999999997 15.695019 7.499999999999999
20.107540999999998 17.636668 8.786456
20.174343999999998 17.606909 11.28282
22.022663 13.701412999999999 11.179358
23.247310999999996 15.353212999999998 13.534606
15.978746 13.722256 8.691686999999998
15.036985 15.695019 7.499999999999999
14.157541 17.636668 8.786456
14.224344 17.606909 11.28282
16.072663 13.701412999999999 11.179358
17.297311 15.353212999999998 13.534606
8.691686999999998 19.672255999999997 16.336371999999997
7.499999999999999 21.645018999999998 17.278132999999997
8.786456 23.586667999999996 18.157577
11.28282 23.556908999999997 18.090774
11.179358 19.651412999999998 16.242455
13.534606 21.303213 15.017807
8.691686999999998 25.622256 22.286372
7.499999999999999 27.595019 23.228133
8.786456 29.536668 24.107577
11.28282 29.506909 24.040774
11.179358 25.601413 22.192454999999995
13.534606 27.253212999999995 20.967807
8.691686999999998 19.672255999999997 22.286372
7.499999999999999 21.645018999999998 23.228133
8.786456 23.586667999999996 24.107577
11.28282 23.556908999999997 24.040774
11.179358 19.651412999999998 22.192454999999995
13.534606 21.303213 20.967807
8.691686999999998 25.622256 16.336371999999997
7.499999999999999 27.595019 17.278132999999997
8.786456 29.536668 18.157577
11.28282 29.506909 18.090774
11.179358 25.601413 16.242455
13.534606 27.253212999999995 15.017807
8.691686999999998 13.722256 28.236371999999996
7.499999999999999 15.695019 29.178132999999995
8.786456 17.636668 30.057577000000002
11.28282 17.606909 29.990774000000002
11.179358 13.701412999999999 28.142454999999998
13.534606 15.353212999999998 26.917806999999996
8.691686999999998 25.622256 28.236371999999996
7.499999999999999 27.595019 29.178132999999995
8.786456 29.536668 30.057577000000002
11.28282 29.506909 29.990774000000002
11.179358 25.601413 28.142454999999998
13.534606 27.253212999999995 26.917806999999996
35.523431 13.722256 21.928745999999997
36.715118 15.695019 20.986984999999997
35.428662 17.636668 20.107540999999998
32.932298 17.606909 20.174343999999998
33.035759999999996 13.701412999999999 22.022663
30.680512 15.353212999999998 23.247310999999996
35.523431 19.672255999999997 21.928745999999997
36.715118 21.645018999999998 20.986984999999997
35.428662 23.586667999999996 20.107540999999998
32.932298 23.556908999999997 20.174343999999998
33.035759999999996 19.651412999999998 22.022663
30.680512 21.303213 23.247310999999996
35.523431 19.672255999999997 27.878746
36.715118 21.645018999999998 26.936985
35.428662 23.586667999999996 26.057541
32.932298 23.556908999999997 26.124344
33.035759999999996 19.651412999999998 27.972662999999997
30.680512 21.303213 29.197311
35.523431 25.622256 21.928745999999997
36.715118 27.595019 20.986984999999997
35.428662 29.536668 20.107540999999998
32.932298 29.506909 20.174343999999998
33.035759999999996 25.601413 22.022663
30.680512 27.253212999999995 23.247310999999996
35.523431 25.622256 15.978746
36.715118 27.595019 15.036985
35.428662 29.536668 14.157541
32.932298 29.506909 14.224344
33.035759999999996 25.601413 16.072663
30.680512 27.253212999999995 17.297311
35.523431 13.722256 15.978746
36.715118 15.695019 15.036985
35.428662 17.636668 14.157541
32.932298 17.606909 14.224344
33.035759999999996 13.701412999999999 16.072663
30.680512 15.353212999999998 17.297311
16.336371999999997 8.691686999999998 25.622256
17.278132999999997 7.499999999999999 27.595019
18.157577 8.786456 29.536668
18.090774 11.28282 29.506909
16.242455 11.179358 25.601413
15.017807 13.534606 27.253212999999995
22.286372 8.691686999999998 25.622256
23.228133 7.499999999999999 27.595019
24.107577 8.786456 29.536668
24.040774 11.28282 29.506909
22.192454999999995 11.179358 25.601413
20.967807 13.534606 27.253212999999995
28.236371999999996 8.691686999999998 13.722256
29.178132999999995 7.499999999999999 15.695019
30.057577000000002 8.786456 17.636668
29.990774000000002 11.28282 17.606909
28.142454999999998 11.179358 13.701412999999999
26.917806999999996 13.534606 15.353212999999998
16.336371999999997 8.691686999999998 19.672255999999997
17.278132999999997 7.499999999999999 21.645018999999998
18.157577 8.786456 23.586667999999996
18.090774 11.28282 23.556908999999997
16.242455 11.179358 19.651412999999998
15.017807 13.534606 21.303213
22.286372 8.691686999999998 19.672255999999997
23.228133 7.499999999999999 21.645018999999998
24.107577 8.786456 23.586667999999996
24.040774 11.28282 23.556908999999997
22.192454999999995 11.179358 19.651412999999998
20.967807 13.534606 21.303213
28.236371999999996 8.691686999999998 25.622256
29.178132999999995 7.499999999999999 27.595019
30.057577000000002 8.786456 29.536668
29.990774000000002 11.28282 29.506909
28.142454999999998 11.179358 25.601413
26.917806999999996 13.534606 27.253212999999995
22.286372 35.523431 30.492862000000002
23.228133 36.715118 28.520099000000002
24.107577 35.428662 26.578449999999997
24.040774 32.932298 26.608208999999995
22.192454999999995 33.035759999999996 30.513705
20.967807 30.680512 28.861905
22.286372 35.523431 24.542862
23.228133 36.715118 22.570099
24.107577 35.428662 20.62845
24.040774 32.932298 20.658209
22.192454999999995 33.035759999999996 24.563705
20.967807 30.680512 22.911904999999997
16.336371999999997 35.523431 18.592861999999997
17.278132999999997 36.715118 16.620099
18.157577 35.428662 14.67845
18.090774 32.932298 14.708209
16.242455 33.035759999999996 18.613705
15.017807 30.680512 16.961905
28.236371999999996 35.523431 30.492862000000002
29.178132999999995 36.715118 28.520099000000002
30.057577000000002 35.428662 26.578449999999997
29.990774000000002 32.932298 26.608208999999995
28.142454999999998 33.035759999999996 30.513705
26.917806999999996 30.680512 28.861905
28.236371999999996 35.523431 18.592861999999997
29.178132999999995 36.715118 16.620099
30.057577000000002 35.428662 14.67845
29.990774000000002 32.932298 14.708209
28.142454999999998 33.035759999999996 18.613705
26.917806999999996 30.680512 16.961905
16.336371999999997 35.523431 30.492862000000002
17.278132999999997 36.715118 28.520099000000002
18.157577 35.428662 26.578449999999997
18.090774 32.932298 26.608208999999995
16.242455 33.035759999999996 30.513705
15.017807 30.680512 28.861905
11.333763 18.475229 12.47222
11.785074999999999 20.158383999999998 12.020907999999999
12.590136 18.764063999999998 11.215845999999999
13.972146 19.738357 12.922937
13.556214 18.187154 13.33887
12.814266 19.472166 14.080817999999999
11.372976999999999 19.617986000000002 20.051518
11.372976999999999 19.685687 18.252687
11.372976999999999 18.094003999999998 19.093472
13.557300999999999 18.685186 18.285642
13.557300999999999 18.622794 19.943454
13.557300999999999 20.089697 19.168581
11.372976999999999 20.082665 24.661342999999995
11.372976999999999 18.292721999999998 24.470351
11.372976999999999 19.022289 26.115983
13.557300999999999 18.256936 25.470754
13.557300999999999 19.906557 25.646772999999996
13.557300999999999 19.234184 24.13015
12.62356 25.286729 11.182421999999999
11.667735 24.097960999999998 12.138247999999999
11.417679 25.862986999999997 12.388304
12.783460999999999 24.894394999999996 14.111621999999999
13.664355 25.98997 13.230728
13.894808 24.363312 13.000274999999998
11.372976999999999 25.157204999999998 24.045952999999997
11.372976999999999 24.147508000000002 25.536217
11.372976999999999 25.942963 25.665506999999998
13.557300999999999 25.013765 26.037900999999998
13.557300999999999 25.944305999999997 24.664465
13.557300999999999 24.289606 24.545310999999998
11.892904 24.043366 32.302039
12.544408 25.589801 32.953542999999996
11.271662 25.614508999999998 31.680797
13.456838 26.040284 30.776873000000002
12.856409 24.615082 30.176443999999996
14.029378 24.592310999999995 31.349413
18.74822 12.585783 11.220199999999998
20.160974 11.796954 12.009029
18.488483000000002 11.326236999999999 12.479745
19.486767 12.818276999999998 14.076806
18.184767 13.545266999999999 13.349817
19.726143 13.979080999999999 12.916001999999999
18.147506 11.372976999999999 19.463912
19.338124999999998 11.372976999999999 18.113801000000002
19.912045999999997 11.372976999999999 19.819964
20.040388999999998 13.557300999999999 18.827182999999998
18.943108000000002 13.557300999999999 20.071451
18.41418 13.557300999999999 18.499043
19.330748999999997 11.372976999999999 24.06234
19.916998999999997 11.372976999999999 25.764305999999998
18.149929 11.372976999999999 25.421031
18.949906 13.557300999999999 26.022798
18.409615000000002 13.557300999999999 24.454257999999996
20.038156 13.557300999999999 24.770621999999996
19.548291 20.085078 11.372976999999999
19.749598 18.296265 11.372976999999999
18.099787999999997 19.016334 11.372976999999999
18.749418 18.254713000000002 13.557300999999999
18.563893 19.903292 13.557300999999999
20.084366 19.239672 13.557300999999999
19.782085000000002 25.893879 32.842141
18.105172 25.239404999999998 32.842141
19.51042 24.114393 32.842141
18.533952999999997 24.334842000000002 30.657817
20.079403999999997 24.938009 30.657817
18.78432 25.974826 30.657817
19.258344 32.842141 20.164209999999997
19.963102 32.842141 18.507801
18.176231 32.842141 18.725667
19.016634 30.657817 18.181784
18.367126 30.657817 19.70834
20.013916000000002 30.657817 19.507553
19.016081999999997 33.042386 31.581867000000003
18.296416 31.87567 32.748584
20.085178999999997 32.018324 32.605928999999996
19.239905 30.094565000000003 31.440587
19.903153 31.169817000000002 30.365335
18.254618999999998 31.038345999999997 30.496806999999997
24.449298 11.372976999999999 18.30848
26.112862 11.372976999999999 18.996178
24.685516 11.372976999999999 20.093018
25.666174999999996 13.557300999999999 19.892034000000002
24.133026 13.557300999999999 19.258248000000002
25.448476 13.557300999999999 18.247394999999997
25.45212 11.372976999999999 24.111193999999998
25.739005 11.372976999999999 25.888290999999995
24.056551999999996 11.372976999999999 25.248191999999996
24.741968999999997 13.557300999999999 25.977773999999997
24.477575 13.557300999999999 24.339991999999995
26.028132 13.557300999999999 24.929910999999997
24.55301 11.270653 31.679789
26.121786 11.894879 32.304014
24.572880999999995 12.543441999999999 32.952577
25.570594 14.030308 31.350341999999998
24.124801999999995 13.455017999999999 30.775052000000002
25.552281 12.857299999999999 30.177334000000002
24.251182999999997 19.756208 32.842141
24.958151 18.100741 32.842141
26.038342999999998 19.540728 32.842141
25.84876 18.557800999999998 30.657817
25.197213999999995 20.083488 30.657817
24.201703000000002 18.756389 30.657817
24.055070999999998 25.238742000000002 11.372976999999999
25.731561 25.894298 11.372976999999999
25.461045 24.114637000000002 11.372976999999999
26.029497 24.93862 13.557300999999999
24.484434999999998 24.334455999999996 13.557300999999999
24.733745 25.974601 13.557300999999999
25.837759 24.368556999999996 32.842141
25.323302999999996 26.093581999999998 32.842141
24.086616 24.785536999999998 32.842141
24.386562999999995 25.740586 30.657817
24.860689 24.150794999999995 30.657817
26.000425 25.356296 30.657817
24.816736 32.842141 26.08728
26.085583999999997 32.842141 24.810407999999995
24.345357 32.842141 24.34999
25.327542 30.657817 24.156602999999997
24.158166 30.657817 25.333374999999997
25.761969 30.657817 25.757698999999995
31.607090999999997 11.197956 18.839343999999997
32.844201 12.435065999999999 18.415678
32.485088 12.075952 20.142654999999998
31.417341 14.097306 19.402788
30.277214 12.957179 19.793239999999997
30.608175000000003 13.288139999999999 18.201649
32.133215 11.724079999999999 26.090579999999996
31.784298 11.375163 24.359428
33.018867 12.609731 24.797669
30.932462 13.612427 24.153562
31.254025999999996 13.933990999999999 25.749001
30.116241000000002 12.796206999999999 25.345115
32.842141 19.253646 20.164772
32.842141 18.178092999999997 18.721317
32.842141 19.965938 18.511588
30.657817 19.020964999999997 18.181266
30.657817 20.0122 19.511561999999998
30.657817 18.364513000000002 19.704849
32.842141 18.299466000000002 25.703913
32.842141 19.010997 24.050402
32.842141 20.087214 25.493361999999998
30.657817 19.900342000000002 24.509915999999997
30.657817 19.244591 26.0338
30.657817 18.252744 24.703961
33.04212 19.25233 31.582133
31.873784999999998 19.966729 32.750468
32.020475 18.178618 32.603778
30.094811 19.022177 31.440342
31.171554 18.363784000000003 30.363599
31.036364 20.011716 30.498789000000002
31.951166 24.177273999999997 11.542031
31.938235 25.977286 11.5291
33.046978 25.093117 12.637843
31.10024 25.916874 13.780204999999999
31.112156 24.257973999999997 13.792121999999999
30.090333 25.072829 12.770299
32.842141 25.795586999999998 18.376440000000002
32.842141 25.380862999999998 20.128118999999998
32.842141 24.071227 18.893118
30.657817 24.425427999999997 19.829402
30.657817 24.807640999999997 18.215046
30.657817 26.014607999999996 19.353229