3_train/195_cspbbr3_MA-BS_3_0.60\195_cspbbr3_MA-BS_3_0.60.xyz
1.0
45.126988 0 0
0 45.126988 0
0 0 45.126988
Br C Cs H N O Pb S 
72 244 26 348 28 108 27 36 
Cartesian
16.613493999999996 16.613493999999996 19.588493999999997
13.638493999999998 16.613493999999996 22.563494
16.613493999999996 16.613493999999996 25.538493999999996
16.613493999999996 19.588493999999997 16.613493999999996
13.638493999999998 22.563494 16.613493999999996
16.613493999999996 22.563494 19.588493999999997
16.613493999999996 19.588493999999997 22.563494
16.613493999999996 22.563494 25.538493999999996
16.613493999999996 19.588493999999997 28.513493999999998
13.638493999999998 22.563494 28.513493999999998
16.613493999999996 22.563494 31.488494
16.613493999999996 28.513493999999998 13.638493999999998
16.613493999999996 25.538493999999996 16.613493999999996
16.613493999999996 28.513493999999998 19.588493999999997
16.613493999999996 25.538493999999996 22.563494
16.613493999999996 28.513493999999998 25.538493999999996
16.613493999999996 25.538493999999996 28.513493999999998
16.613493999999996 31.488494 16.613493999999996
22.563494 16.613493999999996 13.638493999999998
22.563494 13.638493999999998 16.613493999999996
19.588493999999997 16.613493999999996 16.613493999999996
22.563494 16.613493999999996 19.588493999999997
19.588493999999997 16.613493999999996 22.563494
22.563494 16.613493999999996 25.538493999999996
22.563494 13.638493999999998 28.513493999999998
19.588493999999997 16.613493999999996 28.513493999999998
22.563494 16.613493999999996 31.488494
22.563494 19.588493999999997 16.613493999999996
19.588493999999997 22.563494 16.613493999999996
22.563494 22.563494 19.588493999999997
22.563494 19.588493999999997 22.563494
19.588493999999997 22.563494 22.563494
22.563494 22.563494 25.538493999999996
22.563494 19.588493999999997 28.513493999999998
19.588493999999997 22.563494 28.513493999999998
22.563494 25.538493999999996 16.613493999999996
19.588493999999997 28.513493999999998 16.613493999999996
22.563494 28.513493999999998 19.588493999999997
22.563494 25.538493999999996 22.563494
19.588493999999997 28.513493999999998 22.563494
22.563494 28.513493999999998 25.538493999999996
22.563494 25.538493999999996 28.513493999999998
19.588493999999997 28.513493999999998 28.513493999999998
22.563494 28.513493999999998 31.488494
22.563494 31.488494 16.613493999999996
25.538493999999996 16.613493999999996 16.613493999999996
28.513493999999998 16.613493999999996 19.588493999999997
25.538493999999996 16.613493999999996 22.563494
28.513493999999998 16.613493999999996 25.538493999999996
28.513493999999998 13.638493999999998 28.513493999999998
25.538493999999996 16.613493999999996 28.513493999999998
28.513493999999998 19.588493999999997 16.613493999999996
25.538493999999996 22.563494 16.613493999999996
28.513493999999998 22.563494 19.588493999999997
28.513493999999998 19.588493999999997 22.563494
25.538493999999996 22.563494 22.563494
28.513493999999998 22.563494 25.538493999999996
28.513493999999998 19.588493999999997 28.513493999999998
25.538493999999996 22.563494 28.513493999999998
28.513493999999998 28.513493999999998 13.638493999999998
28.513493999999998 25.538493999999996 16.613493999999996
25.538493999999996 28.513493999999998 16.613493999999996
28.513493999999998 28.513493999999998 19.588493999999997
28.513493999999998 25.538493999999996 22.563494
25.538493999999996 28.513493999999998 22.563494
28.513493999999998 28.513493999999998 25.538493999999996
28.513493999999998 25.538493999999996 28.513493999999998
25.538493999999996 28.513493999999998 28.513493999999998
28.513493999999998 31.488494 22.563494
31.488494 16.613493999999996 16.613493999999996
31.488494 22.563494 16.613493999999996
31.488494 28.513493999999998 16.613493999999996
16.393667999999998 16.573221999999998 35.841060999999996
16.613493999999996 16.613493999999996 34.465135
17.032645 15.446963999999998 33.814156
17.015500999999997 14.226429999999997 35.888305
16.591471999999996 15.383828999999999 36.55090799999999
17.239205 14.250686999999997 34.51403499999999
22.343667999999997 22.523222 35.841060999999996
22.563494 22.563494 34.465135
22.982644999999998 21.396963999999997 33.814156
22.965501 20.176429999999996 35.888305
22.541471999999995 21.333828999999998 36.55090799999999
23.189204999999998 20.200687 34.51403499999999
28.293668 22.523222 35.841060999999996
28.513493999999998 22.563494 34.465135
28.932644999999997 21.396963999999997 33.814156
28.915500999999995 20.176429999999996 35.888305
28.491471999999998 21.333828999999998 36.55090799999999
29.139205 20.200687 34.51403499999999
16.393667999999998 28.473221999999996 35.841060999999996
16.613493999999996 28.513493999999998 34.465135
17.032645 27.346963999999996 33.814156
17.015500999999997 26.126429999999996 35.888305
16.591471999999996 27.283828999999997 36.55090799999999
17.239205 26.150686999999998 34.51403499999999
28.293668 28.473221999999996 35.841060999999996
28.513493999999998 28.513493999999998 34.465135
28.932644999999997 27.346963999999996 33.814156
28.915500999999995 26.126429999999996 35.888305
28.491471999999998 27.283828999999997 36.55090799999999
29.139205 26.150686999999998 34.51403499999999
28.293668 16.573221999999998 35.841060999999996
28.513493999999998 16.613493999999996 34.465135
28.932644999999997 15.446963999999998 33.814156
28.915500999999995 14.226429999999997 35.888305
28.491471999999998 15.383828999999999 36.55090799999999
29.139205 14.250686999999997 34.51403499999999
22.78332 22.523222 9.285926999999997
22.563494 22.563494 10.661852999999997
22.144342999999996 21.396963999999997 11.312831999999998
22.161486999999997 20.176429999999996 9.238682999999998
22.585516 21.333828999999998 8.576079999999997
21.937782999999996 20.200687 10.612952999999997
16.833319999999997 16.573221999999998 9.285926999999997
16.613493999999996 16.613493999999996 10.661852999999997
16.194342999999996 15.446963999999998 11.312831999999998
16.211486999999998 14.226429999999997 9.238682999999998
16.635515999999996 15.383828999999999 8.576079999999997
15.987782999999999 14.250686999999997 10.612952999999997
28.733319999999996 22.523222 9.285926999999997
28.513493999999998 22.563494 10.661852999999997
28.094343 21.396963999999997 11.312831999999998
28.111487 20.176429999999996 9.238682999999998
28.535515999999998 21.333828999999998 8.576079999999997
27.887782999999995 20.200687 10.612952999999997
28.733319999999996 16.573221999999998 9.285926999999997
28.513493999999998 16.613493999999996 10.661852999999997
28.094343 15.446963999999998 11.312831999999998
28.111487 14.226429999999997 9.238682999999998
28.535515999999998 15.383828999999999 8.576079999999997
27.887782999999995 14.250686999999997 10.612952999999997
16.833319999999997 22.523222 9.285926999999997
16.613493999999996 22.563494 10.661852999999997
16.194342999999996 21.396963999999997 11.312831999999998
16.211486999999998 20.176429999999996 9.238682999999998
16.635515999999996 21.333828999999998 8.576079999999997
15.987782999999999 20.200687 10.612952999999997
22.78332 28.473221999999996 9.285926999999997
22.563494 28.513493999999998 10.661852999999997
22.144342999999996 27.346963999999996 11.312831999999998
22.161486999999997 26.126429999999996 9.238682999999998
22.585516 27.283828999999997 8.576079999999997
21.937782999999996 26.150686999999998 10.612952999999997
9.285926999999997 16.573221999999998 28.293668
10.661852999999997 16.613493999999996 28.513493999999998
11.312831999999998 15.446963999999998 28.932644999999997
9.238682999999998 14.226429999999997 28.915500999999995
8.576079999999997 15.383828999999999 28.491471999999998
10.612952999999997 14.250686999999997 29.139205
9.285926999999997 28.473221999999996 22.343667999999997
10.661852999999997 28.513493999999998 22.563494
11.312831999999998 27.346963999999996 22.982644999999998
9.238682999999998 26.126429999999996 22.965501
8.576079999999997 27.283828999999997 22.541471999999995
10.612952999999997 26.150686999999998 23.189204999999998
9.285926999999997 28.473221999999996 28.293668
10.661852999999997 28.513493999999998 28.513493999999998
11.312831999999998 27.346963999999996 28.932644999999997
9.238682999999998 26.126429999999996 28.915500999999995
8.576079999999997 27.283828999999997 28.491471999999998
10.612952999999997 26.150686999999998 29.139205
9.285926999999997 16.573221999999998 16.393667999999998
10.661852999999997 16.613493999999996 16.613493999999996
11.312831999999998 15.446963999999998 17.032645
9.238682999999998 14.226429999999997 17.015500999999997
8.576079999999997 15.383828999999999 16.591471999999996
10.612952999999997 14.250686999999997 17.239205
9.285926999999997 22.523222 22.343667999999997
10.661852999999997 22.563494 22.563494
11.312831999999998 21.396963999999997 22.982644999999998
9.238682999999998 20.176429999999996 22.965501
8.576079999999997 21.333828999999998 22.541471999999995
10.612952999999997 20.200687 23.189204999999998
9.285926999999997 28.473221999999996 16.393667999999998
10.661852999999997 28.513493999999998 16.613493999999996
11.312831999999998 27.346963999999996 17.032645
9.238682999999998 26.126429999999996 17.015500999999997
8.576079999999997 27.283828999999997 16.591471999999996
10.612952999999997 26.150686999999998 17.239205
35.841060999999996 22.523222 28.733319999999996
34.465135 22.563494 28.513493999999998
33.814156 21.396963999999997 28.094343
35.888305 20.176429999999996 28.111487
36.55090799999999 21.333828999999998 28.535515999999998
34.51403499999999 20.200687 27.887782999999995
35.841060999999996 16.573221999999998 28.733319999999996
34.465135 16.613493999999996 28.513493999999998
33.814156 15.446963999999998 28.094343
35.888305 14.226429999999997 28.111487
36.55090799999999 15.383828999999999 28.535515999999998
34.51403499999999 14.250686999999997 27.887782999999995
35.841060999999996 16.573221999999998 22.78332
34.465135 16.613493999999996 22.563494
33.814156 15.446963999999998 22.144342999999996
35.888305 14.226429999999997 22.161486999999997
36.55090799999999 15.383828999999999 22.585516
34.51403499999999 14.250686999999997 21.937782999999996
35.841060999999996 28.473221999999996 22.78332
34.465135 28.513493999999998 22.563494
33.814156 27.346963999999996 22.144342999999996
35.888305 26.126429999999996 22.161486999999997
36.55090799999999 27.283828999999997 22.585516
34.51403499999999 26.150686999999998 21.937782999999996
35.841060999999996 28.473221999999996 28.733319999999996
34.465135 28.513493999999998 28.513493999999998
33.814156 27.346963999999996 28.094343
35.888305 26.126429999999996 28.111487
36.55090799999999 27.283828999999997 28.535515999999998
34.51403499999999 26.150686999999998 27.887782999999995
35.841060999999996 22.523222 22.78332
34.465135 22.563494 22.563494
33.814156 21.396963999999997 22.144342999999996
35.888305 20.176429999999996 22.161486999999997
36.55090799999999 21.333828999999998 22.585516
34.51403499999999 20.200687 21.937782999999996
16.393667999999998 9.285926999999997 22.523222
16.613493999999996 10.661852999999997 22.563494
17.032645 11.312831999999998 21.396963999999997
17.015500999999997 9.238682999999998 20.176429999999996
16.591471999999996 8.576079999999997 21.333828999999998
17.239205 10.612952999999997 20.200687
16.393667999999998 9.285926999999997 28.473221999999996
16.613493999999996 10.661852999999997 28.513493999999998
17.032645 11.312831999999998 27.346963999999996
17.015500999999997 9.238682999999998 26.126429999999996
16.591471999999996 8.576079999999997 27.283828999999997
17.239205 10.612952999999997 26.150686999999998
28.293668 9.285926999999997 22.523222
28.513493999999998 10.661852999999997 22.563494
28.932644999999997 11.312831999999998 21.396963999999997
28.915500999999995 9.238682999999998 20.176429999999996
28.491471999999998 8.576079999999997 21.333828999999998
29.139205 10.612952999999997 20.200687
16.393667999999998 9.285926999999997 16.573221999999998
16.613493999999996 10.661852999999997 16.613493999999996
17.032645 11.312831999999998 15.446963999999998
17.015500999999997 9.238682999999998 14.226429999999997
16.591471999999996 8.576079999999997 15.383828999999999
17.239205 10.612952999999997 14.250686999999997
28.293668 9.285926999999997 16.573221999999998
28.513493999999998 10.661852999999997 16.613493999999996
28.932644999999997 11.312831999999998 15.446963999999998
28.915500999999995 9.238682999999998 14.226429999999997
28.491471999999998 8.576079999999997 15.383828999999999
29.139205 10.612952999999997 14.250686999999997
22.343667999999997 9.285926999999997 22.523222
22.563494 10.661852999999997 22.563494
22.982644999999998 11.312831999999998 21.396963999999997
22.965501 9.238682999999998 20.176429999999996
22.541471999999995 8.576079999999997 21.333828999999998
23.189204999999998 10.612952999999997 20.200687
28.293668 35.841060999999996 28.553766
28.513493999999998 34.465135 28.513493999999998
28.932644999999997 33.814156 29.680024
28.915500999999995 35.888305 30.900557999999997
28.491471999999998 36.55090799999999 29.743159
29.139205 34.51403499999999 30.876300999999998
22.343667999999997 35.841060999999996 22.603765999999997
22.563494 34.465135 22.563494
22.982644999999998 33.814156 23.730023999999997
22.965501 35.888305 24.950557999999997
22.541471999999995 36.55090799999999 23.793159
23.189204999999998 34.51403499999999 24.926301
16.393667999999998 35.841060999999996 28.553766
16.613493999999996 34.465135 28.513493999999998
17.032645 33.814156 29.680024
17.015500999999997 35.888305 30.900557999999997
16.591471999999996 36.55090799999999 29.743159
17.239205 34.51403499999999 30.876300999999998
28.293668 35.841060999999996 16.653765999999997
28.513493999999998 34.465135 16.613493999999996
28.932644999999997 33.814156 17.780023999999997
28.915500999999995 35.888305 19.000557999999998
28.491471999999998 36.55090799999999 17.843159
29.139205 34.51403499999999 18.976301
16.393667999999998 35.841060999999996 22.603765999999997
16.613493999999996 34.465135 22.563494
17.032645 33.814156 23.730023999999997
17.015500999999997 35.888305 24.950557999999997
16.591471999999996 36.55090799999999 23.793159
17.239205 34.51403499999999 24.926301
22.343667999999997 35.841060999999996 28.553766
22.563494 34.465135 28.513493999999998
22.982644999999998 33.814156 29.680024
22.965501 35.888305 30.900557999999997
22.541471999999995 36.55090799999999 29.743159
23.189204999999998 34.51403499999999 30.876300999999998
12.595043999999998 12.595043999999998 19.588493999999997
12.595043999999998 19.588493999999997 12.595043999999998
12.162833 19.588493999999997 25.538493999999996
12.162833 25.538493999999996 19.588493999999997
12.162833 25.538493999999996 25.538493999999996
12.595043999999998 25.538493999999996 32.531943999999996
19.588493999999997 12.595043999999998 12.595043999999998
19.588493999999997 12.162833 19.588493999999997
19.588493999999997 12.595043999999998 32.531943999999996
19.588493999999997 19.588493999999997 12.162833
19.588493999999997 25.538493999999996 12.162833
19.588493999999997 25.538493999999996 32.964155
19.588493999999997 32.964155 25.538493999999996
19.588493999999997 32.531943999999996 32.531943999999996
25.538493999999996 12.595043999999998 12.595043999999998
25.538493999999996 12.162833 19.588493999999997
25.538493999999996 19.588493999999997 32.964155
25.538493999999996 32.964155 25.538493999999996
25.538493999999996 32.531943999999996 32.531943999999996
32.531943999999996 12.595043999999998 19.588493999999997
32.531943999999996 12.595043999999998 25.538493999999996
32.964155 19.588493999999997 19.588493999999997
32.964155 19.588493999999997 25.538493999999996
32.531943999999996 19.588493999999997 32.531943999999996
32.964155 25.538493999999996 19.588493999999997
32.964155 25.538493999999996 25.538493999999996
32.531943999999996 25.538493999999996 32.531943999999996
32.531943999999996 32.531943999999996 19.588493999999997
13.638493999999998 13.638493999999998 25.538493999999996
13.638493999999998 19.588493999999997 19.588493999999997
13.638493999999998 19.588493999999997 31.488494
13.638493999999998 25.538493999999996 13.638493999999998
13.638493999999998 31.488494 19.588493999999997
13.638493999999998 31.488494 25.538493999999996
19.588493999999997 19.588493999999997 19.588493999999997
19.588493999999997 19.588493999999997 25.538493999999996
19.588493999999997 19.588493999999997 31.488494
19.588493999999997 25.538493999999996 19.588493999999997
19.588493999999997 25.538493999999996 25.538493999999996
19.588493999999997 31.488494 13.638493999999998
19.588493999999997 31.488494 19.588493999999997
25.538493999999996 13.638493999999998 25.538493999999996
25.538493999999996 13.638493999999998 31.488494
25.538493999999996 19.588493999999997 19.588493999999997
25.538493999999996 19.588493999999997 25.538493999999996
25.538493999999996 25.538493999999996 13.638493999999998
25.538493999999996 25.538493999999996 19.588493999999997
25.538493999999996 25.538493999999996 25.538493999999996
25.538493999999996 25.538493999999996 31.488494
25.538493999999996 31.488494 13.638493999999998
25.538493999999996 31.488494 19.588493999999997
31.488494 19.588493999999997 13.638493999999998
31.488494 25.538493999999996 13.638493999999998
31.488494 31.488494 25.538493999999996
17.169331 13.300926999999998 36.444435
16.410403 15.357725999999998 37.626988
16.060382999999998 17.472251 36.361108
16.452234999999998 17.528447 33.893596
17.562435999999998 13.356574999999998 33.979346
23.119331 19.250926999999997 36.444435
22.360402999999998 21.307726 37.626988
22.010382999999997 23.422251 36.361108
22.402234999999997 23.478447 33.893596
23.512435999999997 19.306575 33.979346
29.069331 19.250926999999997 36.444435
28.310402999999997 21.307726 37.626988
27.960382999999997 23.422251 36.361108
28.352234999999997 23.478447 33.893596
29.462436 19.306575 33.979346
17.169331 25.200926999999997 36.444435
16.410403 27.257725999999998 37.626988
16.060382999999998 29.372251 36.361108
16.452234999999998 29.428447 33.893596
17.562435999999998 25.256574999999998 33.979346
29.069331 25.200926999999997 36.444435
28.310402999999997 27.257725999999998 37.626988
27.960382999999997 29.372251 36.361108
28.352234999999997 29.428447 33.893596
29.462436 25.256574999999998 33.979346
29.069331 13.300926999999998 36.444435
28.310402999999997 15.357725999999998 37.626988
27.960382999999997 17.472251 36.361108
28.352234999999997 17.528447 33.893596
29.462436 13.356574999999998 33.979346
22.007657 19.250926999999997 8.682552999999999
22.766584999999996 21.307726 7.499999999999998
23.116604999999996 23.422251 8.76588
22.724752999999996 23.478447 11.233391999999998
21.614551999999996 19.306575 11.147641999999998
16.057657 13.300926999999998 8.682552999999999
16.816584999999996 15.357725999999998 7.499999999999998
17.166604999999997 17.472251 8.76588
16.774752999999997 17.528447 11.233391999999998
15.664551999999997 13.356574999999998 11.147641999999998
27.957656999999998 19.250926999999997 8.682552999999999
28.716585 21.307726 7.499999999999998
29.066605 23.422251 8.76588
28.674753 23.478447 11.233391999999998
27.564551999999996 19.306575 11.147641999999998
27.957656999999998 13.300926999999998 8.682552999999999
28.716585 15.357725999999998 7.499999999999998
29.066605 17.472251 8.76588
28.674753 17.528447 11.233391999999998
27.564551999999996 13.356574999999998 11.147641999999998
16.057657 19.250926999999997 8.682552999999999
16.816584999999996 21.307726 7.499999999999998
17.166604999999997 23.422251 8.76588
16.774752999999997 23.478447 11.233391999999998
15.664551999999997 19.306575 11.147641999999998
22.007657 25.200926999999997 8.682552999999999
22.766584999999996 27.257725999999998 7.499999999999998
23.116604999999996 29.372251 8.76588
22.724752999999996 29.428447 11.233391999999998
21.614551999999996 25.256574999999998 11.147641999999998
8.682552999999999 13.300926999999998 29.069331
7.499999999999998 15.357725999999998 28.310402999999997
8.76588 17.472251 27.960382999999997
11.233391999999998 17.528447 28.352234999999997
11.147641999999998 13.356574999999998 29.462436
8.682552999999999 25.200926999999997 23.119331
7.499999999999998 27.257725999999998 22.360402999999998
8.76588 29.372251 22.010382999999997
11.233391999999998 29.428447 22.402234999999997
11.147641999999998 25.256574999999998 23.512435999999997
8.682552999999999 25.200926999999997 29.069331
7.499999999999998 27.257725999999998 28.310402999999997
8.76588 29.372251 27.960382999999997
11.233391999999998 29.428447 28.352234999999997
11.147641999999998 25.256574999999998 29.462436
8.682552999999999 13.300926999999998 17.169331
7.499999999999998 15.357725999999998 16.410403
8.76588 17.472251 16.060382999999998
11.233391999999998 17.528447 16.452234999999998
11.147641999999998 13.356574999999998 17.562435999999998
8.682552999999999 19.250926999999997 23.119331
7.499999999999998 21.307726 22.360402999999998
8.76588 23.422251 22.010382999999997
11.233391999999998 23.478447 22.402234999999997
11.147641999999998 19.306575 23.512435999999997
8.682552999999999 25.200926999999997 17.169331
7.499999999999998 27.257725999999998 16.410403
8.76588 29.372251 16.060382999999998
11.233391999999998 29.428447 16.452234999999998
11.147641999999998 25.256574999999998 17.562435999999998
36.444435 19.250926999999997 27.957656999999998
37.626988 21.307726 28.716585
36.361108 23.422251 29.066605
33.893596 23.478447 28.674753
33.979346 19.306575 27.564551999999996
36.444435 13.300926999999998 27.957656999999998
37.626988 15.357725999999998 28.716585
36.361108 17.472251 29.066605
33.893596 17.528447 28.674753
33.979346 13.356574999999998 27.564551999999996
36.444435 13.300926999999998 22.007657
37.626988 15.357725999999998 22.766584999999996
36.361108 17.472251 23.116604999999996
33.893596 17.528447 22.724752999999996
33.979346 13.356574999999998 21.614551999999996
36.444435 25.200926999999997 22.007657
37.626988 27.257725999999998 22.766584999999996
36.361108 29.372251 23.116604999999996
33.893596 29.428447 22.724752999999996
33.979346 25.256574999999998 21.614551999999996
36.444435 25.200926999999997 27.957656999999998
37.626988 27.257725999999998 28.716585
36.361108 29.372251 29.066605
33.893596 29.428447 28.674753
33.979346 25.256574999999998 27.564551999999996
36.444435 19.250926999999997 22.007657
37.626988 21.307726 22.766584999999996
36.361108 23.422251 23.116604999999996
33.893596 23.478447 22.724752999999996
33.979346 19.306575 21.614551999999996
17.169331 8.682552999999999 19.250926999999997
16.410403 7.499999999999998 21.307726
16.060382999999998 8.76588 23.422251
16.452234999999998 11.233391999999998 23.478447
17.562435999999998 11.147641999999998 19.306575
17.169331 8.682552999999999 25.200926999999997
16.410403 7.499999999999998 27.257725999999998
16.060382999999998 8.76588 29.372251
16.452234999999998 11.233391999999998 29.428447
17.562435999999998 11.147641999999998 25.256574999999998
29.069331 8.682552999999999 19.250926999999997
28.310402999999997 7.499999999999998 21.307726
27.960382999999997 8.76588 23.422251
28.352234999999997 11.233391999999998 23.478447
29.462436 11.147641999999998 19.306575
17.169331 8.682552999999999 13.300926999999998
16.410403 7.499999999999998 15.357725999999998
16.060382999999998 8.76588 17.472251
16.452234999999998 11.233391999999998 17.528447
17.562435999999998 11.147641999999998 13.356574999999998
29.069331 8.682552999999999 13.300926999999998
28.310402999999997 7.499999999999998 15.357725999999998
27.960382999999997 8.76588 17.472251
28.352234999999997 11.233391999999998 17.528447
29.462436 11.147641999999998 13.356574999999998
23.119331 8.682552999999999 19.250926999999997
22.360402999999998 7.499999999999998 21.307726
22.010382999999997 8.76588 23.422251
22.402234999999997 11.233391999999998 23.478447
23.512435999999997 11.147641999999998 19.306575
29.069331 36.444435 31.826061
28.310402999999997 37.626988 29.769261999999998
27.960382999999997 36.361108 27.654736999999997
28.352234999999997 33.893596 27.598540999999997
29.462436 33.979346 31.770412999999998
23.119331 36.444435 25.876060999999996
22.360402999999998 37.626988 23.819262
22.010382999999997 36.361108 21.704736999999998
22.402234999999997 33.893596 21.648540999999998
23.512435999999997 33.979346 25.820413
17.169331 36.444435 31.826061
16.410403 37.626988 29.769261999999998
16.060382999999998 36.361108 27.654736999999997
16.452234999999998 33.893596 27.598540999999997
17.562435999999998 33.979346 31.770412999999998
29.069331 36.444435 19.926060999999997
28.310402999999997 37.626988 17.869262
27.960382999999997 36.361108 15.754736999999999
28.352234999999997 33.893596 15.698540999999999
29.462436 33.979346 19.870413
17.169331 36.444435 25.876060999999996
16.410403 37.626988 23.819262
16.060382999999998 36.361108 21.704736999999998
16.452234999999998 33.893596 21.648540999999998
17.562435999999998 33.979346 25.820413
23.119331 36.444435 31.826061
22.360402999999998 37.626988 29.769261999999998
22.010382999999997 36.361108 27.654736999999997
22.402234999999997 33.893596 27.598540999999997
23.512435999999997 33.979346 31.770412999999998
13.055276999999997 11.662575999999998 19.256353999999998
12.214144999999998 12.503707999999998 20.607415999999997
11.807357999999997 12.910494999999997 18.901711999999996
13.261715999999998 14.545236999999998 19.894596
14.036907999999997 13.770044999999998 18.649451
14.411804999999998 13.395147999999999 20.221435999999997
11.893661999999999 18.784017 12.824190999999999
12.098918999999999 20.560563 12.618933999999998
13.084197999999997 19.420901999999998 11.633654999999997
14.332266999999998 20.329904 13.474685999999998
14.143099999999999 18.692629999999998 13.663852999999998
13.235062999999997 19.742948 14.571890999999997
11.828911999999999 18.670458999999997 25.051321999999995
11.828911999999999 19.625608999999997 26.577122
11.828911999999999 20.469413999999997 24.987038
14.013236 20.434559999999998 25.987472999999998
14.013236 19.554288999999997 24.581288999999998
14.013236 18.776632999999997 26.046719
11.828911999999999 25.890337 18.610571999999998
11.828911999999999 24.515666999999997 19.77275
11.828911999999999 26.209476999999996 20.38216
14.013236 25.214233999999998 20.489751999999996
14.013236 26.481137 19.418682999999998
14.013236 24.920112 18.857046999999998
11.828911999999999 24.83506 24.773441
11.828911999999999 25.227656 26.530211999999995
11.828911999999999 26.552766 25.311829
14.013236 26.186783 26.24357
14.013236 25.824963999999998 24.624520999999998
14.013236 24.603735999999998 25.74739
11.628006999999998 25.430618 32.037142
12.790445999999998 24.697240999999998 33.199580999999995
12.658325999999999 26.487621999999998 33.067460999999994
14.577095999999997 25.637912999999998 31.897130999999998
13.505785999999997 26.313796999999997 30.825819999999997
13.627547999999997 24.663771999999998 30.947582999999998
20.537501 12.658518999999998 12.059333999999998
19.480914999999996 11.627984999999999 13.089868
18.747066999999998 12.790275999999999 11.927576999999998
18.713883999999997 13.627370999999997 14.179581999999998
19.68764 14.577115999999998 13.229836999999998
20.363957999999997 13.505942999999998 14.301010999999997
18.763996 11.828911999999999 18.955779
20.548689999999997 11.828911999999999 19.190815999999998
19.452795 11.828911999999999 20.618886999999997
20.348354999999998 14.013236 20.171608
18.703571999999998 14.013236 19.954995999999998
19.713555 14.013236 18.638878
20.054306999999998 13.015867999999998 33.425003
18.551001999999997 12.315706999999998 32.724841999999995
20.160172999999997 11.745204999999999 32.15434
19.159198999999997 13.298035999999998 30.618070999999997
20.544652 13.943307999999998 31.263343
19.061631999999996 14.469085999999997 31.789119999999997
20.089458999999998 18.677912999999997 11.828911999999999
18.549425 19.609935999999998 11.828911999999999
20.126597999999998 20.477632999999997 11.828911999999999
19.126801999999998 20.427690999999996 14.013236
20.546105999999998 19.568732999999998 14.013236
19.092574 18.769059 14.013236
19.489129 26.573024 11.828911999999999
20.534104999999997 25.107281999999998 11.828911999999999
18.742247999999996 24.935177 11.828911999999999
19.680068999999996 24.585065999999998 14.013236
18.717014 25.935902 14.013236
20.368398999999997 26.094514 14.013236
20.627623999999997 25.520201999999998 33.298075999999995
19.08477 26.447552999999996 33.298075999999995
19.053088 24.647727 33.298075999999995
18.630826999999996 25.555350999999998 31.113751999999998
20.052729 24.700701 31.113751999999998
20.081926999999997 26.359429 31.113751999999998
18.764511999999996 33.298075999999995 26.171880999999996
20.549014 33.298075999999995 25.935389999999998
19.451956 33.298075999999995 24.508211
20.347879999999996 31.113751999999998 24.954760999999998
18.703273999999997 31.113751999999998 25.172712999999998
19.714328 31.113751999999998 26.488007999999997
19.111404999999998 33.420944 32.115179
19.027423999999996 32.149463999999995 33.386658999999995
20.626652999999997 32.733776999999996 32.802346
20.028181999999997 30.621812 31.825211
20.105579 31.793613999999998 30.653408999999996
18.631721 31.255107999999996 31.191913999999997
26.276562 11.841538999999997 12.876313999999997
24.535791999999997 12.165647999999997 12.552204999999997
25.803127999999997 13.069592999999998 11.648259999999997
24.858286999999997 14.380303999999997 13.426648999999998
26.46259 14.081602999999998 13.725349999999999