150_cspbbr3_5\150_cspbbr3_5.xyz
1.0
50.769277 0 0
0 50.769277 0
0 0 50.769277
Br Cs Pb 
450 200 125 
Cartesian
31.1541955 19.264373499999998 10.4014635
28.256006499999998 19.3048645 13.3696475
40.342518500000004 13.6019585 13.3275305
28.191646499999997 13.634046499999998 37.3108885
31.1077085 13.515945499999999 40.1279815
31.2219045 16.620323499999998 13.2608675
34.410815500000005 25.211138499999997 31.415170500000002
31.2859245 13.680467499999999 34.1151065
40.4357205 13.568740499999999 19.2402595
31.306172500000002 10.6783995 31.4885935
31.435294499999998 13.6353435 28.406372499999996
40.3563155 13.5926245 25.2124825
28.595037499999997 13.3538295 25.3348875
40.482113500000004 13.5756185 31.424504499999998
31.253677500000002 10.4841325 25.1716055
31.284408499999998 13.3147585 22.3460885
31.5491995 10.6043375 37.179581500000005
28.3213965 13.385947499999999 31.064969499999997
37.2795525 40.4102035 31.201578499999997
31.439491500000003 16.441576499999996 19.173885499999997
37.4750645 37.425151500000005 34.3094625
28.5222615 25.3192285 19.2516635
31.1388825 22.4063035 19.312113500000002
31.1245865 25.223727500000003 16.451800499999997
28.4970255 25.212391500000003 13.425488499999998
31.116975500000002 22.295502499999998 13.3830935
37.427234500000004 34.276685500000006 37.404297500000006
31.426683500000003 25.4857225 10.675798499999999
34.3998855 37.191142500000005 37.5354635
31.398422500000002 19.601245499999997 40.1263375
28.2265575 19.2937875 37.4269255
37.3738615 37.2627955 40.489329500000004
31.221101499999996 19.2300375 16.3816245
31.155429499999997 16.625418500000002 37.3502145
37.4474815 40.249621499999996 13.6187655
28.5338815 19.412850499999998 31.248642500000003
31.4140595 16.2702125 31.2086745
31.1777565 19.3931275 28.1902835
37.1613825 40.169168500000005 19.2602865
28.191067500000003 19.406980500000003 25.2025455
37.0481225 40.352253499999996 25.3180925
31.438782500000002 16.274438500000002 25.375794499999998
31.128476499999998 19.411195499999998 22.534060500000002
28.155987500000002 13.506019499999999 19.2154915
28.475835500000002 19.314457500000003 19.671063500000002
37.286457500000004 40.076549500000006 37.4255835
31.254613499999998 19.2404115 34.379030500000006
40.1498695 13.352354499999999 37.1462705
40.1824425 19.6258045 25.3617425
31.503192499999997 13.6538045 16.635259499999997
25.303338500000002 34.4905295 13.641090499999999
25.4021445 37.4512415 10.3354945
40.1357785 31.261329500000002 19.293625499999997
25.3504035 31.6079875 40.2115945
22.4818395 31.1541365 37.302971500000005
25.372418500000002 31.187751499999997 34.0529805
40.146321500000006 31.4228205 25.235285500000003
22.6258785 31.4259635 31.461529499999997
25.4692345 28.332201499999996 31.1217105
25.444250500000003 31.0935865 28.456230499999997
40.3899825 31.121860499999997 31.220198500000002
40.1259655 31.2926145 37.1228245
22.674128500000002 31.339153500000002 25.4747335
40.326414500000006 31.252854499999998 13.632080499999999
25.2887355 28.298426499999998 25.1249095
40.2909235 37.4260685 13.3171385
22.1901955 31.244637499999996 19.4903975
25.3144475 28.262173500000003 19.5981375
25.509370500000003 31.4888045 16.3834655
40.3011285 37.149260500000004 19.2166165
40.1167145 37.1864865 25.515570500000003
22.224768500000003 31.437127500000003 13.2965775
25.402542500000003 28.2598415 13.735002499999998
25.281690500000003 31.547911499999998 10.6307235
40.1827455 37.4155535 31.130075499999997
40.2087165 37.162577500000005 37.4130065
25.1622925 25.3035005 40.0988765
22.256145500000002 25.411004499999997 37.1552665
25.291383500000002 31.173131499999997 22.5711175
31.463147499999998 10.6464825 19.265834499999997
22.5852445 37.1815815 13.3147285
25.4086255 37.4435015 16.3492045
40.1791175 19.461271500000002 13.3070455
28.407692499999996 13.401346499999999 13.7334505
40.386213500000004 19.5075195 19.191123500000003
31.4410795 10.328901499999999 13.320774499999999
31.5133255 13.5008205 10.3076355
25.2691235 40.2280235 37.1174655
40.2041365 19.561251499999997 31.566897499999996
25.5647825 40.243510500000006 31.173713499999998
25.632276500000003 40.2627055 25.2472535
25.6025285 40.4338505 19.4706305
25.386241499999997 40.5145245 13.5411595
25.5283005 37.1200345 40.0780395
22.4389695 37.0753485 37.3547425
40.3510135 25.1217895 37.2876665
25.4079555 34.4871975 37.1942225
40.0800245 19.299358500000004 37.2011595
22.5636065 37.3875435 31.4741365
40.0696955 25.2110815 13.4480445
25.539325499999997 34.2185005 31.160900499999997
25.3287725 37.1118325 28.400116500000003
40.1375835 25.3803015 19.614439500000003
22.271961500000003 37.1425815 25.222410500000002
40.4007975 25.276000500000002 25.219209499999998
25.3217845 34.3222485 25.120762499999998
25.424864499999998 37.104687500000004 22.638296500000003
22.2631825 37.19357350000001 19.2656525
40.0633075 25.372333500000003 31.5311015
25.515434499999998 34.4414645 19.3980605
25.230182499999998 37.1259715 34.5028285
31.451950500000002 25.516088500000002 22.2001815
31.3988515 25.1927295 34.1264555
28.3696805 25.6143445 25.2158485
37.158162499999996 19.314015500000004 16.3938195
37.312247500000005 28.5595145 19.5760875
34.2919875 19.731154500000002 13.498801499999999
37.1706585 16.4297745 13.7112295
37.3939225 19.5744155 10.4769285
34.343413500000004 31.166129499999997 19.549662500000004
37.1312515 13.314541499999999 40.4341165
34.1568315 13.447348499999999 37.4339935
37.457212500000004 10.6632635 37.2588565
37.1862595 31.5983905 22.501577500000003
37.440095500000005 13.6972405 34.4453685
34.3826765 13.5935495 31.4660365
37.0570595 16.3975985 19.414047500000002
37.2259505 10.360502499999999 31.2107715
37.448060500000004 13.5237015 28.532982500000003
34.3241615 31.204953500000002 25.521097500000003
34.1557085 13.6709105 25.4888435
37.3620195 10.5880405 25.238572500000004
37.3717065 13.2429975 22.343939499999998
37.328626500000006 31.509119499999997 28.4654735
34.3237405 13.2985355 19.361825500000002
37.441677500000004 10.5560785 19.6248645
37.446590500000006 28.492048500000003 31.4182215
37.0967585 13.350612499999999 16.5405995
34.4526775 13.3154285 13.399388499999999
37.1195085 10.718579499999999 13.3682605
37.2532805 28.1569895 25.4726285
34.2317155 19.2545055 19.2588685
37.2450015 19.5760085 22.2737505
37.438592500000006 16.694024499999998 25.352973499999997
37.3319775 25.5093805 34.1241195
37.3275585 22.490142499999997 31.1103545
37.1362955 25.3151685 28.186611499999998
37.4426645 22.2181895 37.2082625
34.1455515 25.2319465 25.387080500000003
37.1400165 22.609727499999998 25.5031805
37.1384615 25.2585105 22.385541500000002
34.228550500000004 25.3944575 37.5318095
34.4097305 25.537377499999998 19.416183500000002
37.105861499999996 22.4781135 19.2245395
37.1803725 25.5176205 40.3461175
37.4704175 25.580321500000004 16.5691615
34.204381500000004 25.468126499999997 13.2831905
37.2646605 22.4161735 13.717461499999999
37.2826665 31.1384355 10.462880499999999
37.1456535 25.399907499999998 10.3187795
37.3468705 19.213246499999997 40.3019835
34.465334500000004 19.648574500000002 37.4048455
37.5458095 28.291960500000002 13.3806195
37.0102325 16.510239499999997 37.270021500000006
37.5135345 19.5134135 34.1726765
34.5536685 31.302837500000003 13.3279175
34.4487375 19.482665500000003 31.4498385
37.270899500000006 16.1832145 31.3291575
37.3639115 19.672034500000002 28.4940305
37.2804725 31.579770500000002 16.378162500000002
34.2325395 19.1916405 25.3909605
37.4269535 13.6676165 10.6988585
31.1537875 22.2779795 25.397651500000002
34.2214615 31.180004500000003 31.2044735
31.118914500000002 40.2732515 31.503946499999998
28.511885499999998 31.4610585 31.4255165
31.3844395 28.1489185 31.1890395
31.216423499999998 31.2086355 28.1876355
37.1421555 34.4456165 19.317305500000003
34.3358125 37.3285435 19.1903285
28.1893975 31.516296500000003 25.4583625
31.3810765 28.435494499999997 25.1290835
31.213589499999998 31.2074675 22.3491905
28.262654499999996 31.338142499999996 19.205163499999998
31.0984185 28.238290499999998 19.342194499999998
31.1512805 31.2310455 16.663048500000002
37.1488475 37.4582325 22.272910500000002
37.4169705 37.4635545 16.259528500000002
28.402626499999997 31.391814500000002 13.6929575
31.4116115 28.501960500000003 13.6732705
31.4289195 31.173218499999997 10.6245265
34.5445245 37.118460500000005 25.4329045
31.3709055 25.1444605 40.283626500000004
28.206247499999996 25.4915405 37.3866475
31.2656085 22.6587215 37.3630645
37.5202005 37.182738500000006 28.2689405
28.286131499999996 25.509690499999998 31.1718665
31.540636499999998 22.2366515 31.4261605
31.433631499999997 25.363491500000002 28.5663525
37.0523215 34.3619895 31.167857499999997
34.2135735 37.4737135 31.171966499999996
37.2001025 34.1678595 25.2816775
31.1766505 31.119463500000002 34.3466955
31.324240500000002 28.233523499999997 37.5021935
28.283865499999997 31.2723595 37.4628995
31.1945075 40.3486655 25.224503499999997
31.4708135 40.3230975 19.302549499999998
37.1078185 31.4681735 34.1332005
31.2209085 40.1236775 13.4427285
31.310345499999997 37.5398035 40.1909405
28.5629565 37.3758255 37.300740499999996
31.515423499999997 34.316534499999996 37.208506500000006
37.4293605 28.182674499999997 37.4108345
31.4789465 37.1621365 34.478769500000006
28.472460499999997 37.321138499999996 31.1200045
25.518570500000003 22.310351500000003 37.1341265
34.1758065 31.2202325 37.3803755
31.1013575 37.388633500000005 28.4357865
37.1671805 31.217082499999997 40.366501500000005
28.383990499999996 37.4512185 25.5483555
31.225033500000002 34.1372285 25.247266500000002
31.5286165 37.235332500000005 22.5779895
28.469908500000003 37.2982185 19.6146155
31.125941499999996 34.2161745 19.5195925
31.506910499999996 37.2755195 16.530077499999997
37.3749485 37.078080500000006 10.606747499999999
37.3469185 34.181061500000006 13.2611245
28.518184499999997 37.4350545 13.6482115
31.147555500000003 34.5077585 13.5800535
31.1777795 37.3875255 10.4954175
34.2748085 37.4132965 13.6258365
31.4306865 31.4755825 40.162155500000004
31.5208175 40.3498795 37.435857500000004
31.4437765 34.3142425 31.5265395
25.454950500000002 28.594773500000002 37.1415835
19.452478499999998 28.431624499999998 25.129582499999998
19.2817425 22.1834475 25.5077395
19.605137499999998 25.2693235 22.341229499999997
13.4436085 25.189806500000003 10.4997335
16.3953245 25.119536500000002 19.5401295
19.2998435 22.1989885 19.269571499999998
19.291869499999997 25.4947995 16.2743185
13.550253499999998 22.5294655 13.606892499999999
10.348200499999999 25.4957425 13.6082035
16.5987115 25.244947500000002 13.3494275
19.594891500000003 22.349447500000004 13.3246975
19.386871499999998 25.5352405 10.3047215
13.287946499999999 25.508247500000003 16.463289500000002
19.3467555 19.536491499999997 40.453157499999996
16.274263499999996 25.411857500000004 25.4343205
16.5203505 19.2019375 37.399485500000004
19.321948499999998 16.3274455 37.4040825
19.610963499999997 19.4110205 34.2349995
10.649488499999999 25.5021025 19.465416500000003
16.3149795 19.3834315 31.2368625
19.2561405 16.481443499999997 31.450289499999997
19.2418945 19.444720500000003 28.303520499999998
13.6558245 25.242352500000003 22.4056595
16.363707499999997 19.2723545 25.412017499999997
19.5283395 16.2557905 25.3755775
19.5315625 19.194539499999998 22.5048835
13.4956275 22.2558925 25.205043500000002
16.3799695 19.4054445 19.2732205
19.3294865 16.5161205 19.2584065
13.5941105 22.380117499999997 19.2738085
10.6612735 25.4828695 25.2768845
13.3218105 19.243013500000004 40.3879685
10.5072345 19.1912465 37.247597500000005
19.6655175 28.2891975 37.444187500000005
19.411745500000002 31.5612335 34.3850615
13.6419345 19.5649145 22.3640015
16.490869500000002 31.132147500000002 31.5047985
19.663062500000002 28.416686499999997 31.254633499999997
19.2994525 31.197323499999996 28.3428885
13.333997499999999 16.6238145 25.404315500000003
16.608765499999997 31.366139500000003 25.520506500000003
13.610680499999999 28.5297225 37.4328725
19.3371565 31.1459575 22.5768555
10.2617905 19.3558875 25.432410500000003
16.5410555 31.1767725 19.287245499999997
19.455166499999997 28.4607345 19.264225500000002
19.2586035 25.438978499999997 28.3650465
19.6054965 31.492780500000002 16.476994499999996
13.5540025 16.349897499999997 31.1762235
16.4160455 31.219513499999998 13.6948305
19.3050275 28.430620499999996 13.292080499999999
19.174856499999997 31.3385065 10.4265575
10.679418499999999 19.2372675 31.2212265
19.284682500000002 25.382372500000002 40.1556115
13.5744925 19.2077145 34.4835585
16.344921499999998 25.428031500000003 37.1002495
19.3010515 22.427322500000002 37.4226875
13.337301499999999 16.3397395 37.0785915
19.5888865 25.5975635 34.2338885
16.3909715 25.3301405 31.128547499999996
19.5231595 22.260031500000004 31.4308525
13.5088745 19.634980499999998 28.488549499999998
16.3812445 31.491232500000002 37.1370875
19.6481115 19.367794500000002 16.397287499999997
25.564018500000003 25.597066499999997 34.386381500000006
10.460682499999999 31.229656499999997 19.601279499999997
13.5941935 40.1200045 25.4529445
13.352364499999998 40.4132595 19.444436500000002
13.6490295 31.3738745 22.5977375
13.2411195 40.1832385 13.4626605
13.4224795 37.374364500000006 40.4146395
13.3237005 28.2939225 25.491549499999998
10.284312499999999 37.2204345 37.167806500000005
13.3428265 34.094020500000006 37.1682355
13.2580405 37.440225500000004 34.2834895
10.646400499999999 31.2157105 25.341319499999997
10.3525505 37.1387975 31.1810435
13.3305905 34.4140775 31.180625499999998
13.7226275 40.1715075 31.355880499999998
13.258943499999999 37.1105955 28.4380155
10.337776499999999 37.088356499999996 25.472300500000003
13.5236255 28.2440875 31.121854499999998
13.5426345 34.2316755 25.6362145
13.3328995 37.3555055 22.2537965
10.3473735 31.1738585 31.205245499999997
10.326888499999999 37.249128500000005 19.2867355
13.5343465 34.5925145 19.4243185
13.6328455 37.1349145 16.656614500000003
10.4160805 37.1008605 13.3860115
13.5953685 31.4638525 34.2112245
13.6902355 34.1826685 13.3943295
13.6210805 37.4296175 10.6556515
13.6471065 31.5215625 40.180620499999996
13.7157565 31.214952500000003 28.4431205
13.3192525 25.5147275 28.2555025
13.427600499999999 28.2218575 19.300441499999998
13.3514125 31.5416635 16.5847785
16.623873500000002 19.590582500000004 13.475329499999999
13.308154499999999 22.478528500000003 31.500991499999998
19.5114405 16.2581665 13.6085385
10.751360499999999 25.439994499999997 31.4851325
19.638979499999998 19.458583500000003 10.4265685
13.4992985 25.289736500000004 34.078626500000006
19.5884705 13.402514499999999 40.351428500000004
13.6677295 22.375651500000004 37.5077975
16.268206499999998 13.4371765 37.2476835
19.433502500000003 10.3047905 37.4275805
19.288605500000003 13.3685165 34.4093925
10.5483105 25.335407500000002 37.4654445
16.622305500000003 13.2569705 31.3652855
13.6627555 40.413140500000004 37.200536500000005
19.562689499999998 10.6969745 31.279284500000003
16.2301945 13.5106325 25.3208535
13.5526565 25.5445735 40.1188245
19.4712695 10.5717425 25.552226500000003
19.630222500000002 13.4721755 22.3841065
13.454570499999999 31.565717499999998 10.5296475
16.588412499999997 13.7504005 19.4613365
13.4616475 28.585631499999998 13.6213245
19.4000195 10.6296875 19.7038255
19.5741235 13.2871165 16.402916499999996
16.3158315 13.5749285 13.383642499999999
10.4724915 31.0848575 13.573292499999999
19.5411985 10.6390885 13.350277499999999
19.6004755 13.631095499999999 10.5099325
19.641499500000002 13.6710715 28.299125500000002
19.333169499999997 31.260175500000003 40.1023505
10.517493499999999 31.5332035 37.368375500000006
25.495923500000004 10.659414499999999 31.539702499999997
25.384550500000003 16.318484499999997 37.1481505
13.3379295 10.574510499999999 31.489788499999996
22.543307499999997 19.5281935 37.421082500000004
10.4520565 13.636075499999999 31.225472500000002
22.2936335 13.3966875 25.542306500000002
25.5256495 10.7263985 25.397498499999998
25.235226500000003 13.360486499999999 22.4060535
25.1953035 19.4202535 40.422708500000006
22.476555500000003 13.481380499999998 19.676218499999997
25.324037500000003 10.217734499999999 19.4377005
25.356063499999998 13.3584675 16.3278205
25.524744499999997 25.162440500000002 10.588502499999999
10.6138405 13.6181325 13.567907499999999
22.567130499999998 13.4259875 13.3217725
25.5918275 10.469721499999999 13.6910255
25.219438500000003 22.533544499999998 13.324569499999999
25.405418500000003 19.7030625 22.3289095
13.484826499999999 13.7335885 34.4601805
13.4696765 10.7235245 37.4532875
25.2413735 13.294561499999999 28.440791499999996
13.5383535 13.4149335 28.631997499999997
13.5421955 13.709329499999999 16.6380605
25.596062500000002 19.6105065 34.2760035
22.5849125 19.5294435 25.2738505
22.2738225 19.5903025 19.561791499999998
25.538577500000002 16.5040045 19.616290499999998
25.476741500000003 19.607456499999998 16.621784499999997
10.4078825 13.4128065 19.587211500000002
13.6211535 13.6229055 22.3141375
22.4851855 19.153822499999997 13.530445499999999
25.448027500000002 19.476968499999998 28.6496785
25.554655500000003 16.5474545 13.6385925
19.6675745 40.4300515 37.3187785
25.5896745 19.5325255 10.470924499999999
25.503283500000002 13.389623499999999 40.430532500000005
25.5766735 16.604361500000003 31.4913375
22.258427500000003 13.3353775 37.300174500000004
25.410326500000004 10.5472825 37.4715305
22.2280435 19.359637499999998 31.3505265
13.5278095 10.6866585 19.2999535
25.261691499999998 13.5829595 34.454600500000005
10.6837415 13.5744555 25.2173595
22.477732500000002 13.3732145 31.1868665
13.541050499999999 10.3434935 25.5357025
22.364073500000003 25.4868035 13.3382445
25.5257735 13.675056499999998 10.3561555
19.570415500000003 34.3183595 31.194308499999998
10.2784535 19.4285895 13.6043875
16.5874435 37.5137825 31.350520500000002
19.2742425 40.0728945 31.311896499999996
19.515448499999998 37.1034085 28.5544115
22.4235355 25.392509500000003 25.5896755
16.590937500000003 37.142702500000006 25.4935695
19.3142455 34.1311735 25.430961500000002
19.6059675 37.2646505 22.603148500000003
25.542609499999998 25.3441525 28.184138499999996
25.4808015 22.184064499999998 25.294774500000003
13.5821505 19.4806775 16.6680445
19.487759500000003 34.2960415 19.645185500000004
19.6330765 37.3717205 16.539548500000002
13.5629885 16.599475499999997 19.576015499999997
25.2755855 22.5495375 31.4255705
16.374460499999998 37.0765135 13.3971125
10.708055499999999 19.540049500000002 19.3837755
19.1790295 34.3259235 13.4153585
19.436625499999998 37.1308595 10.6274175
22.3736095 25.5276195 31.229923499999998
16.3433305 37.1493515 19.514269499999997
13.380196499999998 13.356840499999999 10.4055845
25.435722499999997 16.449664499999997 25.2030005
25.531018500000002 22.4603465 19.606851499999998
19.313902499999998 34.1440285 37.350831500000005
10.514108499999999 13.6509035 37.4991975
16.6629085 37.1676835 37.2004905
13.5491725 16.3176845 13.6420055
22.549068499999997 25.1910515 19.515944500000003
25.6296185 25.4699145 16.565495499999997
25.5517495 25.3360305 22.295196500000003
19.5985995 40.0745435 25.5115335
19.2239485 40.2217695 13.3872705
13.3681945 10.6132215 13.3839355
19.3135945 37.121375500000006 34.2252375
19.546819499999998 37.463003500000006 40.2443295
13.423874499999998 19.5607445 10.6516635
13.715491499999999 13.4837285 40.2015005
19.2509265 40.395528500000005 19.2485725
40.5017335 34.212658499999996 16.8432605
40.1353935 27.9290915 34.358002500000005
34.580259500000004 22.455628500000003 40.6335415
34.826189500000005 28.3930985 22.254050499999998
39.7976845 40.621449500000004 22.283328500000003
10.4495095 28.176328499999997 28.746357500000002
40.4631035 34.5202125 22.632118499999997
39.8435605 40.2273635 16.4077985
11.0310945 28.0958155 34.3998975
39.9037905 33.9033035 34.4041165
40.6522665 28.7559835 40.0455685
39.8800205 34.1237335 39.9858025
34.0819445 28.875969499999997 16.380266499999998
40.4787215 34.2215755 10.1761745
34.355970500000005 28.6467405 10.8313705
34.531053500000006 22.205889499999998 34.0450055
10.4205575 11.026989499999999 16.1917075
10.140696499999999 28.1992355 22.8325385
10.1728475 28.447478500000003 16.3336805
39.9240345 34.2404105 28.551947499999997
10.823805499999999 16.7256925 22.4729145
11.0074965 10.1874655 22.3415695
40.2866695 16.625086500000002 21.986129499999997
34.5166405 34.779590500000005 22.1816215
40.7151585 16.337998499999998 16.6694155
10.2789485 22.8062855 10.8494035
40.0953355 16.0064275 10.7024925
10.595504499999999 16.2718385 10.952603499999999
40.0079055 10.6786605 34.595304500000005
34.019441500000006 34.5825975 28.2195205
39.937596500000005 10.381855499999999 28.7094125
40.6564915 16.064221500000002 28.389126499999996
10.4348485 16.1188305 34.0885995
33.947339500000005 34.4073525 34.2192115
40.5840545 10.1211945 16.4492185
10.9290425 16.6068895 16.809270499999997
10.0920445 16.433111500000003 28.0663185
34.376321499999996 40.741608500000005 40.0393715
33.8828665 34.1721605 40.4014235
34.4087715 40.4390805 28.7061985
34.4010755 39.8292665 10.5957875
34.4715045 40.6120475 16.786032499999997
40.3651075 10.5108465 22.954913500000004
40.1471615 28.697838499999996 28.539573499999996
10.960848499999999 22.5561735 16.694052499999998
40.4693975 16.2022335 34.4985855
39.881062500000006 28.259308499999996 22.4614245
10.2401465 22.035250500000004 40.5493095
33.8853005 28.4212755 28.2678345
40.5480945 28.4988455 16.2108055
40.0226045 27.966770500000003 10.3738415
10.8081455 22.8253635 34.5651365
33.8426395 28.7081235 34.4446295
40.6436635 22.3300555 39.8587435
40.506152500000006 22.5305435 34.6965165
34.0562905 34.4073325 16.1971665
10.2909265 10.2765905 28.595861499999998
33.9412455 40.116732500000005 22.6004065
34.5074205 27.989574499999996 39.9785365
40.4013155 22.277178499999998 21.834393499999997
40.5770945 22.663182499999998 16.685787499999996
34.3075145 34.7129635 10.3337085
40.210544500000005 22.5959925 10.8953905
10.267927499999999 22.5148395 22.1260835
39.917755500000005 16.6118405 40.2324915
10.2425675 10.236858499999999 34.558971500000006
40.3401905 22.050689499999997 28.063584499999997
22.808370500000002 22.4455345 33.974452500000005
16.2622315 16.628446500000003 16.7999655
10.7033145 28.4072995 39.7530935
28.515643499999996 10.9943355 10.7766345
22.200540500000002 10.7838815 22.1950675
28.5744415 10.5056765 16.930406499999997
22.9846625 10.3377015 16.516043500000002
28.4761125 11.0170245 22.377965500000002
22.414651499999998 10.0593495 10.8680165
28.013513500000002 10.267177499999999 28.010315499999997
16.1079385 40.6382915 40.3986825
16.448054499999998 40.6545805 34.6077915
28.7387365 10.6345695 34.523669500000004
16.572844500000002 40.6946615 28.6812715
16.528614500000003 40.6131605 22.8480225
28.108993499999997 10.6727335 40.4894485
16.2987255 40.6773445 16.7525645
28.6504025 16.2707585 10.2610855
16.2236485 40.026612500000006 10.904128499999999
16.3586235 34.2818435 40.7418685
27.9639065 16.646477500000003 16.8127105
16.1697715 34.0318615 34.2278065
28.0677235 16.7207115 22.051044500000003
16.1889835 33.946641500000005 28.1044805
28.3812425 16.1488755 28.043868500000002
16.0770375 34.0391455 22.061414499999998
28.6887855 16.7364125 34.6165995
16.8349045 34.5083745 16.1192155
28.5598625 16.729901499999997 39.8788515
28.482071499999996 22.033235500000004 10.9332195
16.6175755 34.034554500000006 10.8084125
28.2904195 22.694438499999997 16.2216345
22.247457500000003 40.4253365 40.5648125
16.1353735 28.2769245 39.8922365
22.973752500000003 10.3156115 28.328179499999997
22.7176925 40.0296535 28.614042499999996
21.994111500000002 22.495492499999997 40.5691725
21.9515215 28.4430615 10.2120755
22.838829500000003 22.584880499999997 28.6106355
22.3156385 28.0815975 16.742444499999998
22.152342500000003 22.734632500000004 22.484449500000004
22.6081335 28.525257500000002 22.673128499999997
22.6673015 22.6512795 16.8785295
22.342000499999997 28.065169499999996 27.943940499999997
22.5432585 22.7842475 10.0956865
22.7061925 16.2738225 40.449360500000004
22.4902935 28.124618499999997 34.6398845
39.8927635 40.4158065 27.9619735
22.0617235 28.290532499999998 40.6141105
22.323693499999997 16.2844215 33.806478500000004
22.478319499999998 34.2408725 10.9841675
22.398253500000003 16.6618395 28.779931499999996
22.501568499999998 34.8008015 16.443630499999998
22.5472835 15.8923535 22.4790255
21.9726925 34.4380495 22.8012855
22.8638645 16.5809985 16.257996499999997
22.5340705 34.6541495 27.9794075
22.423213500000003 16.2121775 10.1383925
21.989867500000003 34.4141265 34.342067500000006
22.7796685 10.4772655 40.4669765
22.220884499999997 34.5576105 39.8490335
22.127996500000002 39.9899135 10.8350615
22.7026665 10.833083499999999 34.0704365
22.659636499999998 40.045344500000006 16.8135805
22.9603545 40.3242635 22.4238955
22.503857500000002 40.6437625 34.4537475
34.5880065 22.3315165 27.9188015
28.819112500000003 22.7277925 22.494029500000003
28.661201499999997 22.089929500000004 28.144071500000003
34.5951335 10.5394325 10.7826385
16.193524500000002 16.1007485 10.6013995
16.691168500000003 10.9970315 40.236019500000005
16.3199555 10.1344535 33.990274500000005
34.3480315 10.047397499999999 22.6557175
16.4275345 10.2288745 28.0702585
33.918847500000005 10.3925965 27.9477465
16.528409500000002 10.1228415 22.217920499999998
34.5812845 10.785864499999999 34.6443995
16.490883500000002 10.149001499999999 16.906713500000002
34.477373500000006 10.8215025 40.434585500000004
33.952917500000005 16.2325655 10.0740915
16.2144515 10.920092499999999 10.6019785
10.1582595 40.2484125 34.4734695
34.132453500000004 16.2583895 16.7520435
10.7327395 40.161198500000005 28.0096255
33.881378500000004 16.862545500000003 22.258447500000003
10.9111165 40.382818500000006 16.0718035
10.2068345 33.9793255 40.4211055
34.5644965 16.122615500000002 28.006341499999998
10.6381645 34.6092455 34.0892235
34.2165805 16.904306499999997 34.530038499999996
10.7540195 33.8949975 28.689840500000003
34.1784605 16.562130500000002 39.795671500000005
34.394687499999996 22.1403235 10.021108499999999
10.1545855 34.218142500000006 22.227557500000003
34.270607500000004 22.077357499999998 16.730262500000002
10.2530225 34.0524585 16.089817500000002
34.3783655 22.869626500000003 22.062011499999997
28.0676195 40.0237955 40.117149500000004
16.479110499999997 28.8625585 34.5790495
28.673100499999997 40.065622499999996 34.3906965
28.6589775 39.9589165 16.162850499999998
16.821679500000002 28.054581499999998 28.6925015
27.9668975 22.3655385 34.708529500000004
16.7269755 28.3169155 21.8707305
28.228544499999998 22.3570425 40.622715500000005
16.2042845 28.5374165 16.2259745
28.4243015 28.6269195 11.0051215
16.170564499999998 28.186460500000003 10.270479499999999
28.4722625 28.6398505 16.2033725
16.2794825 22.3473605 40.7189015
28.1443365 28.166151499999998 22.7498595
16.3965375 22.698770500000002 34.6618805
28.7293065 28.394358500000003 28.8027985
16.892531499999997 22.7603875 28.5769285
28.1670435 28.640708500000002 33.8758835
16.212193499999998 22.0416065 22.1495695
28.1211785 28.0703485 40.4123055
28.267560500000002 34.489706500000004 10.156174499999999
16.784653499999997 22.7621605 16.4039445
28.528907500000003 34.190928500000005 16.1006165
16.1999475 22.675363500000003 10.1934465
16.328784499999998 16.699591499999997 40.5434545
28.3402605 34.6022185 22.812838499999998
16.168459499999997 16.5024895 34.0134505
28.0033465 34.539699500000005 28.002871499999998
16.8807245 16.186766499999997 28.2281805
28.485091500000003 33.8557075 34.0991305
16.2425015 16.1295175 22.4391325
28.0793095 34.6297615 40.3243865
28.139740500000002 40.8166745 10.465045499999999
28.7540275 39.8860935 28.401264499999996
39.8077475 40.3564415 34.5054975
13.413769499999999 13.690246499999999 13.2083005
19.6504025 19.4290425 19.573530499999997
19.569433500000002 19.1461385 25.5228515
31.1429125 37.470343500000006 37.4733485
19.5829065 19.191081500000003 31.187377499999997
31.2511935 37.0094205 31.2711605
19.6812945 19.2298135 37.4439415
31.259004499999996 37.4821125 25.102745499999997
31.4659245 37.0988625 19.3980095
19.1909305 25.593129500000003 13.3942365
19.6317905 19.326223499999998 13.414764499999999
31.193827499999998 37.4408655 13.7158555
19.477143499999997 25.2879815 25.5896945
31.2266335 31.1221975 37.369169500000005
19.3869555 25.186373500000002 31.1496135
31.479147499999996 31.4700525 31.1762885
19.1688305 25.4553565 37.0450595
31.519602499999998 31.4860305 25.246948500000002
31.061504499999998 31.1659475 19.386078500000004
19.687489499999998 31.4373365 13.402671499999999
31.4912535 31.5028255 13.310029499999999
19.4231865 25.6181025 19.620461499999998
19.424583499999997 31.367624499999998 19.154565499999997
37.1722515 13.2010095 13.4817605
19.287214499999997 13.5720715 37.1248565
13.8111905 37.2338025 13.3865965
37.3661255 25.134195499999997 25.3667425
13.4535945 37.0137055 19.533463500000003
37.1544845 25.566787500000004 19.3241055
13.3777665 37.251402500000005 25.096048500000002
37.443450500000004 25.2371815 13.643722499999999
13.665887499999998 37.1317955 31.5037205
37.2811125 19.422217500000002 37.5481885
13.5915565 37.0450515 37.3823615
37.5828095 13.5085825 19.2953155
37.341550500000004 19.2726585 31.189248499999998
37.1151155 19.628907499999997 19.2976205
19.2356755 13.5046075 13.2125635
37.1065735 19.248183500000003 13.341339499999998
19.6136645 13.3094685 19.3050645
37.5212645 13.3159485 37.1350325
19.328827500000003 13.3547655 25.103269500000003
37.3815545 13.7011565 31.5887155