1_train/94_cspbbr3_methylammonium_4_0.60\94_cspbbr3_methylammonium_4_0.60.xyz
1.0
47.811114 0 0
0 47.811114 0
0 0 47.811114
Br C Cs H N Pb 
240 51 61 306 51 64 
Cartesian
27.088775000000002 23.747034 32.881771
26.68037 26.974183999999997 29.971762
32.940173 24.043724 32.990824
23.772928 26.736131 26.821225000000002
26.683924 26.753231 23.941363
35.728092000000004 20.703928 20.837957
35.710066999999995 20.807992 15.155553
27.04515 23.972235 27.027905
35.634263000000004 14.848241999999999 26.884775
35.948796 14.95096 32.941486
27.066518 26.681831 35.712613000000005
35.680931 20.886495 27.029263
26.636087999999997 32.710036 12.011797999999999
26.679469 29.784048 14.920587999999999
35.691434 14.761622 20.941208
23.866921 33.051428 14.82156
35.59586999999999 14.805269 14.90321
26.646882 32.892801 18.066731
26.853607999999998 29.65939 21.011491
24.03295 32.678535 20.798844
32.785747 35.911502 32.684974
26.897223 32.781752999999995 24.11461
23.837248 26.700353 32.869815
24.01257 26.952619000000002 21.106987999999998
23.89198 26.744588 14.857657
26.848215 26.730217999999997 18.090331
27.059255 12.141067999999999 32.778769999999994
23.781519 15.11141 33.029641
26.631707000000002 15.064712 35.861537
35.595923 32.788236999999995 32.994260999999995
35.768761 32.971128 26.770332
26.830064 20.733666 11.986654
26.992349 17.835379 14.844624
35.946535 32.709326000000004 20.85129
24.057323 20.770518 14.906737999999999
35.966769 32.782019 15.047711
26.725019 21.035647 17.874595
26.733604 17.836744 20.971959000000002
23.932222 20.791475000000002 21.052974
26.754703 23.987835 21.147088
35.957661 26.938244 32.981257
26.727531 17.972906 26.769257999999997
23.866741 21.117168 27.059796000000002
35.756456 26.936238 26.650527999999998
27.024035 21.044704 29.914678
26.71004 17.770174 32.923941
23.878054 20.778855 32.587299
26.975286 20.811683 35.692283
35.966787999999994 26.841772 21.160733
35.739565 27.021072 15.169507
27.070175 26.670075999999998 12.053189999999999
26.703122 23.895931 14.849115999999999
27.062177000000002 29.876917 27.012950999999997
35.62652799999999 20.997685 32.836989
27.064460999999998 20.800482 24.07337
32.975417 35.942335 26.80699
23.92554 32.9303 33.013697
32.733176 35.581424999999996 20.766422000000002
30.000355 20.776573 14.833903
29.978098 33.053934999999996 21.064798999999997
32.937540999999996 20.833077 17.844919
32.744601 17.956561 21.169613000000002
29.967778 20.780645 20.985121
32.790352 29.98722 21.064916999999998
32.784769 21.160099 23.772372
32.988149 18.083597 26.976276000000002
29.945558 21.032612 27.017502
33.071308 20.906848999999998 29.744519999999998
32.6539 32.646339999999995 18.073541
32.733193 17.965907 32.57694
30.025023 20.730110999999997 32.748883
32.892652 21.074969 35.649929
30.042175 32.907121000000004 14.833399
32.672442000000004 27.081506 12.116506
32.976155 23.935467 14.838505
32.898281999999995 29.800201 14.746914
32.885957000000005 26.783773999999998 17.811503
32.814201 23.752635 20.760626
30.045556 27.00235 21.050239
32.987829 32.854578000000004 12.168493
32.577967 26.958403999999998 24.038394999999998
32.722331 24.053915999999997 27.086017000000002
29.987477 26.755399999999998 26.873673999999998
32.967478 26.942373 35.986063
32.870912000000004 27.058412999999998 29.839029
32.595078 17.885828 14.949034999999999
23.72771 32.679044000000005 26.829657
32.804455000000004 20.986994 12.22069
32.972132 29.718161 26.848479
26.780289999999997 32.718975 30.010859
27.078128 29.967069 32.637526
29.87746 27.072046 32.940618
27.069892 33.002770999999996 35.817941000000005
27.0269 35.65212699999999 14.869133
26.884809999999998 35.613856999999996 20.864123
32.675353 35.631275 14.987801999999999
27.105539 35.657702 26.898813
26.706065 36.00909899999999 32.840239999999994
32.900544 33.028318 35.819118
32.858357999999996 15.194170999999999 11.916513
29.764323 32.614188999999996 32.735731
32.667167 12.14853 15.154727999999999
29.919781999999998 14.843451 15.085166
33.001221 14.805549 17.873269999999998
32.835057 30.006916 33.024543
32.961053 11.86038 21.137801999999997
29.792113999999998 14.807549999999999 20.801931999999997
32.59201 32.812235 30.014167
32.685365000000004 14.839383999999999 23.811577
32.67954 12.073844 27.023636999999997
29.65706 15.169132999999999 26.898715
30.034404 32.861346999999995 26.715411
32.972139999999996 14.849674 29.844746999999998
27.131649999999997 14.95675 29.904701
30.000704 14.844638999999999 32.912524000000005
32.974593999999996 14.914415 35.648343999999994
33.031968 32.892692 23.719871
32.847308999999996 11.796089 32.81232
29.85521 26.961626 15.156547
23.870141 14.842744 27.103634
14.82456 32.955428999999995 35.869327999999996
11.97936 32.734311 33.014097
14.742283 29.798692 32.658088
15.039328999999999 32.666656 29.989841
12.104607999999999 33.014513 26.792934
15.134039 32.69152 23.978163
15.111205 35.799831999999995 14.816669
12.140773 32.867149 21.087903999999998
14.919506 32.6732 17.795074
11.922517 32.891306 15.150162
14.911353 29.938516 15.225573
15.173748 32.644892999999996 12.035055999999999
15.107021 26.744384999999998 35.944924
11.918272 27.085821 32.749603
15.178024 29.871503 20.965138
15.093508 23.731446000000002 32.693597999999994
15.127113 36.032742 20.980909
15.081955 35.763116 32.994491
20.856269 21.031318 11.856633
21.010312 15.153535 35.675532000000004
18.033821 14.769089999999998 32.725605
20.737123 12.094472 32.967644
21.059783 14.885819 30.018731
17.762206 15.113057 27.063565999999998
15.144081 35.649243 26.833857
20.936701 11.740668 26.81793
17.847563 15.026771 21.103237
20.781827 11.829182 20.980687
21.153434999999998 14.792024999999999 17.941612
17.982003 15.118701999999999 15.105843
20.783350000000002 12.010733 15.101412999999999
20.81514 15.17305 12.175839999999999
20.866493000000002 14.875808 24.115313
14.858709 26.908300999999998 29.702157
12.158519 26.856694 27.013819
15.167421 23.861948 26.703032
15.142682 20.689625 12.06012
14.803678 14.959499 35.901448
12.121432 15.249912 32.853280999999996
14.906925 11.811384 32.788921
14.82221 15.047975 29.96365
12.152379 15.174235 26.972982
14.871101 17.851953 14.843831999999999
14.823599 12.168766 26.698452
12.029641999999999 14.696458 20.911672
14.928511 12.194128 21.085632999999998
15.127533 14.800203999999999 17.932133
11.889453999999999 14.872857999999999 14.77728
15.068013 12.237225 15.085446999999998
14.829122 14.883804999999999 12.062052
14.935375 15.110679999999999 23.743025
11.846641 21.057430999999998 14.997409999999999
14.898185999999999 20.840778 18.098602
15.043331 18.153359 20.80136
14.978812999999999 26.866114 24.125667
11.845027 27.093216 20.886607
15.133614 23.798378 21.156825
15.015844999999999 26.775181999999997 17.81385
11.999449 26.6911 14.840014
14.794820999999999 24.043663 15.059249999999999
14.915837 26.716038 11.949076
14.761379 20.871984 35.712056000000004
11.858403 21.059891 32.666961
15.11624 18.159412 32.82468
15.001323 20.891983 30.097297
11.971276 20.732957 26.685497
14.855708 17.811768999999998 26.835309
15.03953 21.138416 23.715422999999998
12.234411 20.790331 20.937393
20.874990999999998 18.109025 14.903863999999999
17.985413 20.696476999999998 15.142510999999999
15.117628 29.719801 27.007932
21.08384 26.983231999999997 23.847742999999998
21.086825 29.74975 15.126013
20.826381 35.599211999999994 15.140272
21.052394 26.991466 18.059887
21.028808 23.690304 20.951688
18.081688 27.062189999999998 20.844293
21.114810000000002 29.940307999999998 21.020197
23.943991999999998 15.150615 14.789995
26.717428 12.180088 15.084741999999999
27.04078 14.845498 11.994703
20.973827 32.607475 29.808169
20.829871 32.889157 18.175441
20.774381 24.07532 26.998649
17.796391 26.725372 26.791822999999997
20.82357 36.06657299999999 32.845624
20.674353 26.928334 29.711293
20.680932000000002 24.003454 32.703154
18.140114999999998 26.721878999999998 32.813447
21.096092 26.784945 35.750693999999996
20.828793 35.587125 26.932238
21.077004 35.704583 20.787831
20.678768 32.837023 11.886007
20.740816 32.976659999999995 35.791595
17.937478 32.663937000000004 32.594985
17.816529 33.000933 21.100677
20.892135999999997 29.645547 32.849326000000005
21.072177 17.866028999999997 20.707368
18.114532999999998 32.885789 26.755463
17.898274999999998 21.170343 20.868917
26.648174 11.905059999999999 26.933152
20.759518 20.774696 23.815381
26.822393 15.014966999999999 24.126110999999998
20.979902 18.121643 26.727908
17.797124 21.109734999999997 27.045173000000002
20.732435 29.827092999999998 26.897119999999997
17.877938 26.971434 15.137781
17.83488 32.654933 14.821415
20.972758 20.916836 18.239009
20.969339 20.722137999999998 29.826776
21.094742999999998 17.920389 32.745804
17.802309 20.755785999999997 32.812338999999994
23.814853 15.113788 20.775398
26.702589 11.866724999999999 21.053535
20.984045 20.784951 35.952726999999996
20.858197 26.743990999999998 11.86728
20.813281999999997 23.778876999999998 14.848193
26.727679 15.047159 18.047259999999998
21.157743999999997 32.794456 23.770897
17.990455 37.191379 23.881717
23.925096 23.840493 37.312614999999994
10.875565 36.873498 23.882164999999997
36.80816899999999 11.032848 23.963297
17.892828 36.799133999999995 10.986774
29.914859 37.358960999999994 23.947627
10.996315 23.942019 36.928273000000004
10.449005 29.907270999999998 23.9183
29.819941 23.953371999999998 37.34004999999999
17.992801 23.952817 10.573844999999999
17.955976 10.489407 23.807399999999998
23.845243999999997 10.489336999999999 23.96557
36.85617599999999 36.816410000000005 18.051977
18.027148999999998 17.920647 37.297139
37.200863 29.82668 29.911086
17.991377999999997 29.834227 37.21799299999999
29.872751 37.287086 29.783262
36.826139 18.034906 11.000093999999999
11.022344 10.915526 29.91621
23.823546 37.312071 17.908937
29.932897999999998 10.894480999999999 36.86130899999999
36.910501999999994 23.973198 36.830883
23.909153999999997 17.908976 37.212024
17.941857 37.227124 29.803575
10.473191 23.97002 23.920773999999998
10.60911 17.974193 23.889495
23.949138 10.924545 36.923114
29.822084 17.902979 10.459895
37.368003 23.953962999999998 17.973728
23.830952999999997 36.81783899999999 36.880645
17.938789 36.78616699999999 36.782059000000004
17.964349 29.83795 10.616346
23.89865 37.216668999999996 23.967585
29.9253 10.576913999999999 29.834644
10.459169 17.99333 17.88347
29.774587 36.916712000000004 10.982088
36.87909499999999 36.917638999999994 29.881231
37.311786999999995 29.935704 17.889308
23.855087 37.329683 29.816598
37.293347999999995 17.900354 23.965839
10.894853 36.778724999999994 29.872145
36.94525 10.957566 17.97276
37.270201 23.861535999999997 29.794233
37.22924499999999 23.987845 23.899576
23.96855 36.792677 10.895437999999999
36.810396999999995 29.915276 11.000133
10.479241 29.907307 18.009221
37.251614000000004 18.018379 18.018398
17.999216 23.971593000000002 37.254507000000004
10.933959 29.891448999999998 36.935469
23.877754999999997 29.93591 10.465478
30.098243 30.312504 35.734776
17.720578 36.16563599999999 17.804143
30.095907999999998 35.460413 18.062573
11.553118999999999 17.747279 30.125169
24.298995 17.547676 30.06327
18.252787 17.876074 18.212067
12.340774 17.793181 11.652619
23.616347 11.673221 29.819366
36.12711399999999 29.574272 35.47877799999999
36.094753 29.641728 23.705462999999998
23.471528 17.843499 12.367638
11.968637 12.370255 18.13259
12.124917 11.659626 23.545728999999998
30.103977 36.013751 35.32186899999999
36.22086 23.661257 12.034351
23.871739 11.674275 18.192833
36.244635 17.754112 29.690309
23.552702999999998 17.956806999999998 17.582186999999998
35.484222 11.703488 29.829144
24.194537 12.237596 11.884767
23.546571 17.745685 24.263841
35.359999 17.73988 35.77345
23.999409 24.399345 12.276508999999999
30.042137 29.482636 29.802983
29.640314 29.514041 24.098284
30.144648 18.14582 29.685033999999998
11.703351 35.92658899999999 18.216245
30.212436 18.215374999999998 23.737168
17.877355 24.350283 18.324769
23.853285 30.122516 24.208904
29.521849 18.212152 17.743591
18.308932 12.189203 17.607793
23.94664 30.127751 17.547604
24.275476 29.657928 29.460606
23.569084 29.501449 36.049221
17.737699 11.675664 29.485222
29.789015 12.223374999999999 24.301758
18.131463 18.129394 24.216814
30.194907999999998 12.255624 11.589749
18.18291 29.708434 30.161247
29.290088 11.899058 17.90503
18.164849999999998 17.419641 29.897709
17.707638 24.075298999999998 24.182112
18.321184 12.079922999999999 12.464376999999999
29.556872 17.613298999999998 35.435748000000004
11.487617 23.700461999999998 12.041971
30.086717 29.954885 17.583683999999998
12.427723 29.917148 30.14446
23.534684000000002 23.897537 17.621685
12.409690999999999 23.692964 17.99299
18.29882 29.594794 24.132507999999998
30.05892 29.586458 11.715667999999999
23.553832 23.691972 23.514339
11.810903 23.497086999999997 29.703661
17.713135 30.308376 18.138478
23.950978 23.514245 30.193749999999998
30.170976 23.827613 23.674355000000002
30.301872 23.532079 18.065123
17.708377 23.547870999999997 29.470692
30.212449 23.682143 11.747271999999999
30.169909999999998 23.766581 29.539603
17.860227 36.360502999999994 37.822159
24.669217 12.701837 35.986791
22.976741 12.486066 35.748442
18.342239 28.885326 37.574319
37.595851999999994 17.948712999999998 16.891215
36.179129 34.939773 17.607309
35.394739 23.577443 24.814095
35.435762999999994 23.319574 23.202488
22.877683 36.98517699999999 37.173047
24.554008999999997 36.534137 37.685598999999996
34.97852399999999 36.062731 17.348905
16.901525 30.038294 37.623447
24.291835 37.77194299999999 36.41415599999999
18.699535 35.101986999999994 35.97144
17.041842 35.271056 35.77297
24.823091 35.633994 35.424156999999994
23.323620000000002 36.04188599999999 35.027304
17.333483 29.091292 35.415588
23.576797 34.917039 36.219995
18.595513999999998 30.63588 37.591841
18.065882 36.246926 34.860004
17.125125 37.568816999999996 36.64906499999999
37.61742699999999 18.823223 18.467782
35.453175 24.879555 23.715068
18.887758 37.368790000000004 36.82005699999999
18.905175 29.736922 35.40209899999999
23.091402 10.259031 36.574901
24.850029 10.479648 36.820432999999994
37.21199299999999 10.81536 19.000947
36.438919 10.072284 17.57754
37.638034000000005 11.329023 17.290186
35.416093000000004 12.160897 16.988444
35.019476999999995 23.322913 36.045328
35.486931999999996 24.874575 35.650166
36.172360999999995 12.86487 18.302592
35.03293599999999 11.71852 18.555294999999997
36.17554199999999 23.508188 34.879947
37.647853999999995 24.496275999999998 36.505444999999995
23.541126000000002 18.905357 37.636284
23.229856 17.146977 37.583585
37.146193 22.85051 37.011892
36.412960999999996 24.3336 37.72363899999999
24.95292 17.813361 37.625056
24.229661 17.089913 35.43303399999999
24.487523 18.664951 35.433971
30.31882 10.231283 28.903837
23.727137 11.409969 37.792621
17.599173999999998 30.728976 35.396074
37.770664 30.191076 11.385081999999999
36.926396 28.844625 10.585585
17.48978 35.45865499999999 30.719497999999998
24.116797000000002 11.621113 34.872432
17.45713 35.452984 29.061134
18.430471 37.64495699999999 28.96511
18.470866 37.594313 30.76036
16.916311999999998 37.579696999999996 29.887074
36.510732000000004 30.498303 10.197547
34.919415 29.549082 11.669056999999999
22.951094 18.116547 35.470129
18.891147999999998 35.435035 29.87153
30.451726 10.185861 30.747633
29.912806 37.63045699999999 28.860845
29.460777 12.406543 30.699514
37.21373199999999 10.875380999999999 22.905486999999997
16.963427 24.119474 10.165037
11.684743 30.285185 34.909254000000004
37.683312 11.282074999999999 24.57452
36.202596 12.900713999999999 23.6055
35.39829999999999 12.164377 24.87124
35.052762 11.745134 23.303825999999997
10.095037 29.254986 36.468523000000005
18.309164 22.910827 10.186803
18.618694 24.665271999999998 10.1906
24.890159 23.504571000000002 37.588498
23.770348000000002 24.896643 37.626481999999996
23.085846 23.299465 37.598635
22.983345 24.235719 35.41798299999999
36.386123 10.055940999999999 24.223954
24.044923 22.981871 35.392314999999996
10.652595999999999 30.871983 37.051598
11.394798999999999 29.418239 37.749658999999994
35.449743 17.154105 17.483212
17.106534 37.627763 24.572962
18.944126 37.602553 24.31635
17.784788 37.636347 22.903283
18.727112 35.455141 23.277085
30.74411 35.43713199999999 29.418561999999998
29.791681999999998 35.45202499999999 30.786519
17.041506 35.40930399999999 23.536432
18.074388 35.450996 24.873751000000002
29.075281 35.462693 29.331053999999998
28.895433 37.62704599999999 30.336362
30.728466 37.647144999999995 30.438231
24.680083 24.504886 35.455235
17.337158 23.191925 12.419177999999999
12.335454 28.887296 35.589021
34.915042 18.416357 11.692015999999999
37.58615399999999 17.031689999999998 18.462467
35.461573 18.801646 17.509178
29.313607 12.40556 29.095691
30.767568999999998 12.397211 29.760588
37.599819999999994 24.581360999999998 24.676579
28.966605 36.72968999999999 10.340828
29.790525 37.810497 11.438056
35.46321999999999 35.656789 18.880852
37.633942000000005 24.285779 22.937538
30.773943 36.734449999999995 10.41654
30.684463 35.912589 12.660609
29.887413 34.840906000000004 11.617039
28.978859 35.838194 12.615938
37.674604 36.506134 18.633215
36.41739 37.762507 18.312939
37.196303 36.960581000000005 16.930379
37.640744999999995 28.84106 17.789706
35.542016000000004 16.97208 12.302481
12.837418 30.343098 36.086349999999996
17.662143 24.830485999999997 12.346183
36.120079000000004 18.503508 12.833012
37.76454 17.476514 11.395902
37.058949 18.954447 10.708198
28.847798 10.219304 29.946711
36.440901 17.417493 10.099143
35.399772 17.929130999999998 18.912212999999998
35.435227 29.469721 17.098015
35.452299999999994 29.240605 18.703454
35.45662399999999 30.784294 18.110474
37.587586 30.252299 18.886589
37.591289 30.475829 17.119851
18.91751 23.733 12.374603
37.598333999999994 22.849419 24.068596
17.361262 23.134012000000002 35.393353000000005
29.257676 12.79577 36.081137
17.902131 10.161619 24.955470000000002
18.907214 10.205824999999999 23.405992
24.410026 12.384247 23.051067999999997
22.973173 12.351244 23.890221
24.317111999999998 12.363875 24.740725
23.377993 10.216403999999999 24.805338
24.928703 10.226239 23.913752
23.393773 10.174574999999999 22.984994
17.059818 10.233797 23.332352
12.348832 28.987013 24.258655
12.412929 30.615657 24.532881
10.180212 30.801031 23.546712
10.173948 29.706826 24.952974
10.187645 29.073323 23.241097
35.426845 29.561501 28.915275
35.404183 29.220457 30.606415
35.459182 30.827077 30.039753
37.59988 30.21297 30.808221
12.370754999999999 30.027715 22.97553
37.583382 30.547137 29.061241
17.090678 12.399773999999999 24.310703999999998
18.762856 12.341439 24.406797
30.313073 35.412282000000005 24.772688
28.924081 35.424870999999996 23.881742
30.363381 35.412468000000004 23.104723
29.338874999999998 37.600217 22.95979
30.867729999999998 37.627942000000004 23.937265999999997
29.314107 37.63819099999999 24.825883
12.424408 22.961176 35.642036000000004
11.634022 24.258089000000002 34.873569
18.021776 12.403231 22.931217999999998
12.779008 24.557537999999997 36.038825
11.388641 23.555688999999997 37.75731999999999
10.199161 23.228514999999998 36.555627
29.343773 24.676053 35.405238999999995
30.845132 23.991282 35.414208
29.430832 23.014574 35.440315
30.459182 23.059219 37.628834999999995
28.847564 23.860840999999997 37.612297999999996
30.324367 24.866542 37.58152199999999
10.618596 24.900853 36.958168
17.855708999999997 37.837023 11.485468
37.592957999999996 28.844101 29.646786
35.42181599999999 17.091328 24.333959
17.612397 24.795337999999997 35.46091199999999
18.890497 23.750207 35.40172
35.645574999999994 30.818172 12.408887
18.343448 22.975717 37.586724000000004
16.898896 24.036244999999997 37.58428599999999
18.618148 24.755592 37.63783099999999
22.964423999999998 35.364667999999995 12.10915
24.558906 35.08338499999999 11.777528
10.975933 37.303552999999994 30.872785999999998
24.183995 36.177567999999994 12.947714
23.224526 37.621375 11.229493999999999
23.600277000000002 36.348212000000004 10.011045
24.868558 29.951867 12.369296
23.339254 30.640731 12.38755
23.499909 28.996892 12.401114
22.905192 29.801761 10.20932
24.451489 28.982187 10.167469
24.359013 30.756854999999998 10.206007
24.923738 37.278374 10.907472
35.465237 18.034375 22.928179
11.202883 37.555485000000004 29.118567
12.034934 35.353781 28.937155
35.43996799999999 18.768113 24.468776000000002
37.60614699999999 17.838244 24.965714000000002
37.61295199999999 18.906133999999998 23.432663
37.650721000000004 17.101695 23.301249000000002
35.42226699999999 23.051187 29.497028
35.40985499999999 24.068518 30.806888999999998
35.444399000000004 24.687742 29.286752
37.57822399999999 24.883729 30.252349
10.033892999999999 36.377944 29.667524
37.593695 23.735367999999998 28.815299
12.370122 30.32359 17.132517
12.361122 30.39192 18.737230999999998
12.359445 28.913204999999998 17.960395
10.220912 29.394661 18.849059999999998
10.211707 29.329745 17.098001
10.221955999999999 30.881034 17.890934
12.913636 36.176788 30.034032
11.826042 35.122153999999995 30.585359
37.616586 23.11691 30.505105999999998
29.502717999999998 11.623408999999999 34.914013
18.916833999999998 36.817498 10.422070999999999
18.030534 34.838491000000005 11.564176999999999
28.934541 18.271462 12.350866
30.029371 16.984892 12.389282
30.573173 18.595026999999998 12.367268
30.79971 17.583716 10.160554
29.728481 18.974778 10.217488
29.071286 17.31271 10.171458999999999
23.865222 35.462908999999996 30.804761
23.064736999999997 35.457438999999994 29.366018999999998
10.173036999999999 17.007549 23.53572
24.747508 35.463384000000005 29.382619
24.783747 37.607844 30.357513
23.031436 37.625524999999996 30.362721999999998
17.861322 30.810954 12.403146
17.215519999999998 29.240707 12.353455
18.850323 29.526984 12.373638999999999
18.080214 28.808474999999998 10.178742
18.742641 30.501354 10.195286
16.970066 30.266905 10.220552999999999
23.898996 37.615657 28.809209
24.298655999999998 35.403409999999994 24.753434000000002
10.169388 18.107058 24.924870000000002
12.404202 18.85783 24.261155
30.758192 12.391171 35.659841
30.164461 11.411455 37.769097
30.503104999999998 10.145004 36.511932
28.801412 10.561259 36.950872000000004
12.977445 11.576937 29.837744999999998
11.905173999999999 12.635069999999999 29.00836
11.913307999999999 12.627165999999999 30.673099999999998
9.990907 11.422304 29.897536
10.172201 18.769747 23.219848
11.127932 10.377253999999999 30.757239
12.408624999999999 24.553062 23.156675
12.360529999999999 24.243376 24.771313
12.408396999999999 22.962743999999997 23.706281999999998
10.176605 23.259190999999998 24.697391
10.221789 23.531098 22.944264999999998
10.203142999999999 24.945114 24.064556999999997
12.360517999999999 17.242838 24.53886
12.386104 17.747541 22.968097
11.108184999999999 10.342977 28.96157
17.082083 36.677987 10.278554
22.96608 35.468458999999996 23.828149
23.457243000000002 37.639191 22.98002
35.444451 23.485716999999998 18.826463
37.62602699999999 22.896952 18.011364
37.628254999999996 24.489645 18.829466
37.63795999999999 24.399195 17.066314
17.190635 17.371636 35.400954
17.87397 18.882226 35.444502
18.821986 17.572392999999998 35.386720999999994
18.779296 18.542286 37.612475
35.432773 23.365779999999997 17.125626
18.085853 16.882431 37.605006
11.579893 34.869643999999994 23.97616
12.569531 35.784273 23.022657
12.705468999999999 35.91359 24.669638
11.434234 37.823711 23.824178
10.399752 36.760891 24.882527999999997
10.323027999999999 36.661371 23.032187
18.763963 35.923531999999994 12.696608
17.112361999999997 35.79375999999999 12.555095999999999
16.97711 18.355047 37.646777
24.464658 35.41059 23.091342
35.45835199999999 24.845856 17.921422
23.806878 37.615762000000004 16.951526
24.92241 37.64797 24.019825
23.27452 37.583364 24.7335
12.355012 17.174965 17.42002
12.399384999999999 18.790841 17.536635
12.341866999999999 17.899338 18.926493
10.204151 18.802377 18.49679
10.229674 17.003761 18.422727
10.178738 18.000211 16.954169
24.841044999999998 37.626369 18.371002
35.064987 36.061088999999996 29.187325
35.376189999999994 35.662414999999996 30.794697
37.632245 36.513555999999994 30.547963
36.377053000000004 37.822582999999995 30.144076
37.22867099999999 36.943618 28.870261
24.672417 35.410804 17.39546
24.002138 35.453682 18.938148
23.036226 35.404168 17.57732
23.081332999999997 37.594961 18.554365999999998
36.214304999999996 34.879142 29.54796
36.071426 29.229256 12.756215
12.067777999999999 35.821313 29.817028
23.980529999999998 35.804880999999995 17.946987
18.008122 23.868869 35.737718
35.79967599999999 23.963142 17.888956
11.980955999999999 29.797107999999998 35.883701
29.791681999999998 35.85100299999999 23.916178
35.781693000000004 17.912545 12.089001
12.098898 23.888161999999998 35.792798000000005
35.776455 11.94952 23.951741000000002
35.837874 29.849173999999998 18.024749
23.982456 23.857423999999998 35.752033
18.020283 35.869989000000004 11.978807
18.018353 35.84680999999999 23.867481
17.922053 17.983527 35.73496299999999
11.998624999999999 35.71780799999999 23.961980999999998
11.93228 17.925438 18.026162
29.838803 35.8861 12.002585999999999
29.920137999999998 11.962659 35.867565
35.85040599999999 11.989666999999999 17.880838
23.899823 18.023735 35.75514799999999
11.980205999999999 12.108428 29.849077
23.876588 29.895505 11.927187
18.005019 35.741229000000004 29.866965999999998
11.964312 23.916996 23.972066
11.938326 17.955377 23.952977
23.852573 11.985916999999999 35.760650999999996
29.778166 17.988172 11.949216999999999
35.79820099999999 29.769445 11.944548
23.981208 35.749967 35.84908
23.845363 35.856500999999994 29.862177
23.954593 35.761875 11.950541
18.000049 35.757616999999996 35.83928999999999
17.994519 29.9245 11.985077
24.004994999999997 35.802009 23.922407
29.887506 12.05151 29.800248
29.918504 35.772902 29.78092
35.79957 35.853601999999995 29.946371
29.897381 23.886689 35.74905699999999
35.771815000000004 23.873071 29.79235
35.743427999999994 23.932280000000002 23.962598
35.878995 17.886578 17.976832
23.863423 12.080511999999999 23.899081
12.077651 29.872636 17.882866999999997
35.781797 29.928753999999998 29.908935
35.732277999999994 23.851018 35.773444999999995
17.985931 11.941161 23.973943000000002
35.85754299999999 17.93146 23.853368999999997
18.015739999999997 23.873369999999998 11.939760999999999
17.938045 29.809171 35.870920999999996
35.830653 35.786286000000004 17.882779
12.018894 29.882846 23.996201
15.055181 14.916124 15.289223999999999
32.98662 14.804129 14.782646
20.74877 20.743814 20.745351
32.953933 14.794723999999999 20.759954
20.894631999999998 21.051244999999998 15.23602
33.050078 14.822071 26.935649
21.042111000000002 14.771028 32.657538
32.807941 14.775594 32.944227
20.943322 15.220386 26.610707
20.798348 15.068293 20.686333
32.738843 20.668387 15.206792
20.766876999999997 14.947924 15.184868999999999
33.012926 21.041875 20.676548
32.895044 20.690808 26.788698999999998
33.05273 21.067908 32.862499
15.198834 32.969801000000004 32.622946
32.747794 26.682942 14.817422
14.925524 32.579608 27.134663
32.950174000000004 27.018145 21.059151
15.226199999999999 32.87384 21.089212999999997
14.84131 32.728389 15.251417
32.631309 26.987889 27.013876
21.044607 20.980062999999998 27.071555
14.842366 27.155224 32.874944
20.681489 21.06755 32.90729
20.878878 27.093188 14.946296
27.079849 15.111716999999999 26.854743
26.702275 20.781474 15.188778
27.194523 14.873992999999999 21.015649
27.047891 20.768924000000002 20.777399
26.604598 15.09474 15.110427
26.911829 21.043308 27.100552
26.719309 21.028803 32.712843
21.045026 32.693957 32.991234
26.970741999999998 26.695421 15.183157
20.865984 32.604246 26.800678
26.877779 27.090569 21.081086
20.717029999999998 32.841443 20.98841
26.723552 26.986411 26.711327
20.839142 32.939906 15.296921999999999
27.046789999999998 27.029268 32.700827000000004
20.73866 27.038408 33.083192
27.228120999999998 32.795124 14.941106999999999
20.900184 26.854478 27.140364
26.714036 32.625893000000005 20.826853
20.664925999999998 26.968053 21.084635000000002
26.977843 33.063998999999995 26.721461
27.118835 32.597154 32.720940999999996
32.637095 26.857794000000002 32.589586
26.707845 14.937512 32.523713
15.322932 26.785926 14.945639
14.96856 14.736806999999999 27.073601
14.723607 26.850241 27.084125
15.2028 20.897496999999998 20.82331
15.168544 20.713958 32.849194999999995
15.026463999999999 21.215268 14.981363
32.638289 32.997437 15.090513999999999
32.978492 32.898757 26.615233999999997
14.916183 20.695446 26.718355
32.674097 32.671041 20.89704
15.060606 27.025949999999998 21.07723
32.541809 32.712025999999994 32.751332
15.088185 15.165192999999999 32.581514
15.164703 15.111575 20.716562
