3_train/209_cspbbr3_MA-2-Fur_4_0.40\209_cspbbr3_MA-2-Fur_4_0.40.xyz
1.0
48.03963 0 0
0 48.03963 0
0 0 48.03963
Br C Cs H N O Pb 
198 244 78 330 34 126 64 
Cartesian
15.094815 12.119815000000001 15.094815
12.119815000000001 15.094815 15.094815
15.094815 15.094815 18.069815
15.094815 12.119815000000001 21.044815
15.094815 15.094815 24.019815
15.094815 15.094815 29.969815000000004
12.119815000000001 15.094815 32.944815
15.094815 15.094815 35.919815
15.094815 18.069815 15.094815
15.094815 21.044815 18.069815
15.094815 18.069815 21.044815
12.119815000000001 21.044815 21.044815
15.094815 21.044815 24.019815
15.094815 18.069815 26.994815000000003
12.119815000000001 21.044815 26.994815000000003
15.094815 21.044815 29.969815000000004
15.094815 18.069815 32.944815
15.094815 21.044815 35.919815
15.094815 26.994815000000003 12.119815000000001
15.094815 24.019815 15.094815
12.119815000000001 26.994815000000003 15.094815
15.094815 26.994815000000003 18.069815
15.094815 24.019815 21.044815
15.094815 26.994815000000003 24.019815
15.094815 24.019815 26.994815000000003
12.119815000000001 26.994815000000003 26.994815000000003
15.094815 26.994815000000003 29.969815000000004
15.094815 24.019815 32.944815
12.119815000000001 26.994815000000003 32.944815
15.094815 32.944815 12.119815000000001
15.094815 29.969815000000004 15.094815
12.119815000000001 32.944815 15.094815
15.094815 32.944815 18.069815
15.094815 29.969815000000004 21.044815
15.094815 32.944815 24.019815
15.094815 29.969815000000004 26.994815000000003
12.119815000000001 32.944815 26.994815000000003
15.094815 32.944815 29.969815000000004
15.094815 29.969815000000004 32.944815
15.094815 35.919815 26.994815000000003
21.044815 12.119815000000001 15.094815
18.069815 15.094815 15.094815
21.044815 15.094815 18.069815
21.044815 12.119815000000001 21.044815
18.069815 15.094815 21.044815
21.044815 15.094815 24.019815
21.044815 12.119815000000001 26.994815000000003
18.069815 15.094815 26.994815000000003
21.044815 15.094815 29.969815000000004
18.069815 15.094815 32.944815
21.044815 21.044815 12.119815000000001
21.044815 18.069815 15.094815
18.069815 21.044815 15.094815
21.044815 21.044815 18.069815
21.044815 18.069815 21.044815
18.069815 21.044815 21.044815
21.044815 21.044815 24.019815
21.044815 18.069815 26.994815000000003
18.069815 21.044815 26.994815000000003
21.044815 21.044815 29.969815000000004
21.044815 18.069815 32.944815
18.069815 21.044815 32.944815
21.044815 24.019815 15.094815
18.069815 26.994815000000003 15.094815
21.044815 26.994815000000003 18.069815
21.044815 24.019815 21.044815
18.069815 26.994815000000003 21.044815
21.044815 26.994815000000003 24.019815
21.044815 24.019815 26.994815000000003
18.069815 26.994815000000003 26.994815000000003
21.044815 26.994815000000003 29.969815000000004
21.044815 24.019815 32.944815
18.069815 26.994815000000003 32.944815
21.044815 29.969815000000004 15.094815
18.069815 32.944815 15.094815
21.044815 32.944815 18.069815
21.044815 29.969815000000004 21.044815
18.069815 32.944815 21.044815
21.044815 32.944815 24.019815
21.044815 29.969815000000004 26.994815000000003
18.069815 32.944815 26.994815000000003
21.044815 32.944815 29.969815000000004
21.044815 29.969815000000004 32.944815
18.069815 32.944815 32.944815
21.044815 32.944815 35.919815
21.044815 35.919815 21.044815
21.044815 35.919815 32.944815
26.994815000000003 15.094815 12.119815000000001
26.994815000000003 12.119815000000001 15.094815
24.019815 15.094815 15.094815
26.994815000000003 15.094815 18.069815
26.994815000000003 12.119815000000001 21.044815
24.019815 15.094815 21.044815
26.994815000000003 15.094815 24.019815
26.994815000000003 12.119815000000001 26.994815000000003
24.019815 15.094815 26.994815000000003
26.994815000000003 15.094815 29.969815000000004
24.019815 15.094815 32.944815
26.994815000000003 15.094815 35.919815
26.994815000000003 21.044815 12.119815000000001
26.994815000000003 18.069815 15.094815
24.019815 21.044815 15.094815
26.994815000000003 21.044815 18.069815
26.994815000000003 18.069815 21.044815
24.019815 21.044815 21.044815
26.994815000000003 21.044815 24.019815
26.994815000000003 18.069815 26.994815000000003
24.019815 21.044815 26.994815000000003
26.994815000000003 21.044815 29.969815000000004
26.994815000000003 18.069815 32.944815
24.019815 21.044815 32.944815
26.994815000000003 24.019815 15.094815
24.019815 26.994815000000003 15.094815
26.994815000000003 26.994815000000003 18.069815
26.994815000000003 24.019815 21.044815
24.019815 26.994815000000003 21.044815
26.994815000000003 26.994815000000003 24.019815
26.994815000000003 24.019815 26.994815000000003
24.019815 26.994815000000003 26.994815000000003
26.994815000000003 26.994815000000003 29.969815000000004
26.994815000000003 24.019815 32.944815
24.019815 26.994815000000003 32.944815
26.994815000000003 26.994815000000003 35.919815
26.994815000000003 32.944815 12.119815000000001
26.994815000000003 29.969815000000004 15.094815
24.019815 32.944815 15.094815
26.994815000000003 32.944815 18.069815
26.994815000000003 29.969815000000004 21.044815
24.019815 32.944815 21.044815
26.994815000000003 32.944815 24.019815
26.994815000000003 29.969815000000004 26.994815000000003
24.019815 32.944815 26.994815000000003
26.994815000000003 32.944815 29.969815000000004
26.994815000000003 29.969815000000004 32.944815
24.019815 32.944815 32.944815
26.994815000000003 32.944815 35.919815
26.994815000000003 35.919815 15.094815
26.994815000000003 35.919815 21.044815
26.994815000000003 35.919815 26.994815000000003
32.944815 12.119815000000001 15.094815
29.969815000000004 15.094815 15.094815
32.944815 15.094815 18.069815
29.969815000000004 15.094815 21.044815
32.944815 15.094815 24.019815
29.969815000000004 15.094815 26.994815000000003
32.944815 15.094815 29.969815000000004
29.969815000000004 15.094815 32.944815
32.944815 15.094815 35.919815
32.944815 21.044815 12.119815000000001
32.944815 18.069815 15.094815
29.969815000000004 21.044815 15.094815
32.944815 21.044815 18.069815
32.944815 18.069815 21.044815
29.969815000000004 21.044815 21.044815
32.944815 21.044815 24.019815
32.944815 18.069815 26.994815000000003
29.969815000000004 21.044815 26.994815000000003
32.944815 21.044815 29.969815000000004
32.944815 18.069815 32.944815
29.969815000000004 21.044815 32.944815
32.944815 21.044815 35.919815
32.944815 26.994815000000003 12.119815000000001
32.944815 24.019815 15.094815
29.969815000000004 26.994815000000003 15.094815
32.944815 26.994815000000003 18.069815
32.944815 24.019815 21.044815
29.969815000000004 26.994815000000003 21.044815
32.944815 26.994815000000003 24.019815
32.944815 24.019815 26.994815000000003
29.969815000000004 26.994815000000003 26.994815000000003
32.944815 26.994815000000003 29.969815000000004
32.944815 24.019815 32.944815
29.969815000000004 26.994815000000003 32.944815
32.944815 26.994815000000003 35.919815
32.944815 32.944815 12.119815000000001
32.944815 29.969815000000004 15.094815
29.969815000000004 32.944815 15.094815
32.944815 32.944815 18.069815
32.944815 29.969815000000004 21.044815
29.969815000000004 32.944815 21.044815
32.944815 32.944815 24.019815
32.944815 29.969815000000004 26.994815000000003
29.969815000000004 32.944815 26.994815000000003
32.944815 32.944815 29.969815000000004
32.944815 29.969815000000004 32.944815
29.969815000000004 32.944815 32.944815
32.944815 35.919815 15.094815
32.944815 35.919815 21.044815
32.944815 35.919815 32.944815
35.919815 15.094815 15.094815
35.919815 15.094815 26.994815000000003
35.919815 15.094815 32.944815
35.919815 21.044815 21.044815
35.919815 21.044815 26.994815000000003
35.919815 21.044815 32.944815
35.919815 26.994815000000003 21.044815
35.919815 26.994815000000003 26.994815000000003
35.919815 32.944815 32.944815
15.314411000000002 33.287919 39.570101
15.640909 33.810304 38.28788900000001
15.094815 32.944815 37.36827100000001
14.592284000000001 32.143896 39.34458600000001
15.094815 32.944815 35.919815
15.408049 26.734379000000004 39.570101
15.885929 26.345640000000003 38.28788900000001
15.094815 26.994815000000003 37.36827100000001
14.362372 27.592758000000003 39.34458600000001
15.094815 26.994815000000003 35.919815
21.449949000000004 15.137346 39.570101
22.061883 15.20823 38.28788900000001
21.044815 15.094815 37.36827100000001
20.105386000000003 14.987657 39.34458600000001
21.044815 15.094815 35.919815
27.250296 21.362103000000005 39.570101
27.631477000000004 21.846034000000003 38.28788900000001
26.994815000000003 21.044815 37.36827100000001
26.408456 20.303065 39.34458600000001
26.994815000000003 21.044815 35.919815
21.389064000000005 26.777019000000003 39.570101
21.913152000000004 26.453262000000002 38.28788900000001
21.044815 26.994815000000003 37.36827100000001
20.241274 27.493144 39.34458600000001
21.044815 26.994815000000003 35.919815
32.640999 33.216179000000004 39.570101
32.177184000000004 33.621596000000004 38.28788900000001
32.944815 32.944815 37.36827100000001
33.655626 32.321311 39.34458600000001
32.944815 32.944815 35.919815
20.793141 20.724498000000004 39.570101
20.417767 20.23605 38.28788900000001
21.044815 21.044815 37.36827100000001
21.622274000000004 21.793514000000002 39.34458600000001
21.044815 21.044815 35.919815
15.367053 14.791782000000001 8.469529000000001
15.773803000000001 14.329136 9.751741
15.094815 15.094815 10.671359
14.469267 15.803828000000001 8.695044000000001
15.094815 15.094815 12.119815000000001
33.342826 15.181591000000001 8.469529000000001
33.946084 15.306355000000002 9.751741
32.944815 15.094815 10.671359
32.019225 14.901703000000001 8.695044000000001
32.944815 15.094815 12.119815000000001
21.363078 14.84055 8.469529000000001
21.840217000000003 14.450901 9.751741
21.044815 15.094815 10.671359
20.311425 15.691597 8.695044000000001
21.044815 15.094815 12.119815000000001
21.284303 32.615288 8.469529000000001
21.641102000000004 32.113111 9.751741
21.044815 32.944815 10.671359
20.495831000000003 33.714637 8.695044000000001
21.044815 32.944815 12.119815000000001
20.654799000000004 27.112415 8.469529000000001
20.066943000000002 27.296568 9.751741
21.044815 26.994815000000003 10.671359
21.947591000000003 26.713738 8.695044000000001
21.044815 26.994815000000003 12.119815000000001
26.714491000000002 26.699246000000002 8.469529000000001
26.285806 26.256848000000005 9.751741
26.994815000000003 26.994815000000003 10.671359
27.651607 27.674987 8.695044000000001
26.994815000000003 26.994815000000003 12.119815000000001
15.171557000000002 20.644749000000004 8.469529000000001
15.281116 20.038544 9.751741
15.094815 21.044815 10.671359
14.925034000000002 21.974967 8.695044000000001
15.094815 21.044815 12.119815000000001
8.469529000000001 14.825782 20.738933000000003
9.751741 14.414004 20.280756
10.671359 15.094815 21.044815
8.695044000000001 15.725614000000002 21.749160000000003
12.119815000000001 15.094815 21.044815
8.469529000000001 27.351067 20.847262
9.751741 27.886569 20.542755
10.671359 26.994815000000003 21.044815
8.695044000000001 26.172073000000005 21.510760000000005
12.119815000000001 26.994815000000003 21.044815
8.469529000000001 14.709357 27.126589000000003
9.751741 14.128623000000001 27.332101
10.671359 15.094815 26.994815000000003
8.695044000000001 15.986717 26.680935000000005
12.119815000000001 15.094815 26.994815000000003
8.469529000000001 33.296288000000004 21.250751
9.751741 33.831106 21.556457
10.671359 32.944815 21.044815
8.695044000000001 32.124756 20.574163
12.119815000000001 32.944815 21.044815
8.469529000000001 20.660843 33.080859000000004
9.751741 20.082425999999998 33.292805
10.671359 21.044815 32.944815
8.695044000000001 21.933178000000005 32.621054
12.119815000000001 21.044815 32.944815
8.469529000000001 32.653974 33.230041
9.751741 32.218804 33.666062000000004
10.671359 32.944815 32.944815
8.695044000000001 33.613912 32.276744
12.119815000000001 32.944815 32.944815
8.469529000000001 21.002526000000003 14.689656000000001
9.751741 20.932008000000003 14.07768
10.671359 21.044815 15.094815
8.695044000000001 21.151412 16.034308000000003
12.119815000000001 21.044815 15.094815
39.570101 26.653732000000005 15.317537000000002
38.28788900000001 26.134352 15.648795000000002
37.36827100000001 26.994815000000003 15.094815
39.34458600000001 27.791109 14.584987
35.919815 26.994815000000003 15.094815
39.570101 21.014059000000003 15.501013
38.28788900000001 20.960964000000004 16.114746
37.36827100000001 21.044815 15.094815
39.34458600000001 21.124666000000005 14.152672
35.919815 21.044815 15.094815
39.570101 15.399459 20.774381000000005
38.28788900000001 15.864511 20.370383
37.36827100000001 15.094815 21.044815
39.34458600000001 14.382102000000001 21.666144000000003
35.919815 15.094815 21.044815
39.570101 32.893146 21.448885000000004
38.28788900000001 32.808463 22.059062000000004
37.36827100000001 32.944815 21.044815
39.34458600000001 33.073159000000004 20.108046
35.919815 32.944815 21.044815
39.570101 32.997640000000004 15.498736000000001
38.28788900000001 33.070969 16.110381
37.36827100000001 32.944815 15.094815
39.34458600000001 32.830627 14.156215000000001
35.919815 32.944815 15.094815
39.570101 33.002268 26.591526
38.28788900000001 33.095685 25.982626000000003
37.36827100000001 32.944815 26.994815000000003
39.34458600000001 32.803062000000004 27.929649000000005
35.919815 32.944815 26.994815000000003
39.570101 26.599001 33.041117
38.28788900000001 25.998911 33.180322000000004
37.36827100000001 26.994815000000003 32.944815
39.34458600000001 27.915504 32.729547000000004
35.919815 26.994815000000003 32.944815
15.231237000000002 8.469529000000001 26.610977
15.443752000000002 9.751741 26.032769000000002
15.094815 10.671359 26.994815000000003
14.770180000000002 8.695044000000001 27.882858
15.094815 12.119815000000001 26.994815000000003
21.382850000000005 8.469529000000001 33.172136
21.890323000000002 9.751741 33.521361
21.044815 10.671359 32.944815
20.264975 8.695044000000001 32.410158
21.044815 12.119815000000001 32.944815
32.553228000000004 8.469529000000001 26.882556
31.96291 9.751741 26.706454
32.944815 10.671359 26.994815000000003
33.851348 8.695044000000001 27.263528
32.944815 12.119815000000001 26.994815000000003
26.588913000000005 8.469529000000001 32.979251
25.974569000000002 9.751741 33.024741
26.994815000000003 10.671359 32.944815
27.937631000000003 8.695044000000001 32.873349
26.994815000000003 12.119815000000001 32.944815
33.26709 8.469529000000001 21.293976
33.750378 9.751741 21.675971000000004
32.944815 10.671359 21.044815
32.202008 8.695044000000001 20.459797000000002
32.944815 12.119815000000001 21.044815
32.693215 8.469529000000001 32.624441
32.317952 9.751741 32.135907
32.944815 10.671359 32.944815
33.522102000000004 8.695044000000001 33.693647
32.944815 12.119815000000001 32.944815
15.297995 8.469529000000001 33.297888
15.599508000000002 9.751741 33.835081
15.094815 10.671359 32.944815
14.630593000000001 8.695044000000001 32.1211
15.094815 12.119815000000001 32.944815
21.439087 39.570101 14.992384000000001
22.033624000000003 38.28788900000001 14.831099
21.044815 37.36827100000001 15.094815
20.131846000000003 39.34458600000001 15.340774000000001
21.044815 35.919815 15.094815
26.630382000000004 39.570101 33.126835
26.082257 38.28788900000001 33.407987
26.994815000000003 37.36827100000001 32.944815
27.836869 39.34458600000001 32.514752
26.994815000000003 35.919815 32.944815
15.187921000000001 39.570101 21.441393000000005
15.335142000000001 38.28788900000001 22.039567000000005
15.094815 37.36827100000001 21.044815
14.870452000000002 39.34458600000001 20.1263
15.094815 35.919815 21.044815
14.705432 39.570101 33.064496
14.118568000000002 38.28788900000001 33.251786
15.094815 37.36827100000001 32.944815
15.996077000000001 39.34458600000001 32.65892
15.094815 35.919815 32.944815
14.688769 39.570101 15.127514000000001
14.075297 38.28788900000001 15.183543
15.094815 37.36827100000001 15.094815
16.036565000000003 39.34458600000001 15.010459
15.094815 35.919815 15.094815
33.159433 39.570101 26.648576
33.478352 38.28788900000001 26.12153
32.944815 37.36827100000001 26.994815000000003
32.453904 39.34458600000001 27.802909
32.944815 35.919815 26.994815000000003
21.405992000000005 39.570101 26.806418
21.949091000000003 38.28788900000001 26.515676
21.044815 37.36827100000001 26.994815000000003
20.21045 39.34458600000001 27.439612000000004
21.044815 35.919815 26.994815000000003
37.395476 24.019815 29.969815000000004
10.644154 18.069815 24.019815
29.969815000000004 11.076365000000001 36.96326500000001
18.069815 29.969815000000004 37.395476
36.96326500000001 36.96326500000001 29.969815000000004
24.019815 24.019815 37.395476
10.644154 24.019815 29.969815000000004
29.969815000000004 24.019815 37.395476
18.069815 29.969815000000004 10.644154
36.96326500000001 29.969815000000004 36.96326500000001
11.076365000000001 36.96326500000001 18.069815
18.069815 18.069815 37.395476
18.069815 37.395476 29.969815000000004
29.969815000000004 24.019815 10.644154
24.019815 18.069815 37.395476
11.076365000000001 11.076365000000001 24.019815
10.644154 29.969815000000004 24.019815
24.019815 37.395476 29.969815000000004
18.069815 18.069815 10.644154
37.395476 24.019815 24.019815
29.969815000000004 36.96326500000001 11.076365000000001
18.069815 10.644154 29.969815000000004
29.969815000000004 37.395476 18.069815
37.395476 29.969815000000004 29.969815000000004
36.96326500000001 11.076365000000001 18.069815
29.969815000000004 29.969815000000004 37.395476
36.96326500000001 11.076365000000001 29.969815000000004
24.019815 36.96326500000001 11.076365000000001
11.076365000000001 36.96326500000001 29.969815000000004
24.019815 37.395476 24.019815
11.076365000000001 29.969815000000004 11.076365000000001
29.969815000000004 37.395476 24.019815
11.076365000000001 18.069815 36.96326500000001
37.395476 18.069815 24.019815
12.119815000000001 12.119815000000001 29.969815000000004
12.119815000000001 18.069815 12.119815000000001
12.119815000000001 18.069815 18.069815
12.119815000000001 18.069815 29.969815000000004
12.119815000000001 24.019815 12.119815000000001
12.119815000000001 24.019815 18.069815
12.119815000000001 24.019815 24.019815
12.119815000000001 24.019815 35.919815
12.119815000000001 29.969815000000004 18.069815
12.119815000000001 29.969815000000004 29.969815000000004
12.119815000000001 29.969815000000004 35.919815
18.069815 12.119815000000001 12.119815000000001
18.069815 12.119815000000001 24.019815
18.069815 12.119815000000001 35.919815
18.069815 18.069815 18.069815
18.069815 18.069815 24.019815
18.069815 18.069815 29.969815000000004
18.069815 24.019815 12.119815000000001
18.069815 24.019815 18.069815
18.069815 24.019815 24.019815
18.069815 24.019815 29.969815000000004
18.069815 24.019815 35.919815
18.069815 29.969815000000004 18.069815
18.069815 29.969815000000004 24.019815
18.069815 29.969815000000004 29.969815000000004
18.069815 35.919815 12.119815000000001
18.069815 35.919815 18.069815
18.069815 35.919815 24.019815
18.069815 35.919815 35.919815
24.019815 12.119815000000001 12.119815000000001
24.019815 12.119815000000001 18.069815
24.019815 12.119815000000001 24.019815
24.019815 12.119815000000001 29.969815000000004
24.019815 12.119815000000001 35.919815
24.019815 18.069815 12.119815000000001
24.019815 18.069815 18.069815
24.019815 18.069815 24.019815
24.019815 18.069815 29.969815000000004
24.019815 24.019815 12.119815000000001
24.019815 24.019815 18.069815
24.019815 24.019815 24.019815
24.019815 24.019815 29.969815000000004
24.019815 29.969815000000004 12.119815000000001
24.019815 29.969815000000004 18.069815
24.019815 29.969815000000004 24.019815
24.019815 29.969815000000004 29.969815000000004
24.019815 29.969815000000004 35.919815
24.019815 35.919815 18.069815
24.019815 35.919815 35.919815
29.969815000000004 12.119815000000001 12.119815000000001
29.969815000000004 12.119815000000001 18.069815
29.969815000000004 12.119815000000001 29.969815000000004
29.969815000000004 18.069815 12.119815000000001
29.969815000000004 18.069815 18.069815
29.969815000000004 18.069815 24.019815
29.969815000000004 18.069815 29.969815000000004
29.969815000000004 18.069815 35.919815
29.969815000000004 24.019815 18.069815
29.969815000000004 24.019815 24.019815
29.969815000000004 24.019815 29.969815000000004
29.969815000000004 29.969815000000004 12.119815000000001
29.969815000000004 29.969815000000004 18.069815
29.969815000000004 29.969815000000004 24.019815
29.969815000000004 29.969815000000004 29.969815000000004
29.969815000000004 35.919815 29.969815000000004
29.969815000000004 35.919815 35.919815
35.919815 12.119815000000001 24.019815
35.919815 18.069815 12.119815000000001
35.919815 18.069815 18.069815
35.919815 18.069815 29.969815000000004
35.919815 18.069815 35.919815
35.919815 24.019815 12.119815000000001
35.919815 24.019815 18.069815
35.919815 24.019815 35.919815
35.919815 29.969815000000004 12.119815000000001
35.919815 29.969815000000004 24.019815
35.919815 35.919815 18.069815
35.919815 35.919815 24.019815
14.127726000000001 31.412042 39.998206
15.578498000000002 33.698931 40.53963
16.206032 34.708269 38.05550100000001
13.693754 28.144458999999998 39.998206
15.783153 26.421377 40.53963
16.706910999999998 25.673558 38.05550100000001
19.243622000000002 14.893928 39.998206
21.935911000000004 15.187492 40.53963
23.116202 15.327043000000002 38.05550100000001
25.867332000000005 19.625859 39.998206
27.557365000000004 21.74208 40.53963
28.290574 22.677476 38.05550100000001
19.506997 27.953861000000003 39.998206
21.801454 26.515089000000003 40.53963
22.814066000000004 25.892851 38.05550100000001
34.304289000000004 31.74628 39.998206
32.277215 33.542268 40.53963
31.380516999999998 34.322328 38.05550100000001
22.155272000000004 22.477134 39.998206
20.490632 20.340882 40.53963
19.768646000000004 19.396796000000002 38.05550100000001
13.892372 16.450833000000003 8.041424000000001
15.694187000000001 14.428937000000001 7.500000000000001
16.476826000000003 13.534489 9.984129000000001
31.171589000000004 14.720217 8.041424000000001
33.819969 15.286506000000001 7.500000000000001
34.984417 15.524460000000001 9.984129000000001
19.636202 16.235193000000002 8.041424000000001
21.745307000000004 14.536289000000002 7.500000000000001
22.66408 13.782355 9.984129000000001
19.988835 34.417758 8.041424000000001
21.572219000000004 32.220601 7.500000000000001
22.258304000000003 31.250112 9.984129000000001
22.776589 26.460387000000004 8.041424000000001
20.186808 27.252622000000002 7.500000000000001
19.053488 27.610597 9.984129000000001
28.250474000000004 28.30171 8.041424000000001
26.378930000000004 26.34418 7.500000000000001
25.549840000000003 25.49261 9.984129000000001
14.764914000000001 22.826898 8.041424000000001
15.264444000000001 20.165118 7.500000000000001
15.473049000000001 18.995055999999998 9.984129000000001
8.041424000000001 16.300537 22.397919
7.500000000000001 14.503785 20.371522
9.984129000000001 13.707242 19.489433
8.041424000000001 25.415561000000004 21.933978000000003
7.500000000000001 27.778734 20.611096000000003
9.984129000000001 28.810498000000003 20.021160000000002
8.041424000000001 16.805902000000003 26.397459000000005
7.500000000000001 14.246802 27.283804000000003
9.984129000000001 13.127320000000001 27.682955
8.041424000000001 31.375203 20.13874
7.500000000000001 33.717365 21.498474
9.984129000000001 34.750596 22.085836
8.041424000000001 22.749166000000002 32.328503
7.500000000000001 20.200062000000003 33.243199000000004
9.984129000000001 19.085079999999998 33.654751
8.041424000000001 34.230535 31.667483000000004
7.500000000000001 32.304567 33.571491
9.984129000000001 31.466977 34.414701
8.041424000000001 21.244626000000004 16.896128
7.500000000000001 20.952670000000005 14.203664000000002
9.984129000000001 20.813824000000004 13.023290000000001
39.998206 28.518687999999997 14.113761
40.53963 26.245150000000002 15.585369000000002
38.05550100000001 25.241588 16.222099
39.998206 21.193346 13.28855
40.53963 20.978037 15.988225000000002
38.05550100000001 20.872797 17.172068000000003
39.998206 13.731684000000001 22.239188
40.53963 15.764238 20.449405
38.05550100000001 16.663317 19.67209
39.998206 33.186324 19.248617000000003
40.53963 32.832039 21.933591
38.05550100000001 32.665872 23.110429000000003
39.998206 32.721433 13.296273000000001
40.53963 33.06185 15.98304
38.05550100000001 33.200533 17.163433
39.998206 32.677595000000004 28.787368
40.53963 33.070314 26.107747000000003
38.05550100000001 33.253326 24.933409000000005
39.998206 28.758540000000004 32.527771
40.53963 26.124513 33.157452
38.05550100000001 24.966111000000005 33.423283
14.476826 8.041424000000001 28.698559000000003
15.394031 7.500000000000001 26.150356000000002
15.806680000000002 9.984129000000001 25.035780000000003
19.547463999999998 8.041424000000001 31.923740000000002
21.788733 7.500000000000001 33.444041
22.766215000000003 9.984129000000001 34.120125
34.683731 8.041424000000001 27.505525
32.083365 7.500000000000001 26.748758000000002
30.945258000000003 9.984129000000001 26.406306
28.801643 8.041424000000001 32.803302
26.102193 7.500000000000001 33.021412
24.916722 9.984129000000001 33.106372
31.518207000000004 8.041424000000001 19.927030000000002
33.654119 7.500000000000001 21.592106
34.584791 9.984129000000001 22.331302
34.054944 8.041424000000001 34.377388
32.390793 7.500000000000001 32.240755
31.669024 9.984129000000001 31.296504
14.201047 8.041424000000001 31.368163000000003
15.542416000000001 7.500000000000001 33.720891
16.121678000000003 9.984129000000001 34.758685
19.293671000000003 39.998206 15.56188
21.912149 40.53963 14.870378
23.058464 38.05550100000001 14.556494
28.610913000000004 39.998206 32.124522
26.192937 40.53963 33.344355
25.136713 38.05550100000001 33.889288
14.669171 39.998206 19.283145
15.298739000000001 40.53963 21.9172
15.585506 38.05550100000001 23.070597
16.82371 39.998206 32.401146000000004
14.238197000000001 40.53963 33.207201
13.106804 38.05550100000001 33.571223
16.900349 39.998206 14.937647
14.201735000000001 40.53963 15.165866000000001
13.018408 38.05550100000001 15.276766
31.999965000000003 39.998206 28.541396
33.417556 40.53963 26.233792
34.030447 38.05550100000001 25.215496
19.443384000000002 39.998206 27.843386000000002
21.839547000000003 40.53963 26.581243
22.886030000000005 38.05550100000001 26.017830000000004
37.729397000000006 23.555342000000003 30.899541
37.729397000000006 23.446885 29.102707000000002
37.729397000000006 25.057217 29.907198
35.545073 24.447876 29.112975
35.545073 24.547830000000005 30.768946
35.545073 23.063739000000005 30.027523000000002
10.310233 19.049948999999998 23.674181000000004
10.310233 17.280421 23.343811000000002
10.310233 17.879076 25.041453000000004
12.494557 17.166519 24.338353000000005
12.494557 18.797325 24.642824000000005
12.494557 18.245601 23.078268
29.026681000000004 11.148973000000002 37.50810800000001
30.063271 10.108335 36.46747
30.819492000000004 11.263434 37.622569
30.839012000000004 12.100274 35.370309
29.883685 13.059332000000001 36.329366
29.186748 11.994787 35.264821
17.095233999999998 29.608821 37.729397000000006
18.869736000000003 29.3063 37.729397000000006
18.244475 30.994324 37.729397000000006
18.967994 30.302509999999998 35.545073
17.332604000000003 30.581313 35.545073
17.908848 29.025622 35.545073
36.501074 37.897691 29.646
37.350241000000004 37.048524 30.986972
37.746832 36.651933 29.276473000000003
36.298397 35.011268 30.268244000000003
35.5158 35.793865000000004 29.032398
35.1503 36.159364000000004 30.608803
24.330525 23.028057000000004 37.729397000000006
24.723348 24.784777 37.729397000000006
23.005572 24.246611 37.729397000000006
23.733463 24.933824 35.545073
23.371436000000003 23.314822 35.545073
24.954546 23.810799000000003 35.545073
10.310233 24.392422000000003 30.940015000000002
10.310233 24.67373 29.162028
10.310233 22.993293 29.807402000000003
12.494557 23.676418000000005 29.075673000000002
12.494557 23.417164 30.714275999999998
12.494557 24.965863 30.119495
30.95021 24.364708 37.729397000000006
29.180932 24.696415000000002 37.729397000000006
29.778304 22.998322 37.729397000000006
29.066278000000004 23.70196 35.545073
30.696854000000002 23.396257 35.545073
30.146313 24.961228 35.545073
18.974697 30.481004 10.310233
18.060076000000002 28.930570000000003 10.310233
17.174672 30.497872 10.310233
17.235871000000003 29.498701000000004 12.494557
18.078789999999998 30.927588999999998 12.494557
18.894783000000004 29.483155000000004 12.494557
36.569003 29.435617 37.829763
37.8417 29.464859000000004 36.557065
37.187445000000004 31.008968000000003 37.211321
36.235794 30.462135000000004 35.073871000000004
35.062869 30.435185000000004 36.246796
35.665835 29.012126000000002 35.64383
10.593841000000001 36.95297600000001 17.090687000000003
10.36386 36.722995 18.861165
11.563042000000001 37.922177000000005 18.257594
12.611888 35.881922 18.972185000000003
12.823839000000001 36.093874 17.340503
11.718666 34.988701 17.896758
18.30946 17.058531000000002 37.729397000000006
18.825789999999998 18.782995 37.729397000000006
17.074195000000003 18.367919 37.729397000000006
17.848957 19.001820000000002 35.545073
17.373103999999998 17.412544 35.545073
18.987384 17.795081000000003 35.545073
17.036931000000003 37.729397000000006 30.085039000000002
18.686044000000003 37.729397000000006 30.806706
18.48647 37.729397000000006 29.017699999999998
19.021726 35.545073 29.863624
17.501895 35.545073 29.198532
17.685824000000004 35.545073 30.84729