3_train/196_cspbbr3_MA-BS_4_0.20\196_cspbbr3_MA-BS_4_0.20.xyz
1.0
51.076988 0 0
0 51.076988 0
0 0 51.076988
Br C Cs H N O Pb S 
216 162 94 228 18 72 64 24 
Cartesian
16.613494 16.613494 13.638494
16.613494 13.638494 16.613494
16.613494 16.613494 19.588493999999997
16.613494 13.638494 22.563494
13.638494 16.613494 22.563494
16.613494 16.613494 25.538494
16.613494 13.638494 28.513494
13.638494 16.613494 28.513494
16.613494 16.613494 31.488494000000003
16.613494 13.638494 34.463494
13.638494 16.613494 34.463494
16.613494 16.613494 37.438494
16.613494 22.563494 13.638494
16.613494 19.588493999999997 16.613494
13.638494 22.563494 16.613494
16.613494 22.563494 19.588493999999997
16.613494 19.588493999999997 22.563494
13.638494 22.563494 22.563494
16.613494 22.563494 25.538494
16.613494 19.588493999999997 28.513494
13.638494 22.563494 28.513494
16.613494 22.563494 31.488494000000003
16.613494 19.588493999999997 34.463494
13.638494 22.563494 34.463494
16.613494 22.563494 37.438494
16.613494 28.513494 13.638494
16.613494 25.538494 16.613494
16.613494 28.513494 19.588493999999997
16.613494 25.538494 22.563494
13.638494 28.513494 22.563494
16.613494 28.513494 25.538494
16.613494 25.538494 28.513494
13.638494 28.513494 28.513494
16.613494 28.513494 31.488494000000003
16.613494 25.538494 34.463494
13.638494 28.513494 34.463494
16.613494 28.513494 37.438494
16.613494 34.463494 13.638494
16.613494 31.488494000000003 16.613494
13.638494 34.463494 16.613494
16.613494 34.463494 19.588493999999997
16.613494 31.488494000000003 22.563494
13.638494 34.463494 22.563494
16.613494 34.463494 25.538494
16.613494 31.488494000000003 28.513494
16.613494 34.463494 31.488494000000003
16.613494 31.488494000000003 34.463494
16.613494 37.438494 28.513494
16.613494 37.438494 34.463494
22.563494 16.613494 13.638494
22.563494 13.638494 16.613494
19.588493999999997 16.613494 16.613494
22.563494 16.613494 19.588493999999997
19.588493999999997 16.613494 22.563494
22.563494 16.613494 25.538494
19.588493999999997 16.613494 28.513494
22.563494 16.613494 31.488494000000003
22.563494 13.638494 34.463494
19.588493999999997 16.613494 34.463494
22.563494 19.588493999999997 16.613494
19.588493999999997 22.563494 16.613494
22.563494 22.563494 19.588493999999997
22.563494 19.588493999999997 22.563494
19.588493999999997 22.563494 22.563494
22.563494 22.563494 25.538494
22.563494 19.588493999999997 28.513494
19.588493999999997 22.563494 28.513494
22.563494 22.563494 31.488494000000003
22.563494 19.588493999999997 34.463494
19.588493999999997 22.563494 34.463494
22.563494 22.563494 37.438494
22.563494 28.513494 13.638494
22.563494 25.538494 16.613494
19.588493999999997 28.513494 16.613494
22.563494 28.513494 19.588493999999997
22.563494 25.538494 22.563494
19.588493999999997 28.513494 22.563494
22.563494 28.513494 25.538494
22.563494 25.538494 28.513494
19.588493999999997 28.513494 28.513494
22.563494 28.513494 31.488494000000003
22.563494 25.538494 34.463494
19.588493999999997 28.513494 34.463494
22.563494 28.513494 37.438494
22.563494 34.463494 13.638494
22.563494 31.488494000000003 16.613494
19.588493999999997 34.463494 16.613494
22.563494 34.463494 19.588493999999997
22.563494 31.488494000000003 22.563494
19.588493999999997 34.463494 22.563494
22.563494 34.463494 25.538494
22.563494 31.488494000000003 28.513494
19.588493999999997 34.463494 28.513494
22.563494 34.463494 31.488494000000003
22.563494 31.488494000000003 34.463494
19.588493999999997 34.463494 34.463494
22.563494 34.463494 37.438494
22.563494 37.438494 16.613494
22.563494 37.438494 22.563494
22.563494 37.438494 28.513494
22.563494 37.438494 34.463494
28.513494 16.613494 13.638494
28.513494 13.638494 16.613494
25.538494 16.613494 16.613494
28.513494 16.613494 19.588493999999997
28.513494 13.638494 22.563494
25.538494 16.613494 22.563494
28.513494 16.613494 25.538494
28.513494 13.638494 28.513494
25.538494 16.613494 28.513494
28.513494 16.613494 31.488494000000003
25.538494 16.613494 34.463494
28.513494 16.613494 37.438494
28.513494 22.563494 13.638494
28.513494 19.588493999999997 16.613494
25.538494 22.563494 16.613494
28.513494 22.563494 19.588493999999997
28.513494 19.588493999999997 22.563494
25.538494 22.563494 22.563494
28.513494 22.563494 25.538494
28.513494 19.588493999999997 28.513494
25.538494 22.563494 28.513494
28.513494 22.563494 31.488494000000003
28.513494 19.588493999999997 34.463494
25.538494 22.563494 34.463494
28.513494 22.563494 37.438494
28.513494 28.513494 13.638494
28.513494 25.538494 16.613494
25.538494 28.513494 16.613494
28.513494 28.513494 19.588493999999997
28.513494 25.538494 22.563494
25.538494 28.513494 22.563494
28.513494 28.513494 25.538494
28.513494 25.538494 28.513494
25.538494 28.513494 28.513494
28.513494 28.513494 31.488494000000003
28.513494 25.538494 34.463494
25.538494 28.513494 34.463494
28.513494 28.513494 37.438494
28.513494 31.488494000000003 16.613494
25.538494 34.463494 16.613494
28.513494 34.463494 19.588493999999997
28.513494 31.488494000000003 22.563494
25.538494 34.463494 22.563494
28.513494 34.463494 25.538494
28.513494 31.488494000000003 28.513494
25.538494 34.463494 28.513494
28.513494 34.463494 31.488494000000003
28.513494 31.488494000000003 34.463494
25.538494 34.463494 34.463494
28.513494 34.463494 37.438494
28.513494 37.438494 16.613494
28.513494 37.438494 22.563494
28.513494 37.438494 28.513494
28.513494 37.438494 34.463494
34.463494 16.613494 13.638494
31.488494000000003 16.613494 16.613494
34.463494 16.613494 19.588493999999997
34.463494 13.638494 22.563494
31.488494000000003 16.613494 22.563494
34.463494 16.613494 25.538494
34.463494 13.638494 28.513494
31.488494000000003 16.613494 28.513494
34.463494 16.613494 31.488494000000003
34.463494 13.638494 34.463494
31.488494000000003 16.613494 34.463494
34.463494 16.613494 37.438494
34.463494 22.563494 13.638494
34.463494 19.588493999999997 16.613494
31.488494000000003 22.563494 16.613494
34.463494 22.563494 19.588493999999997
34.463494 19.588493999999997 22.563494
31.488494000000003 22.563494 22.563494
34.463494 22.563494 25.538494
34.463494 19.588493999999997 28.513494
31.488494000000003 22.563494 28.513494
34.463494 22.563494 31.488494000000003
34.463494 19.588493999999997 34.463494
31.488494000000003 22.563494 34.463494
34.463494 25.538494 16.613494
31.488494000000003 28.513494 16.613494
34.463494 28.513494 19.588493999999997
34.463494 25.538494 22.563494
31.488494000000003 28.513494 22.563494
34.463494 28.513494 25.538494
34.463494 25.538494 28.513494
31.488494000000003 28.513494 28.513494
34.463494 28.513494 31.488494000000003
34.463494 25.538494 34.463494
31.488494000000003 28.513494 34.463494
34.463494 31.488494000000003 16.613494
31.488494000000003 34.463494 16.613494
34.463494 34.463494 19.588493999999997
34.463494 31.488494000000003 22.563494
31.488494000000003 34.463494 22.563494
34.463494 34.463494 25.538494
34.463494 31.488494000000003 28.513494
31.488494000000003 34.463494 28.513494
34.463494 34.463494 31.488494000000003
34.463494 31.488494000000003 34.463494
31.488494000000003 34.463494 34.463494
34.463494 34.463494 37.438494
34.463494 37.438494 22.563494
34.463494 37.438494 28.513494
37.438494 16.613494 22.563494
37.438494 16.613494 28.513494
37.438494 22.563494 16.613494
37.438494 22.563494 28.513494
37.438494 22.563494 34.463494
37.438494 28.513494 16.613494
37.438494 28.513494 22.563494
37.438494 28.513494 34.463494
37.438494 34.463494 16.613494
37.438494 34.463494 22.563494
37.438494 34.463494 28.513494
37.438494 34.463494 34.463494
34.243668 28.473222 41.791061000000006
34.463494 28.513494 40.415135
34.882645 27.346964 39.764156
34.865501 26.12643 41.838305
34.441472 27.283828999999997 42.500908
35.089205 26.150686999999998 40.464035
34.243668 22.523222000000004 41.791061000000006
34.463494 22.563494 40.415135
34.882645 21.396963999999997 39.764156
34.865501 20.17643 41.838305
34.441472 21.333829 42.500908
35.089205 20.200687000000002 40.464035
16.393667999999998 34.423222 41.791061000000006
16.613494 34.463494 40.415135
17.032645000000002 33.296964 39.764156
17.015501 32.07643 41.838305
16.591472 33.233829 42.500908
17.239205 32.100687 40.464035
22.343668 16.573222 41.791061000000006
22.563494 16.613494 40.415135
22.982644999999998 15.446964 39.764156
22.965501000000003 14.226429999999999 41.838305
22.541472 15.383829 42.500908
23.189205 14.250687 40.464035
34.68332 28.473222 9.285927000000001
34.463494 28.513494 10.661853
34.044343 27.346964 11.312832
34.061487 26.12643 9.238683
34.485516 27.283828999999997 8.57608
33.837783 26.150686999999998 10.612953
22.783320000000003 22.523222000000004 9.285927000000001
22.563494 22.563494 10.661853
22.144343 21.396963999999997 11.312832
22.161487 20.17643 9.238683
22.585516 21.333829 8.57608
21.937783 20.200687000000002 10.612953
28.73332 34.423222 9.285927000000001
28.513494 34.463494 10.661853
28.094343000000002 33.296964 11.312832
28.111487000000004 32.07643 9.238683
28.535516 33.233829 8.57608
27.887783 32.100687 10.612953
34.68332 34.423222 9.285927000000001
34.463494 34.463494 10.661853
34.044343 33.296964 11.312832
34.061487 32.07643 9.238683
34.485516 33.233829 8.57608
33.837783 32.100687 10.612953
9.285927000000001 16.573222 16.393667999999998
10.661853 16.613494 16.613494
11.312832 15.446964 17.032645000000002
9.238683 14.226429999999999 17.015501
8.57608 15.383829 16.591472
10.612953 14.250687 17.239205
9.285927000000001 28.473222 16.393667999999998
10.661853 28.513494 16.613494
11.312832 27.346964 17.032645000000002
9.238683 26.12643 17.015501
8.57608 27.283828999999997 16.591472
10.612953 26.150686999999998 17.239205
9.285927000000001 34.423222 34.243668
10.661853 34.463494 34.463494
11.312832 33.296964 34.882645
9.238683 32.07643 34.865501
8.57608 33.233829 34.441472
10.612953 32.100687 35.089205
9.285927000000001 34.423222 28.293668000000004
10.661853 34.463494 28.513494
11.312832 33.296964 28.932645
9.238683 32.07643 28.915501
8.57608 33.233829 28.491472
10.612953 32.100687 29.139205000000004
41.791061000000006 28.473222 28.73332
40.415135 28.513494 28.513494
39.764156 27.346964 28.094343000000002
41.838305 26.12643 28.111487000000004
42.500908 27.283828999999997 28.535516
40.464035 26.150686999999998 27.887783
41.791061000000006 22.523222000000004 22.783320000000003
40.415135 22.563494 22.563494
39.764156 21.396963999999997 22.144343
41.838305 20.17643 22.161487
42.500908 21.333829 22.585516
40.464035 20.200687000000002 21.937783
41.791061000000006 16.573222 34.68332
40.415135 16.613494 34.463494
39.764156 15.446964 34.044343
41.838305 14.226429999999999 34.061487
42.500908 15.383829 34.485516
40.464035 14.250687 33.837783
41.791061000000006 16.573222 16.83332
40.415135 16.613494 16.613494
39.764156 15.446964 16.194343
41.838305 14.226429999999999 16.211486999999998
42.500908 15.383829 16.635516
40.464035 14.250687 15.987783
34.243668 9.285927000000001 16.573222
34.463494 10.661853 16.613494
34.882645 11.312832 15.446964
34.865501 9.238683 14.226429999999999
34.441472 8.57608 15.383829
35.089205 10.612953 14.250687
22.343668 9.285927000000001 22.523222000000004
22.563494 10.661853 22.563494
22.982644999999998 11.312832 21.396963999999997
22.965501000000003 9.238683 20.17643
22.541472 8.57608 21.333829
23.189205 10.612953 20.200687000000002
28.293668000000004 9.285927000000001 34.423222
28.513494 10.661853 34.463494
28.932645 11.312832 33.296964
28.915501 9.238683 32.07643
28.491472 8.57608 33.233829
29.139205000000004 10.612953 32.100687
22.343668 9.285927000000001 28.473222
22.563494 10.661853 28.513494
22.982644999999998 11.312832 27.346964
22.965501000000003 9.238683 26.12643
22.541472 8.57608 27.283828999999997
23.189205 10.612953 26.150686999999998
34.243668 41.791061000000006 34.503766
34.463494 40.415135 34.463494
34.882645 39.764156 35.630024
34.865501 41.838305 36.850558
34.441472 42.500908 35.693159
35.089205 40.464035 36.826301
16.393667999999998 41.791061000000006 16.653765999999997
16.613494 40.415135 16.613494
17.032645000000002 39.764156 17.780023999999997
17.015501 41.838305 19.000557999999998
16.591472 42.500908 17.843159
17.239205 40.464035 18.976301
16.393667999999998 41.791061000000006 22.603766
16.613494 40.415135 22.563494
17.032645000000002 39.764156 23.730024
17.015501 41.838305 24.950558
16.591472 42.500908 23.793159000000003
17.239205 40.464035 24.926301000000002
34.243668 41.791061000000006 16.653765999999997
34.463494 40.415135 16.613494
34.882645 39.764156 17.780023999999997
34.865501 41.838305 19.000557999999998
34.441472 42.500908 17.843159
35.089205 40.464035 18.976301
12.595044 12.595044 19.588493999999997
12.162833 25.538494 19.588493999999997
12.595044 31.488494000000003 38.481944000000006
19.588493999999997 19.588493999999997 12.162833
19.588493999999997 31.488494000000003 38.914155
19.588493999999997 38.914155 25.538494
25.538494 12.162833 19.588493999999997
25.538494 12.162833 25.538494
25.538494 12.595044 38.481944000000006
31.488494000000003 12.162833 31.488494000000003
31.488494000000003 25.538494 12.162833
31.488494000000003 31.488494000000003 12.162833
38.481944000000006 12.595044 31.488494000000003
38.914155 19.588493999999997 19.588493999999997
38.481944000000006 19.588493999999997 38.481944000000006
38.914155 25.538494 25.538494
38.481944000000006 25.538494 38.481944000000006
38.481944000000006 38.481944000000006 19.588493999999997
13.638494 13.638494 25.538494
13.638494 13.638494 31.488494000000003
13.638494 19.588493999999997 13.638494
13.638494 19.588493999999997 19.588493999999997
13.638494 19.588493999999997 25.538494
13.638494 19.588493999999997 31.488494000000003
13.638494 19.588493999999997 37.438494
13.638494 25.538494 13.638494
13.638494 25.538494 25.538494
13.638494 25.538494 31.488494000000003
13.638494 25.538494 37.438494
13.638494 31.488494000000003 13.638494
13.638494 31.488494000000003 19.588493999999997
13.638494 31.488494000000003 25.538494
13.638494 37.438494 19.588493999999997
13.638494 37.438494 25.538494
13.638494 37.438494 31.488494000000003
19.588493999999997 13.638494 13.638494
19.588493999999997 13.638494 19.588493999999997
19.588493999999997 13.638494 25.538494
19.588493999999997 13.638494 31.488494000000003
19.588493999999997 13.638494 37.438494
19.588493999999997 19.588493999999997 19.588493999999997
19.588493999999997 19.588493999999997 25.538494
19.588493999999997 19.588493999999997 31.488494000000003
19.588493999999997 19.588493999999997 37.438494
19.588493999999997 25.538494 13.638494
19.588493999999997 25.538494 19.588493999999997
19.588493999999997 25.538494 25.538494
19.588493999999997 25.538494 31.488494000000003
19.588493999999997 25.538494 37.438494
19.588493999999997 31.488494000000003 13.638494
19.588493999999997 31.488494000000003 19.588493999999997
19.588493999999997 31.488494000000003 25.538494
19.588493999999997 31.488494000000003 31.488494000000003
19.588493999999997 37.438494 13.638494
19.588493999999997 37.438494 31.488494000000003
19.588493999999997 37.438494 37.438494
25.538494 13.638494 13.638494
25.538494 13.638494 31.488494000000003
25.538494 19.588493999999997 13.638494
25.538494 19.588493999999997 19.588493999999997
25.538494 19.588493999999997 25.538494
25.538494 19.588493999999997 31.488494000000003
25.538494 19.588493999999997 37.438494
25.538494 25.538494 13.638494
25.538494 25.538494 19.588493999999997
25.538494 25.538494 25.538494
25.538494 25.538494 31.488494000000003
25.538494 25.538494 37.438494
25.538494 31.488494000000003 19.588493999999997
25.538494 31.488494000000003 25.538494
25.538494 31.488494000000003 31.488494000000003
25.538494 31.488494000000003 37.438494
25.538494 37.438494 13.638494
25.538494 37.438494 19.588493999999997
25.538494 37.438494 25.538494
25.538494 37.438494 31.488494000000003
25.538494 37.438494 37.438494
31.488494000000003 13.638494 13.638494
31.488494000000003 13.638494 19.588493999999997
31.488494000000003 13.638494 25.538494
31.488494000000003 13.638494 37.438494
31.488494000000003 19.588493999999997 13.638494
31.488494000000003 19.588493999999997 19.588493999999997
31.488494000000003 19.588493999999997 25.538494
31.488494000000003 19.588493999999997 31.488494000000003
31.488494000000003 19.588493999999997 37.438494
31.488494000000003 25.538494 19.588493999999997
31.488494000000003 25.538494 25.538494
31.488494000000003 25.538494 31.488494000000003
31.488494000000003 31.488494000000003 19.588493999999997
31.488494000000003 31.488494000000003 25.538494
31.488494000000003 31.488494000000003 31.488494000000003
31.488494000000003 31.488494000000003 37.438494
31.488494000000003 37.438494 13.638494
31.488494000000003 37.438494 19.588493999999997
31.488494000000003 37.438494 25.538494
31.488494000000003 37.438494 31.488494000000003
31.488494000000003 37.438494 37.438494
37.438494 13.638494 19.588493999999997
37.438494 13.638494 25.538494
37.438494 19.588493999999997 13.638494
37.438494 19.588493999999997 25.538494
37.438494 19.588493999999997 31.488494000000003
37.438494 25.538494 13.638494
37.438494 25.538494 19.588493999999997
37.438494 25.538494 31.488494000000003
37.438494 31.488494000000003 13.638494
37.438494 31.488494000000003 19.588493999999997
37.438494 31.488494000000003 25.538494
37.438494 31.488494000000003 37.438494
37.438494 37.438494 25.538494
37.438494 37.438494 31.488494000000003
35.019331 25.200927 42.394435
34.260403 27.257725999999998 43.576988
33.910383 29.372251 42.311108
34.302235 29.428447 39.843596
35.412436 25.256574999999998 39.929346
35.019331 19.250926999999997 42.394435
34.260403 21.307726000000002 43.576988
33.910383 23.422251000000003 42.311108
34.302235 23.478447000000003 39.843596
35.412436 19.306575000000002 39.929346
17.169331 31.150927000000003 42.394435
16.410403000000002 33.207726 43.576988
16.060383 35.322251 42.311108
16.452235 35.378447 39.843596
17.562435999999998 31.206575 39.929346
23.119331000000003 13.300927 42.394435
22.360402999999998 15.357726 43.576988
22.010382999999997 17.472251 42.311108
22.402234999999997 17.528447 39.843596
23.512436 13.356575 39.929346
33.907657 25.200927 8.682552999999999
34.666585 27.257725999999998 7.5
35.016605 29.372251 8.76588
34.624753 29.428447 11.233392
33.514552 25.256574999999998 11.147642
22.007657000000002 19.250926999999997 8.682552999999999
22.766585 21.307726000000002 7.5
23.116605 23.422251000000003 8.76588
22.724753 23.478447000000003 11.233392
21.614552 19.306575000000002 11.147642
27.957656999999998 31.150927000000003 8.682552999999999
28.716585000000002 33.207726 7.5
29.066605000000003 35.322251 8.76588
28.674753000000003 35.378447 11.233392
27.564552 31.206575 11.147642
33.907657 31.150927000000003 8.682552999999999
34.666585 33.207726 7.5
35.016605 35.322251 8.76588
34.624753 35.378447 11.233392
33.514552 31.206575 11.147642
8.682552999999999 13.300927 17.169331
7.5 15.357726 16.410403000000002
8.76588 17.472251 16.060383
11.233392 17.528447 16.452235
11.147642 13.356575 17.562435999999998
8.682552999999999 25.200927 17.169331
7.5 27.257725999999998 16.410403000000002
8.76588 29.372251 16.060383
11.233392 29.428447 16.452235
11.147642 25.256574999999998 17.562435999999998
8.682552999999999 31.150927000000003 35.019331
7.5 33.207726 34.260403
8.76588 35.322251 33.910383
11.233392 35.378447 34.302235
11.147642 31.206575 35.412436
8.682552999999999 31.150927000000003 29.069331
7.5 33.207726 28.310403
8.76588 35.322251 27.960383
11.233392 35.378447 28.352235
11.147642 31.206575 29.462436000000004
42.394435 25.200927 27.957656999999998
43.576988 27.257725999999998 28.716585000000002
42.311108 29.372251 29.066605000000003
39.843596 29.428447 28.674753000000003
39.929346 25.256574999999998 27.564552
42.394435 19.250926999999997 22.007657000000002
43.576988 21.307726000000002 22.766585
42.311108 23.422251000000003 23.116605
39.843596 23.478447000000003 22.724753
39.929346 19.306575000000002 21.614552
42.394435 13.300927 33.907657
43.576988 15.357726 34.666585
42.311108 17.472251 35.016605
39.843596 17.528447 34.624753
39.929346 13.356575 33.514552
42.394435 13.300927 16.057657
43.576988 15.357726 16.816585
42.311108 17.472251 17.166604999999997
39.843596 17.528447 16.774752999999997
39.929346 13.356575 15.664551999999999
35.019331 8.682552999999999 13.300927
34.260403 7.5 15.357726
33.910383 8.76588 17.472251
34.302235 11.233392 17.528447
35.412436 11.147642 13.356575
23.119331000000003 8.682552999999999 19.250926999999997
22.360402999999998 7.5 21.307726000000002
22.010382999999997 8.76588 23.422251000000003
22.402234999999997 11.233392 23.478447000000003
23.512436 11.147642 19.306575000000002
29.069331 8.682552999999999 31.150927000000003
28.310403 7.5 33.207726
27.960383 8.76588 35.322251
28.352235 11.233392 35.378447
29.462436000000004 11.147642 31.206575
23.119331000000003 8.682552999999999 25.200927
22.360402999999998 7.5 27.257725999999998
22.010382999999997 8.76588 29.372251
22.402234999999997 11.233392 29.428447
23.512436 11.147642 25.256574999999998
35.019331 42.394435 37.776061
34.260403 43.576988 35.719262
33.910383 42.311108 33.604737
34.302235 39.843596 33.548541
35.412436 39.929346 37.720413
17.169331 42.394435 19.926060999999997
16.410403000000002 43.576988 17.869262
16.060383 42.311108 15.754737
16.452235 39.843596 15.698541
17.562435999999998 39.929346 19.870413
17.169331 42.394435 25.876061
16.410403000000002 43.576988 23.819262000000002
16.060383 42.311108 21.704737
16.452235 39.843596 21.648541
17.562435999999998 39.929346 25.820413000000002
35.019331 42.394435 19.926060999999997
34.260403 43.576988 17.869262
33.910383 42.311108 15.754737
34.302235 39.843596 15.698541
35.412436 39.929346 19.870413
11.697522 13.02033 20.0415
12.41222 12.305633 18.551940000000002
12.967037 11.750816 20.172041999999998
14.513029999999999 13.293923 19.171002
13.854361 13.952593 20.543788
13.343039 14.463913999999999 19.050693000000003
11.828911999999999 24.956419000000004 20.449489999999997
11.828911999999999 26.575176 19.662087
11.828911999999999 25.083886999999997 18.653905
14.013236 26.074937 18.794995
14.013236 24.583083000000002 19.520670000000003
14.013236 25.957462999999997 20.449816
12.240228 30.462850000000003 38.599364
13.046351999999999 31.855941 39.405487
11.790199 32.146691 38.149334
14.012868999999998 32.433733 37.282904
13.269942 31.149852000000003 36.539977
14.427619 30.881897000000002 37.697653
19.417102999999997 20.613554999999998 11.828911999999999
20.561919 19.224393 11.828911999999999
18.786461000000003 18.927534 11.828911999999999
19.746449 18.643791999999998 14.013236
18.691381 19.924052 14.013236
20.327652 20.197637999999998 14.013236
18.599272 31.169801 39.248076000000005
20.359101000000003 30.791148999999997 39.248076000000005
19.807108999999997 32.504532 39.248076000000005
20.500166 31.782203000000003 37.063752
18.878298 32.13117 37.063752
19.387017999999998 30.552107999999997 37.063752
19.904359 39.248076000000005 26.528623000000003
20.288038 39.248076000000005 24.769883
18.573085 39.248076000000005 25.316977
19.297390999999998 37.063752 24.625987000000002
18.943790999999997 37.063752 26.246850000000002
20.524299999999997 37.063752 25.742645000000003
25.723304 11.828911999999999 18.565767
26.331797 11.828911999999999 20.259907
24.560381999999997 11.828911999999999 19.939807000000002
25.368172 14.013236 20.531044
24.807382000000004 14.013236 18.969716
26.439928000000002 14.013236 19.264722
26.269489999999998 11.828911999999999 24.799732
25.812783000000003 11.828911999999999 26.540936000000002
24.533209 11.828911999999999 25.274814
24.864804 14.013236 26.219341
25.285708 14.013236 24.614638
26.46497 14.013236 25.781503
25.633998 11.627146 37.986282
26.386986 12.7833 39.142435
24.594498 12.666332 39.025468
25.450477 14.577888999999999 37.847924
24.756520000000002 13.512371 36.782406
26.408486000000003 13.62017 36.890205
31.99933 11.828911999999999 30.583413
32.016899 11.828911999999999 32.383432
30.449253 11.828911999999999 31.498637000000002
31.017704000000002 14.013236 32.322621
31.001514 14.013236 30.663714999999996
32.446264 14.013236 31.479146
30.74975 26.269509 11.828911999999999
32.490943 25.812756999999998 11.828911999999999
31.224787999999997 24.533216000000003 11.828911999999999
32.169324 24.864787 14.013236
30.564631 25.285732000000003 14.013236
31.731527 26.464962999999997 14.013236
32.437808 31.911493 11.828911999999999
31.380164 30.454864999999998 11.828911999999999
30.647509999999997 32.099125 11.828911999999999
30.613601000000003 31.098657000000003 14.013236
31.588330999999997 32.441092 14.013236
32.263549 30.925733 14.013236
38.605457 12.246322 30.461475999999998
39.403281 13.044146 31.864091000000002
38.145446 11.786311 32.139914
37.277288 14.007252999999999 32.434999
36.542009 13.271975 31.142341000000002
37.701237 14.431201999999999 30.888142000000002
39.248076000000005 20.128254 20.476629000000003
39.248076000000005 18.549466000000002 19.611873000000003
39.248076000000005 20.087761 18.676980999999998
37.063752 19.091048 18.769984
37.063752 20.546067 19.566948
37.063752 19.128366 20.428548999999997
39.070342000000004 20.500591999999997 38.365781000000005
37.983378 19.563898000000002 39.452745
39.100465 18.700992 38.335658
36.848848 18.7479 37.498174
37.850599 19.611162 36.496423
36.821086 20.406419999999997 37.525936
39.248076000000005 26.542595 25.270341000000002
39.248076000000005 25.268670999999998 26.542147999999997
39.248076000000005 24.804216000000004 24.802993999999998
37.063752 24.613109 25.785625000000003
37.063752 25.787163999999997 24.613522000000003
37.063752 26.215208000000004 26.216335
39.356425 25.023606 38.079698
38.714183 26.57777 38.72194
38.083577 25.014105 39.352546
36.585192 26.013016999999998 37.761831
37.177086 24.580692 37.169936
37.758255 26.021773000000003 36.588767
38.562249 38.873874 20.604156
39.417931 38.018192 19.271493999999997
38.174004000000004 39.262119000000006 18.889832
37.317109 37.029914 18.652454
36.528508 37.818515 19.880643
37.674917 36.672105 20.232384
13.638494 13.638494 19.588493999999997
13.638494 25.538494 19.588493999999997
13.638494 31.488494000000003 37.438494
19.588493999999997 19.588493999999997 13.638494
19.588493999999997 31.488494000000003 37.438494
19.588493999999997 37.438494 25.538494
25.538494 13.638494 19.588493999999997
25.538494 13.638494 25.538494
25.538494 13.638494 37.438494
31.488494000000003 13.638494 31.488494000000003
31.488494000000003 25.538494 13.638494
31.488494000000003 31.488494000000003 13.638494
37.438494 13.638494 31.488494000000003
37.438494 19.588493999999997 19.588493999999997
37.438494 19.588493999999997 37.438494
37.438494 25.538494 25.538494
37.438494 25.538494 37.438494
37.438494 37.438494 19.588493999999997
34.463494 28.513494 37.438494
34.810423 26.085341999999997 37.465457
36.646619 27.657553 37.835532
34.463494 22.563494 37.438494
34.810423 20.135342 37.465457
36.646619 21.707552999999997 37.835532
16.613494 34.463494 37.438494
16.960423 32.035342 37.465457
18.796619 33.607553 37.835532
22.563494 16.613494 37.438494
22.910423 14.185342 37.465457
24.746619000000003 15.757553 37.835532
34.463494 28.513494 13.638494
34.116565 26.085341999999997 13.611531
32.280369 27.657553 13.241456
22.563494 22.563494 13.638494
22.216565000000003 20.135342 13.611531
20.380369 21.707552999999997 13.241456
28.513494 34.463494 13.638494
28.166565 32.035342 13.611531
26.330368999999997 33.607553 13.241456
34.463494 34.463494 13.638494
34.116565 32.035342 13.611531
32.280369 33.607553 13.241456
13.638494 16.613494 16.613494
13.611531 14.185342 16.960423
13.241456 15.757553 18.796619
13.638494 28.513494 16.613494
13.611531 26.085341999999997 16.960423
13.241456 27.657553 18.796619
13.638494 34.463494 34.463494
13.611531 32.035342 34.810423
13.241456 33.607553 36.646619
13.638494 34.463494 28.513494
13.611531 32.035342 28.860422999999997
13.241456 33.607553 30.696619
37.438494 28.513494 28.513494
37.465457 26.085341999999997 28.166565
37.835532 27.657553 26.330368999999997
37.438494 22.563494 22.563494
37.465457 20.135342 22.216565000000003
37.835532 21.707552999999997 20.380369
37.438494 16.613494 34.463494
37.465457 14.185342 34.116565
37.835532 15.757553 32.280369
37.438494 16.613494 16.613494
37.465457 14.185342 16.266565
37.835532 15.757553 14.430368999999999
34.463494 13.638494 16.613494
34.810423 13.611531 14.185342
36.646619 13.241456 15.757553
22.563494 13.638494 22.563494
22.910423 13.611531 20.135342
24.746619000000003 13.241456 21.707552999999997
28.513494 13.638494 34.463494
28.860422999999997 13.611531 32.035342
30.696619 13.241456 33.607553
22.563494 13.638494 28.513494
22.910423 13.611531 26.085341999999997
24.746619000000003 13.241456 27.657553
34.463494 37.438494 34.463494
34.810423 37.465457 36.891646
36.646619 37.835532 35.319435
16.613494 37.438494 16.613494
16.960423 37.465457 19.041646
18.796619 37.835532 17.469434999999997
16.613494 37.438494 22.563494
16.960423 37.465457 24.991646000000003
18.796619 37.835532 23.419435
34.463494 37.438494 16.613494
34.810423 37.465457 19.041646
36.646619 37.835532 17.469434999999997
16.613494 16.613494 16.613494
16.613494 16.613494 22.563494
16.613494 16.613494 28.513494
16.613494 16.613494 34.463494
16.613494 22.563494 16.613494
16.613494 22.563494 22.563494
16.613494 22.563494 28.513494
16.613494 22.563494 34.463494
16.613494 28.513494 16.613494