3_train/267_cspbbr3_MA-2-ABA_4_0.60\267_cspbbr3_MA-2-ABA_4_0.60.xyz
1.0
50.72052 0 0
0 50.72052 0
0 0 50.72052
Br C Cs H N O Pb 
180 471 61 726 111 120 64 
Cartesian
16.43526 13.46026 16.43526
13.46026 16.43526 16.43526
16.43526 16.43526 19.41026
16.43526 13.46026 22.385260000000002
16.43526 16.43526 25.360259999999997
13.46026 16.43526 28.335259999999998
16.43526 16.43526 31.31026
13.46026 16.43526 34.28526
16.43526 19.41026 16.43526
16.43526 22.385260000000002 19.41026
16.43526 19.41026 22.385260000000002
16.43526 22.385260000000002 25.360259999999997
16.43526 19.41026 28.335259999999998
16.43526 22.385260000000002 31.31026
16.43526 19.41026 34.28526
16.43526 25.360259999999997 16.43526
16.43526 28.335259999999998 19.41026
16.43526 25.360259999999997 22.385260000000002
16.43526 28.335259999999998 25.360259999999997
16.43526 25.360259999999997 28.335259999999998
16.43526 28.335259999999998 31.31026
16.43526 25.360259999999997 34.28526
16.43526 31.31026 16.43526
16.43526 34.28526 19.41026
16.43526 31.31026 22.385260000000002
13.46026 34.28526 22.385260000000002
16.43526 34.28526 25.360259999999997
16.43526 31.31026 28.335259999999998
13.46026 34.28526 28.335259999999998
16.43526 34.28526 31.31026
16.43526 31.31026 34.28526
13.46026 34.28526 34.28526
16.43526 34.28526 37.26026
16.43526 37.26026 16.43526
22.385260000000002 16.43526 13.46026
19.41026 16.43526 16.43526
22.385260000000002 16.43526 19.41026
19.41026 16.43526 22.385260000000002
22.385260000000002 16.43526 25.360259999999997
19.41026 16.43526 28.335259999999998
22.385260000000002 16.43526 31.31026
19.41026 16.43526 34.28526
22.385260000000002 16.43526 37.26026
22.385260000000002 22.385260000000002 13.46026
22.385260000000002 19.41026 16.43526
19.41026 22.385260000000002 16.43526
22.385260000000002 22.385260000000002 19.41026
22.385260000000002 19.41026 22.385260000000002
19.41026 22.385260000000002 22.385260000000002
22.385260000000002 22.385260000000002 25.360259999999997
22.385260000000002 19.41026 28.335259999999998
19.41026 22.385260000000002 28.335259999999998
22.385260000000002 22.385260000000002 31.31026
22.385260000000002 19.41026 34.28526
19.41026 22.385260000000002 34.28526
22.385260000000002 25.360259999999997 16.43526
19.41026 28.335259999999998 16.43526
22.385260000000002 28.335259999999998 19.41026
22.385260000000002 25.360259999999997 22.385260000000002
19.41026 28.335259999999998 22.385260000000002
22.385260000000002 28.335259999999998 25.360259999999997
22.385260000000002 25.360259999999997 28.335259999999998
19.41026 28.335259999999998 28.335259999999998
22.385260000000002 28.335259999999998 31.31026
22.385260000000002 25.360259999999997 34.28526
19.41026 28.335259999999998 34.28526
22.385260000000002 31.31026 16.43526
19.41026 34.28526 16.43526
22.385260000000002 34.28526 19.41026
22.385260000000002 31.31026 22.385260000000002
19.41026 34.28526 22.385260000000002
22.385260000000002 34.28526 25.360259999999997
22.385260000000002 31.31026 28.335259999999998
19.41026 34.28526 28.335259999999998
22.385260000000002 34.28526 31.31026
22.385260000000002 31.31026 34.28526
19.41026 34.28526 34.28526
22.385260000000002 37.26026 16.43526
22.385260000000002 37.26026 28.335259999999998
28.335259999999998 16.43526 13.46026
28.335259999999998 13.46026 16.43526
25.360259999999997 16.43526 16.43526
28.335259999999998 16.43526 19.41026
28.335259999999998 13.46026 22.385260000000002
25.360259999999997 16.43526 22.385260000000002
28.335259999999998 16.43526 25.360259999999997
25.360259999999997 16.43526 28.335259999999998
28.335259999999998 16.43526 31.31026
25.360259999999997 16.43526 34.28526
28.335259999999998 19.41026 16.43526
25.360259999999997 22.385260000000002 16.43526
28.335259999999998 22.385260000000002 19.41026
28.335259999999998 19.41026 22.385260000000002
25.360259999999997 22.385260000000002 22.385260000000002
28.335259999999998 22.385260000000002 25.360259999999997
28.335259999999998 19.41026 28.335259999999998
25.360259999999997 22.385260000000002 28.335259999999998
28.335259999999998 22.385260000000002 31.31026
28.335259999999998 19.41026 34.28526
25.360259999999997 22.385260000000002 34.28526
28.335259999999998 22.385260000000002 37.26026
28.335259999999998 25.360259999999997 16.43526
25.360259999999997 28.335259999999998 16.43526
28.335259999999998 28.335259999999998 19.41026
28.335259999999998 25.360259999999997 22.385260000000002
25.360259999999997 28.335259999999998 22.385260000000002
28.335259999999998 28.335259999999998 25.360259999999997
28.335259999999998 25.360259999999997 28.335259999999998
25.360259999999997 28.335259999999998 28.335259999999998
28.335259999999998 28.335259999999998 31.31026
28.335259999999998 25.360259999999997 34.28526
25.360259999999997 28.335259999999998 34.28526
28.335259999999998 28.335259999999998 37.26026
28.335259999999998 34.28526 13.46026
28.335259999999998 31.31026 16.43526
25.360259999999997 34.28526 16.43526
28.335259999999998 34.28526 19.41026
28.335259999999998 31.31026 22.385260000000002
25.360259999999997 34.28526 22.385260000000002
28.335259999999998 34.28526 25.360259999999997
28.335259999999998 31.31026 28.335259999999998
25.360259999999997 34.28526 28.335259999999998
28.335259999999998 34.28526 31.31026
28.335259999999998 31.31026 34.28526
25.360259999999997 34.28526 34.28526
28.335259999999998 37.26026 28.335259999999998
34.28526 13.46026 16.43526
31.31026 16.43526 16.43526
34.28526 16.43526 19.41026
31.31026 16.43526 22.385260000000002
34.28526 16.43526 25.360259999999997
34.28526 13.46026 28.335259999999998
31.31026 16.43526 28.335259999999998
34.28526 16.43526 31.31026
31.31026 16.43526 34.28526
34.28526 22.385260000000002 13.46026
34.28526 19.41026 16.43526
31.31026 22.385260000000002 16.43526
34.28526 22.385260000000002 19.41026
34.28526 19.41026 22.385260000000002
31.31026 22.385260000000002 22.385260000000002
34.28526 22.385260000000002 25.360259999999997
34.28526 19.41026 28.335259999999998
31.31026 22.385260000000002 28.335259999999998
34.28526 22.385260000000002 31.31026
34.28526 19.41026 34.28526
31.31026 22.385260000000002 34.28526
34.28526 28.335259999999998 13.46026
34.28526 25.360259999999997 16.43526
31.31026 28.335259999999998 16.43526
34.28526 28.335259999999998 19.41026
34.28526 25.360259999999997 22.385260000000002
31.31026 28.335259999999998 22.385260000000002
34.28526 28.335259999999998 25.360259999999997
34.28526 25.360259999999997 28.335259999999998
31.31026 28.335259999999998 28.335259999999998
34.28526 28.335259999999998 31.31026
34.28526 25.360259999999997 34.28526
31.31026 28.335259999999998 34.28526
34.28526 28.335259999999998 37.26026
34.28526 31.31026 16.43526
31.31026 34.28526 16.43526
34.28526 34.28526 19.41026
34.28526 31.31026 22.385260000000002
31.31026 34.28526 22.385260000000002
34.28526 34.28526 25.360259999999997
34.28526 31.31026 28.335259999999998
31.31026 34.28526 28.335259999999998
34.28526 34.28526 31.31026
34.28526 31.31026 34.28526
31.31026 34.28526 34.28526
34.28526 34.28526 37.26026
34.28526 37.26026 28.335259999999998
34.28526 37.26026 34.28526
37.26026 16.43526 16.43526
37.26026 22.385260000000002 28.335259999999998
37.26026 22.385260000000002 34.28526
37.26026 28.335259999999998 16.43526
37.26026 28.335259999999998 22.385260000000002
37.26026 34.28526 28.335259999999998
22.438764 34.528882 42.09777999999999
22.584665 35.06399 40.828844999999994
22.385260000000002 34.28526 39.669023
21.894953 32.378408 41.111371
22.089919000000002 33.17295 42.227391
22.537315999999997 34.874498 38.339569
22.028799 32.904996 39.802741
28.388764000000002 34.528882 42.09777999999999
28.534664999999997 35.06399 40.828844999999994
28.335259999999998 34.28526 39.669023
27.844952999999997 32.378408 41.111371
28.039918999999998 33.17295 42.227391
28.487316 34.874498 38.339569
27.978799000000002 32.904996 39.802741
34.338764 22.628881999999997 42.09777999999999
34.484665 23.16399 40.828844999999994
34.28526 22.385260000000002 39.669023
33.794953 20.478408 41.111371
33.989919 21.27295 42.227391
34.437316 22.974497999999997 38.339569
33.928799 21.004996 39.802741
22.438764 28.578882 42.09777999999999
22.584665 29.11399 40.828844999999994
22.385260000000002 28.335259999999998 39.669023
21.894953 26.428407999999997 41.111371
22.089919000000002 27.222949999999997 42.227391
22.537315999999997 28.924498 38.339569
22.028799 26.954996 39.802741
28.388764000000002 16.678882 42.09777999999999
28.534664999999997 17.213990000000003 40.828844999999994
28.335259999999998 16.43526 39.669023
27.844952999999997 14.528408 41.111371
28.039918999999998 15.32295 42.227391
28.487316 17.024498 38.339569
27.978799000000002 15.054996 39.802741
22.438764 22.628881999999997 42.09777999999999
22.584665 23.16399 40.828844999999994
22.385260000000002 22.385260000000002 39.669023
21.894953 20.478408 41.111371
22.089919000000002 21.27295 42.227391
22.537315999999997 22.974497999999997 38.339569
22.028799 21.004996 39.802741
34.338764 16.678882 42.09777999999999
34.484665 17.213990000000003 40.828844999999994
34.28526 16.43526 39.669023
33.794953 14.528408 41.111371
33.989919 15.32295 42.227391
34.437316 17.024498 38.339569
33.928799 15.054996 39.802741
16.488764 16.678882 42.09777999999999
16.634665 17.213990000000003 40.828844999999994
16.43526 16.43526 39.669023
15.944953 14.528408 41.111371
16.139919 15.32295 42.227391
16.587316 17.024498 38.339569
16.078799 15.054996 39.802741
16.488764 22.628881999999997 42.09777999999999
16.634665 23.16399 40.828844999999994
16.43526 22.385260000000002 39.669023
15.944953 20.478408 41.111371
16.139919 21.27295 42.227391
16.587316 22.974497999999997 38.339569
16.078799 21.004996 39.802741
16.488764 28.578882 42.09777999999999
16.634665 29.11399 40.828844999999994
16.43526 28.335259999999998 39.669023
15.944953 26.428407999999997 41.111371
16.139919 27.222949999999997 42.227391
16.587316 28.924498 38.339569
16.078799 26.954996 39.802741
22.331756 28.578882 8.62274
22.185854999999997 29.11399 9.891675
22.385260000000002 28.335259999999998 11.051497
22.875566999999997 26.428407999999997 9.609149
22.680600999999996 27.222949999999997 8.493129
22.233204 28.924498 12.380951
22.741721 26.954996 10.917779
34.231756 16.678882 8.62274
34.085855 17.213990000000003 9.891675
34.28526 16.43526 11.051497
34.775567 14.528408 9.609149
34.580601 15.32295 8.493129
34.133204 17.024498 12.380951
34.641721 15.054996 10.917779
16.381756 34.528882 8.62274
16.235855 35.06399 9.891675
16.43526 34.28526 11.051497
16.925567 32.378408 9.609149
16.730601 33.17295 8.493129
16.283203999999998 34.874498 12.380951
16.791721000000003 32.904996 10.917779
34.231756 34.528882 8.62274
34.085855 35.06399 9.891675
34.28526 34.28526 11.051497
34.775567 32.378408 9.609149
34.580601 33.17295 8.493129
34.133204 34.874498 12.380951
34.641721 32.904996 10.917779
16.381756 16.678882 8.62274
16.235855 17.213990000000003 9.891675
16.43526 16.43526 11.051497
16.925567 14.528408 9.609149
16.730601 15.32295 8.493129
16.283203999999998 17.024498 12.380951
16.791721000000003 15.054996 10.917779
16.381756 22.628881999999997 8.62274
16.235855 23.16399 9.891675
16.43526 22.385260000000002 11.051497
16.925567 20.478408 9.609149
16.730601 21.27295 8.493129
16.283203999999998 22.974497999999997 12.380951
16.791721000000003 21.004996 10.917779
22.331756 34.528882 8.62274
22.185854999999997 35.06399 9.891675
22.385260000000002 34.28526 11.051497
22.875566999999997 32.378408 9.609149
22.680600999999996 33.17295 8.493129
22.233204 34.874498 12.380951
22.741721 32.904996 10.917779
28.281756 28.578882 8.62274
28.135855 29.11399 9.891675
28.335259999999998 28.335259999999998 11.051497
28.825567 26.428407999999997 9.609149
28.630601 27.222949999999997 8.493129
28.183203999999996 28.924498 12.380951
28.691721 26.954996 10.917779
16.381756 28.578882 8.62274
16.235855 29.11399 9.891675
16.43526 28.335259999999998 11.051497
16.925567 26.428407999999997 9.609149
16.730601 27.222949999999997 8.493129
16.283203999999998 28.924498 12.380951
16.791721000000003 26.954996 10.917779
28.281756 22.628881999999997 8.62274
28.135855 23.16399 9.891675
28.335259999999998 22.385260000000002 11.051497
28.825567 20.478408 9.609149
28.630601 21.27295 8.493129
28.183203999999996 22.974497999999997 12.380951
28.691721 21.004996 10.917779
8.62274 28.578882 28.388764000000002
9.891675 29.11399 28.534664999999997
11.051497 28.335259999999998 28.335259999999998
9.609149 26.428407999999997 27.844952999999997
8.493129 27.222949999999997 28.039918999999998
12.380951 28.924498 28.487316
10.917779 26.954996 27.978799000000002
8.62274 28.578882 34.338764
9.891675 29.11399 34.484665
11.051497 28.335259999999998 34.28526
9.609149 26.428407999999997 33.794953
8.493129 27.222949999999997 33.989919
12.380951 28.924498 34.437316
10.917779 26.954996 33.928799
8.62274 22.628881999999997 22.438764
9.891675 23.16399 22.584665
11.051497 22.385260000000002 22.385260000000002
9.609149 20.478408 21.894953
8.493129 21.27295 22.089919000000002
12.380951 22.974497999999997 22.537315999999997
10.917779 21.004996 22.028799
8.62274 34.528882 16.488764
9.891675 35.06399 16.634665
11.051497 34.28526 16.43526
9.609149 32.378408 15.944953
8.493129 33.17295 16.139919
12.380951 34.874498 16.587316
10.917779 32.904996 16.078799
8.62274 22.628881999999997 28.388764000000002
9.891675 23.16399 28.534664999999997
11.051497 22.385260000000002 28.335259999999998
9.609149 20.478408 27.844952999999997
8.493129 21.27295 28.039918999999998
12.380951 22.974497999999997 28.487316
10.917779 21.004996 27.978799000000002
8.62274 16.678882 22.438764
9.891675 17.213990000000003 22.584665
11.051497 16.43526 22.385260000000002
9.609149 14.528408 21.894953
8.493129 15.32295 22.089919000000002
12.380951 17.024498 22.537315999999997
10.917779 15.054996 22.028799
8.62274 28.578882 16.488764
9.891675 29.11399 16.634665
11.051497 28.335259999999998 16.43526
9.609149 26.428407999999997 15.944953
8.493129 27.222949999999997 16.139919
12.380951 28.924498 16.587316
10.917779 26.954996 16.078799
8.62274 28.578882 22.438764
9.891675 29.11399 22.584665
11.051497 28.335259999999998 22.385260000000002
9.609149 26.428407999999997 21.894953
8.493129 27.222949999999997 22.089919000000002
12.380951 28.924498 22.537315999999997
10.917779 26.954996 22.028799
8.62274 22.628881999999997 16.488764
9.891675 23.16399 16.634665
11.051497 22.385260000000002 16.43526
9.609149 20.478408 15.944953
8.493129 21.27295 16.139919
12.380951 22.974497999999997 16.587316
10.917779 21.004996 16.078799
8.62274 22.628881999999997 34.338764
9.891675 23.16399 34.484665
11.051497 22.385260000000002 34.28526
9.609149 20.478408 33.794953
8.493129 21.27295 33.989919
12.380951 22.974497999999997 34.437316
10.917779 21.004996 33.928799
42.09777999999999 34.528882 34.231756
40.828844999999994 35.06399 34.085855
39.669023 34.28526 34.28526
41.111371 32.378408 34.775567
42.227391 33.17295 34.580601
38.339569 34.874498 34.133204
39.802741 32.904996 34.641721
42.09777999999999 28.578882 28.281756
40.828844999999994 29.11399 28.135855
39.669023 28.335259999999998 28.335259999999998
41.111371 26.428407999999997 28.825567
42.227391 27.222949999999997 28.630601
38.339569 28.924498 28.183203999999996
39.802741 26.954996 28.691721
42.09777999999999 28.578882 34.231756
40.828844999999994 29.11399 34.085855
39.669023 28.335259999999998 34.28526
41.111371 26.428407999999997 34.775567
42.227391 27.222949999999997 34.580601
38.339569 28.924498 34.133204
39.802741 26.954996 34.641721
42.09777999999999 16.678882 34.231756
40.828844999999994 17.213990000000003 34.085855
39.669023 16.43526 34.28526
41.111371 14.528408 34.775567
42.227391 15.32295 34.580601
38.339569 17.024498 34.133204
39.802741 15.054996 34.641721
42.09777999999999 16.678882 28.281756
40.828844999999994 17.213990000000003 28.135855
39.669023 16.43526 28.335259999999998
41.111371 14.528408 28.825567
42.227391 15.32295 28.630601
38.339569 17.024498 28.183203999999996
39.802741 15.054996 28.691721
42.09777999999999 16.678882 22.331756
40.828844999999994 17.213990000000003 22.185854999999997
39.669023 16.43526 22.385260000000002
41.111371 14.528408 22.875566999999997
42.227391 15.32295 22.680600999999996
38.339569 17.024498 22.233204
39.802741 15.054996 22.741721
42.09777999999999 22.628881999999997 22.331756
40.828844999999994 23.16399 22.185854999999997
39.669023 22.385260000000002 22.385260000000002
41.111371 20.478408 22.875566999999997
42.227391 21.27295 22.680600999999996
38.339569 22.974497999999997 22.233204
39.802741 21.004996 22.741721
42.09777999999999 22.628881999999997 16.381756
40.828844999999994 23.16399 16.235855
39.669023 22.385260000000002 16.43526
41.111371 20.478408 16.925567
42.227391 21.27295 16.730601
38.339569 22.974497999999997 16.283203999999998
39.802741 21.004996 16.791721000000003
42.09777999999999 34.528882 22.331756
40.828844999999994 35.06399 22.185854999999997
39.669023 34.28526 22.385260000000002
41.111371 32.378408 22.875566999999997
42.227391 33.17295 22.680600999999996
38.339569 34.874498 22.233204
39.802741 32.904996 22.741721
42.09777999999999 34.528882 16.381756
40.828844999999994 35.06399 16.235855
39.669023 34.28526 16.43526
41.111371 32.378408 16.925567
42.227391 33.17295 16.730601
38.339569 34.874498 16.283203999999998
39.802741 32.904996 16.791721000000003
28.388764000000002 8.62274 28.578882
28.534664999999997 9.891675 29.11399
28.335259999999998 11.051497 28.335259999999998
27.844952999999997 9.609149 26.428407999999997
28.039918999999998 8.493129 27.222949999999997
28.487316 12.380951 28.924498
27.978799000000002 10.917779 26.954996
22.438764 8.62274 34.528882
22.584665 9.891675 35.06399
22.385260000000002 11.051497 34.28526
21.894953 9.609149 32.378408
22.089919000000002 8.493129 33.17295
22.537315999999997 12.380951 34.874498
22.028799 10.917779 32.904996
34.338764 8.62274 34.528882
34.484665 9.891675 35.06399
34.28526 11.051497 34.28526
33.794953 9.609149 32.378408
33.989919 8.493129 33.17295
34.437316 12.380951 34.874498
33.928799 10.917779 32.904996
34.338764 8.62274 22.628881999999997
34.484665 9.891675 23.16399
34.28526 11.051497 22.385260000000002
33.794953 9.609149 20.478408
33.989919 8.493129 21.27295
34.437316 12.380951 22.974497999999997
33.928799 10.917779 21.004996
28.388764000000002 8.62274 34.528882
28.534664999999997 9.891675 35.06399
28.335259999999998 11.051497 34.28526
27.844952999999997 9.609149 32.378408
28.039918999999998 8.493129 33.17295
28.487316 12.380951 34.874498
27.978799000000002 10.917779 32.904996
16.488764 8.62274 28.578882
16.634665 9.891675 29.11399
16.43526 11.051497 28.335259999999998
15.944953 9.609149 26.428407999999997
16.139919 8.493129 27.222949999999997
16.587316 12.380951 28.924498
16.078799 10.917779 26.954996
22.438764 8.62274 16.678882
22.584665 9.891675 17.213990000000003
22.385260000000002 11.051497 16.43526
21.894953 9.609149 14.528408
22.089919000000002 8.493129 15.32295
22.537315999999997 12.380951 17.024498
22.028799 10.917779 15.054996
22.438764 8.62274 22.628881999999997
22.584665 9.891675 23.16399
22.385260000000002 11.051497 22.385260000000002
21.894953 9.609149 20.478408
22.089919000000002 8.493129 21.27295
22.537315999999997 12.380951 22.974497999999997
22.028799 10.917779 21.004996
16.488764 8.62274 34.528882
16.634665 9.891675 35.06399
16.43526 11.051497 34.28526
15.944953 9.609149 32.378408
16.139919 8.493129 33.17295
16.587316 12.380951 34.874498
16.078799 10.917779 32.904996
22.438764 8.62274 28.578882
22.584665 9.891675 29.11399
22.385260000000002 11.051497 28.335259999999998
21.894953 9.609149 26.428407999999997
22.089919000000002 8.493129 27.222949999999997
22.537315999999997 12.380951 28.924498
22.028799 10.917779 26.954996
16.488764 42.09777999999999 28.091637999999996
16.634665 40.828844999999994 27.556530000000002
16.43526 39.669023 28.335259999999998
15.944953 41.111371 30.242112
16.139919 42.227391 29.44757
16.587316 38.339569 27.746021999999996
16.078799 39.802741 29.715524000000002
28.388764000000002 42.09777999999999 22.141638
28.534664999999997 40.828844999999994 21.60653
28.335259999999998 39.669023 22.385260000000002
27.844952999999997 41.111371 24.292111999999996
28.039918999999998 42.227391 23.497569999999996
28.487316 38.339569 21.796022
27.978799000000002 39.802741 23.765524
16.488764 42.09777999999999 34.041638
16.634665 40.828844999999994 33.50653
16.43526 39.669023 34.28526
15.944953 41.111371 36.192112
16.139919 42.227391 35.39757
16.587316 38.339569 33.696022
16.078799 39.802741 35.665524
34.338764 42.09777999999999 16.191637999999998
34.484665 40.828844999999994 15.65653
34.28526 39.669023 16.43526
33.794953 41.111371 18.342112
33.989919 42.227391 17.54757
34.437316 38.339569 15.846022
33.928799 39.802741 17.815524
34.338764 42.09777999999999 22.141638
34.484665 40.828844999999994 21.60653
34.28526 39.669023 22.385260000000002
33.794953 41.111371 24.292111999999996
33.989919 42.227391 23.497569999999996
34.437316 38.339569 21.796022
33.928799 39.802741 23.765524
16.488764 42.09777999999999 22.141638
16.634665 40.828844999999994 21.60653
16.43526 39.669023 22.385260000000002
15.944953 41.111371 24.292111999999996
16.139919 42.227391 23.497569999999996
16.587316 38.339569 21.796022
16.078799 39.802741 23.765524
22.438764 42.09777999999999 22.141638
22.584665 40.828844999999994 21.60653
22.385260000000002 39.669023 22.385260000000002
21.894953 41.111371 24.292111999999996
22.089919000000002 42.227391 23.497569999999996
22.537315999999997 38.339569 21.796022
22.028799 39.802741 23.765524
28.388764000000002 42.09777999999999 16.191637999999998
28.534664999999997 40.828844999999994 15.65653
28.335259999999998 39.669023 16.43526
27.844952999999997 41.111371 18.342112
28.039918999999998 42.227391 17.54757
28.487316 38.339569 15.846022
27.978799000000002 39.802741 17.815524
28.388764000000002 42.09777999999999 34.041638
28.534664999999997 40.828844999999994 33.50653
28.335259999999998 39.669023 34.28526
27.844952999999997 41.111371 36.192112
28.039918999999998 42.227391 35.39757
28.487316 38.339569 33.696022
27.978799000000002 39.802741 35.665524
22.438764 42.09777999999999 34.041638
22.584665 40.828844999999994 33.50653
22.385260000000002 39.669023 34.28526
21.894953 41.111371 36.192112
22.089919000000002 42.227391 35.39757
22.537315999999997 38.339569 33.696022
22.028799 39.802741 35.665524
31.31026 38.30371 12.41681
11.984599 25.360259999999997 19.41026
31.31026 11.984599 31.31026
19.41026 25.360259999999997 11.984599
19.41026 11.984599 31.31026
25.360259999999997 38.735921 25.360259999999997
12.41681 25.360259999999997 38.30371
25.360259999999997 12.41681 12.41681
19.41026 31.31026 11.984599
19.41026 19.41026 11.984599
11.984599 19.41026 19.41026
31.31026 38.735921 31.31026
19.41026 38.30371 38.30371
11.984599 19.41026 31.31026
38.30371 31.31026 12.41681
19.41026 11.984599 25.360259999999997
38.735921 25.360259999999997 31.31026
25.360259999999997 11.984599 19.41026
19.41026 12.41681 12.41681
38.30371 31.31026 38.30371
25.360259999999997 25.360259999999997 38.735921
19.41026 38.735921 19.41026
11.984599 25.360259999999997 25.360259999999997
31.31026 12.41681 38.30371
25.360259999999997 19.41026 38.735921
25.360259999999997 19.41026 11.984599
25.360259999999997 11.984599 25.360259999999997
31.31026 19.41026 38.735921
12.41681 31.31026 38.30371
38.30371 12.41681 31.31026
38.30371 19.41026 12.41681
38.735921 19.41026 31.31026
12.41681 12.41681 31.31026
38.30371 12.41681 25.360259999999997
25.360259999999997 12.41681 38.30371
12.41681 19.41026 38.30371
19.41026 38.735921 31.31026
38.735921 31.31026 31.31026
31.31026 19.41026 11.984599
31.31026 38.735921 19.41026
11.984599 31.31026 19.41026
11.984599 31.31026 25.360259999999997
11.984599 25.360259999999997 31.31026
31.31026 31.31026 38.735921
19.41026 31.31026 38.735921
25.360259999999997 25.360259999999997 11.984599
31.31026 31.31026 11.984599
31.31026 11.984599 19.41026
12.41681 31.31026 12.41681
19.41026 12.41681 38.30371
25.360259999999997 31.31026 11.984599
13.46026 13.46026 25.360259999999997
13.46026 19.41026 13.46026
13.46026 19.41026 25.360259999999997
13.46026 25.360259999999997 13.46026
13.46026 31.31026 31.31026
13.46026 37.26026 19.41026
13.46026 37.26026 25.360259999999997
13.46026 37.26026 31.31026
19.41026 13.46026 19.41026
19.41026 19.41026 19.41026
19.41026 19.41026 25.360259999999997
19.41026 19.41026 31.31026
19.41026 19.41026 37.26026
19.41026 25.360259999999997 19.41026
19.41026 25.360259999999997 25.360259999999997
19.41026 25.360259999999997 31.31026
19.41026 25.360259999999997 37.26026
19.41026 31.31026 19.41026
19.41026 31.31026 25.360259999999997
19.41026 31.31026 31.31026
19.41026 37.26026 13.46026
19.41026 37.26026 25.360259999999997
25.360259999999997 13.46026 31.31026
25.360259999999997 19.41026 19.41026
25.360259999999997 19.41026 25.360259999999997
25.360259999999997 19.41026 31.31026
25.360259999999997 25.360259999999997 19.41026
25.360259999999997 25.360259999999997 25.360259999999997
25.360259999999997 25.360259999999997 31.31026
25.360259999999997 31.31026 19.41026
25.360259999999997 31.31026 25.360259999999997
25.360259999999997 31.31026 31.31026
25.360259999999997 31.31026 37.26026
25.360259999999997 37.26026 19.41026
25.360259999999997 37.26026 37.26026
31.31026 13.46026 13.46026
31.31026 13.46026 25.360259999999997
31.31026 19.41026 19.41026
31.31026 19.41026 25.360259999999997
31.31026 19.41026 31.31026
31.31026 25.360259999999997 13.46026
31.31026 25.360259999999997 19.41026
31.31026 25.360259999999997 25.360259999999997
31.31026 25.360259999999997 31.31026
31.31026 25.360259999999997 37.26026
31.31026 31.31026 19.41026
31.31026 31.31026 25.360259999999997
31.31026 31.31026 31.31026
31.31026 37.26026 25.360259999999997
31.31026 37.26026 37.26026
37.26026 13.46026 19.41026
37.26026 19.41026 19.41026
37.26026 19.41026 25.360259999999997
37.26026 19.41026 37.26026
37.26026 25.360259999999997 13.46026
37.26026 25.360259999999997 19.41026
37.26026 25.360259999999997 25.360259999999997
37.26026 31.31026 19.41026
37.26026 37.26026 19.41026
37.26026 37.26026 25.360259999999997
37.26026 37.26026 31.31026
21.635601 31.323008 41.227473999999994
21.972895 32.734104 43.22052
22.593901000000002 35.148823 42.980929999999994
22.861109 36.110924 40.702598
21.565379 31.141852 38.834522
21.934154 32.529151 37.791856
22.933918999999996 36.45956 37.40787
27.585600999999997 31.323008 41.227473999999994
27.922894999999997 32.734104 43.22052
28.543900999999998 35.148823 42.980929999999994
28.811109000000002 36.110924 40.702598
27.515378999999996 31.141852 38.834522
27.884154000000002 32.529151 37.791856
28.883919 36.45956 37.40787
33.535601 19.423008000000003 41.227473999999994
33.872895 20.834104 43.22052
34.493901 23.248823 42.980929999999994
34.761109 24.210924 40.702598
33.465379 19.241852 38.834522
33.834154 20.629151 37.791856
34.833919 24.559559999999998 37.40787
21.635601 25.373008 41.227473999999994
21.972895 26.784104 43.22052
22.593901000000002 29.198822999999997 42.980929999999994
22.861109 30.160924 40.702598
21.565379 25.191851999999997 38.834522
21.934154 26.579150999999996 37.791856
22.933918999999996 30.50956 37.40787
27.585600999999997 13.473008 41.227473999999994
27.922894999999997 14.884104 43.22052
28.543900999999998 17.298823 42.980929999999994
28.811109000000002 18.260924000000003 40.702598
27.515378999999996 13.291851999999999 38.834522
27.884154000000002 14.679151 37.791856
28.883919 18.609560000000002 37.40787
21.635601 19.423008000000003 41.227473999999994
21.972895 20.834104 43.22052
22.593901000000002 23.248823 42.980929999999994
22.861109 24.210924 40.702598
21.565379 19.241852 38.834522
21.934154 20.629151 37.791856
22.933918999999996 24.559559999999998 37.40787
33.535601 13.473008 41.227473999999994
33.872895 14.884104 43.22052
34.493901 17.298823 42.980929999999994
34.761109 18.260924000000003 40.702598
33.465379 13.291851999999999 38.834522
33.834154 14.679151 37.791856
34.833919 18.609560000000002 37.40787
15.685601 13.473008 41.227473999999994
16.022895 14.884104 43.22052
16.643901 17.298823 42.980929999999994
16.911109 18.260924000000003 40.702598
15.615378999999999 13.291851999999999 38.834522
15.984154 14.679151 37.791856
16.983919 18.609560000000002 37.40787
15.685601 19.423008000000003 41.227473999999994
16.022895 20.834104 43.22052
16.643901 23.248823 42.980929999999994
16.911109 24.210924 40.702598
15.615378999999999 19.241852 38.834522
15.984154 20.629151 37.791856
16.983919 24.559559999999998 37.40787
15.685601 25.373008 41.227473999999994
16.022895 26.784104 43.22052
16.643901 29.198822999999997 42.980929999999994
16.911109 30.160924 40.702598
15.615378999999999 25.191851999999997 38.834522
15.984154 26.579150999999996 37.791856
16.983919 30.50956 37.40787
23.134918999999996 25.373008 9.493046
22.797624999999996 26.784104 7.5
22.176619000000002 29.198822999999997 7.73959
21.909411 30.160924 10.017922
23.205140999999998 25.191851999999997 11.885998
22.836365999999998 26.579150999999996 12.928664
21.836601 30.50956 13.31265
35.034919 13.473008 9.493046
34.697625 14.884104 7.5
34.076619 17.298823 7.73959
33.809411 18.260924000000003 10.017922
35.105141 13.291851999999999 11.885998
34.736366 14.679151 12.928664
33.736601 18.609560000000002 13.31265
17.184919 31.323008 9.493046