3_train/191_cspbbr3_MA-SDS_3_0.40\191_cspbbr3_MA-SDS_3_0.40.xyz
1.0
61.921354 0 0
0 61.921354 0
0 0 61.921354
Br C Cs H N O Pb S 
84 307 35 714 19 72 27 24 
Cartesian
25.010677 25.010677 22.035677
25.010677 22.035677 25.010677
25.010677 25.010677 27.985677
22.035677 25.010677 30.960677
25.010677 25.010677 33.935677
25.010677 22.035677 36.910677
22.035677 25.010677 36.910677
25.010677 27.985677 25.010677
22.035677 30.960677 25.010677
25.010677 30.960677 27.985677
25.010677 27.985677 30.960677
25.010677 30.960677 33.935677
25.010677 27.985677 36.910677
25.010677 30.960677 39.885677
25.010677 33.935677 25.010677
22.035677 36.910677 25.010677
25.010677 36.910677 27.985677
25.010677 33.935677 30.960677
22.035677 36.910677 30.960677
25.010677 36.910677 33.935677
25.010677 33.935677 36.910677
25.010677 39.885677 25.010677
25.010677 39.885677 30.960677
30.960677 25.010677 22.035677
27.985677 25.010677 25.010677
30.960677 25.010677 27.985677
30.960677 22.035677 30.960677
27.985677 25.010677 30.960677
30.960677 25.010677 33.935677
27.985677 25.010677 36.910677
30.960677 25.010677 39.885677
30.960677 27.985677 25.010677
27.985677 30.960677 25.010677
30.960677 30.960677 27.985677
30.960677 27.985677 30.960677
27.985677 30.960677 30.960677
30.960677 30.960677 33.935677
30.960677 27.985677 36.910677
27.985677 30.960677 36.910677
30.960677 30.960677 39.885677
30.960677 36.910677 22.035677
30.960677 33.935677 25.010677
27.985677 36.910677 25.010677
30.960677 36.910677 27.985677
30.960677 33.935677 30.960677
27.985677 36.910677 30.960677
30.960677 36.910677 33.935677
30.960677 33.935677 36.910677
27.985677 36.910677 36.910677
30.960677 36.910677 39.885677
30.960677 39.885677 25.010677
30.960677 39.885677 30.960677
36.910677 25.010677 22.035677
36.910677 22.035677 25.010677
33.935677 25.010677 25.010677
36.910677 25.010677 27.985677
33.935677 25.010677 30.960677
36.910677 25.010677 33.935677
36.910677 22.035677 36.910677
33.935677 25.010677 36.910677
36.910677 27.985677 25.010677
33.935677 30.960677 25.010677
36.910677 30.960677 27.985677
36.910677 27.985677 30.960677
33.935677 30.960677 30.960677
36.910677 30.960677 33.935677
36.910677 27.985677 36.910677
33.935677 30.960677 36.910677
36.910677 36.910677 22.035677
36.910677 33.935677 25.010677
33.935677 36.910677 25.010677
36.910677 36.910677 27.985677
36.910677 33.935677 30.960677
33.935677 36.910677 30.960677
36.910677 36.910677 33.935677
36.910677 33.935677 36.910677
33.935677 36.910677 36.910677
36.910677 36.910677 39.885677
36.910677 39.885677 36.910677
39.885677 25.010677 25.010677
39.885677 25.010677 30.960677
39.885677 25.010677 36.910677
39.885677 30.960677 30.960677
39.885677 36.910677 25.010677
38.023088 25.750677 42.27402
36.687046 26.169491999999998 42.766763
36.690211 26.049926 44.316304
35.335480000000004 26.479371 44.885816
35.305883 26.401684 46.411606
33.966568 26.853462999999998 46.994440000000004
33.938772 26.813187 48.521183
32.613229000000004 27.291196 49.110575000000004
32.592104 27.284574 50.638156
31.274219000000002 27.786272 51.226103
31.247671 27.800941 52.754432
29.925293 28.314684 53.321368
26.123088 37.650677 42.27402
24.787046 38.069492 42.766763
24.790211 37.949926 44.316304
23.43548 38.379371 44.885816
23.405883 38.301683999999995 46.411606
22.066568 38.753462999999996 46.994440000000004
22.038772 38.713187000000005 48.521183
20.713229 39.191196000000005 49.110575000000004
20.692104 39.184574 50.638156
19.374219 39.686272 51.226103
19.347671 39.700941 52.754432
18.025292999999998 40.214684 53.321368
26.123088 25.750677 42.27402
24.787046 26.169491999999998 42.766763
24.790211 26.049926 44.316304
23.43548 26.479371 44.885816
23.405883 26.401684 46.411606
22.066568 26.853462999999998 46.994440000000004
22.038772 26.813187 48.521183
20.713229 27.291196 49.110575000000004
20.692104 27.284574 50.638156
19.374219 27.786272 51.226103
19.347671 27.800941 52.754432
18.025292999999998 28.314684 53.321368
38.023088 31.700677 42.27402
36.687046 32.119492 42.766763
36.690211 31.999926000000002 44.316304
35.335480000000004 32.429371 44.885816
35.305883 32.351684 46.411606
33.966568 32.803463 46.994440000000004
33.938772 32.763187 48.521183
32.613229000000004 33.241196 49.110575000000004
32.592104 33.234574 50.638156
31.274219000000002 33.736272 51.226103
31.247671 33.750941 52.754432
29.925293 34.264684 53.321368
29.848266 31.700677 19.647334
31.184308 32.119492 19.154591
31.181143 31.999926000000002 17.60505
32.535874 32.429371 17.035538
32.565471 32.351684 15.509748
33.904786 32.803463 14.926914
33.932582 32.763187 13.400171
35.258125 33.241196 12.810779
35.27925 33.234574 11.283198
36.597135 33.736272 10.695250999999999
36.623683 33.750941 9.166922
37.946061 34.264684 8.599986
35.798266 31.700677 19.647334
37.134308 32.119492 19.154591
37.131143 31.999926000000002 17.60505
38.485873999999995 32.429371 17.035538
38.515471 32.351684 15.509748
39.854786000000004 32.803463 14.926914
39.882582 32.763187 13.400171
41.208124999999995 33.241196 12.810779
41.22925 33.234574 11.283198
42.547135 33.736272 10.695250999999999
42.573683 33.750941 9.166922
43.896061 34.264684 8.599986
23.898266 37.650677 19.647334
25.234308 38.069492 19.154591
25.231143 37.949926 17.60505
26.585874 38.379371 17.035538
26.615471 38.301683999999995 15.509748
27.954786 38.753462999999996 14.926914
27.982582 38.713187000000005 13.400171
29.308125 39.191196000000005 12.810779
29.329250000000002 39.184574 11.283198
30.647135 39.686272 10.695250999999999
30.673683 39.700941 9.166922
31.996060999999997 40.214684 8.599986
23.898266 31.700677 19.647334
25.234308 32.119492 19.154591
25.231143 31.999926000000002 17.60505
26.585874 32.429371 17.035538
26.615471 32.351684 15.509748
27.954786 32.803463 14.926914
27.982582 32.763187 13.400171
29.308125 33.241196 12.810779
29.329250000000002 33.234574 11.283198
30.647135 33.736272 10.695250999999999
30.673683 33.750941 9.166922
31.996060999999997 34.264684 8.599986
19.647334 31.700677 38.023088
19.154591 32.119492 36.687046
17.60505 31.999926000000002 36.690211
17.035538 32.429371 35.335480000000004
15.509748 32.351684 35.305883
14.926914 32.803463 33.966568
13.400171 32.763187 33.938772
12.810779 33.241196 32.613229000000004
11.283198 33.234574 32.592104
10.695250999999999 33.736272 31.274219000000002
9.166922 33.750941 31.247671
8.599986 34.264684 29.925293
19.647334 25.750677 26.123088
19.154591 26.169491999999998 24.787046
17.60505 26.049926 24.790211
17.035538 26.479371 23.43548
15.509748 26.401684 23.405883
14.926914 26.853462999999998 22.066568
13.400171 26.813187 22.038772
12.810779 27.291196 20.713229
11.283198 27.284574 20.692104
10.695250999999999 27.786272 19.374219
9.166922 27.800941 19.347671
8.599986 28.314684 18.025292999999998
19.647334 31.700677 32.073088
19.154591 32.119492 30.737046
17.60505 31.999926000000002 30.740211000000002
17.035538 32.429371 29.38548
15.509748 32.351684 29.355883
14.926914 32.803463 28.016568
13.400171 32.763187 27.988772
12.810779 33.241196 26.663229
11.283198 33.234574 26.642104
10.695250999999999 33.736272 25.324219
9.166922 33.750941 25.297671
8.599986 34.264684 23.975293
19.647334 37.650677 38.023088
19.154591 38.069492 36.687046
17.60505 37.949926 36.690211
17.035538 38.379371 35.335480000000004
15.509748 38.301683999999995 35.305883
14.926914 38.753462999999996 33.966568
13.400171 38.713187000000005 33.938772
12.810779 39.191196000000005 32.613229000000004
11.283198 39.184574 32.592104
10.695250999999999 39.686272 31.274219000000002
9.166922 39.700941 31.247671
8.599986 40.214684 29.925293
42.27402 31.700677 23.898266
42.766763 32.119492 25.234308
44.316304 31.999926000000002 25.231143
44.885816 32.429371 26.585874
46.411606 32.351684 26.615471
46.994440000000004 32.803463 27.954786
48.521183 32.763187 27.982582
49.110575000000004 33.241196 29.308125
50.638156 33.234574 29.329250000000002
51.226103 33.736272 30.647135
52.754432 33.750941 30.673683
53.321368 34.264684 31.996060999999997
42.27402 31.700677 35.798266
42.766763 32.119492 37.134308
44.316304 31.999926000000002 37.131143
44.885816 32.429371 38.485873999999995
46.411606 32.351684 38.515471
46.994440000000004 32.803463 39.854786000000004
48.521183 32.763187 39.882582
49.110575000000004 33.241196 41.208124999999995
50.638156 33.234574 41.22925
51.226103 33.736272 42.547135
52.754432 33.750941 42.573683
53.321368 34.264684 43.896061
42.27402 37.650677 35.798266
42.766763 38.069492 37.134308
44.316304 37.949926 37.131143
44.885816 38.379371 38.485873999999995
46.411606 38.301683999999995 38.515471
46.994440000000004 38.753462999999996 39.854786000000004
48.521183 38.713187000000005 39.882582
49.110575000000004 39.191196000000005 41.208124999999995
50.638156 39.184574 41.22925
51.226103 39.686272 42.547135
52.754432 39.700941 42.573683
53.321368 40.214684 43.896061
42.27402 37.650677 29.848266
42.766763 38.069492 31.184308
44.316304 37.949926 31.181143
44.885816 38.379371 32.535874
46.411606 38.301683999999995 32.565471
46.994440000000004 38.753462999999996 33.904786
48.521183 38.713187000000005 33.932582
49.110575000000004 39.191196000000005 35.258125
50.638156 39.184574 35.27925
51.226103 39.686272 36.597135
52.754432 39.700941 36.623683
53.321368 40.214684 37.946061
38.023088 19.647334 31.700677
36.687046 19.154591 32.119492
36.690211 17.60505 31.999926000000002
35.335480000000004 17.035538 32.429371
35.305883 15.509748 32.351684
33.966568 14.926914 32.803463
33.938772 13.400171 32.763187
32.613229000000004 12.810779 33.241196
32.592104 11.283198 33.234574
31.274219000000002 10.695250999999999 33.736272
31.247671 9.166922 33.750941
29.925293 8.599986 34.264684
32.073088 19.647334 37.650677
30.737046 19.154591 38.069492
30.740211000000002 17.60505 37.949926
29.38548 17.035538 38.379371
29.355883 15.509748 38.301683999999995
28.016568 14.926914 38.753462999999996
27.988772 13.400171 38.713187000000005
26.663229 12.810779 39.191196000000005
26.642104 11.283198 39.184574
25.324219 10.695250999999999 39.686272
25.297671 9.166922 39.700941
23.975293 8.599986 40.214684
32.073088 19.647334 25.750677
30.737046 19.154591 26.169491999999998
30.740211000000002 17.60505 26.049926
29.38548 17.035538 26.479371
29.355883 15.509748 26.401684
28.016568 14.926914 26.853462999999998
27.988772 13.400171 26.813187
26.663229 12.810779 27.291196
26.642104 11.283198 27.284574
25.324219 10.695250999999999 27.786272
25.297671 9.166922 27.800941
23.975293 8.599986 28.314684
26.123088 19.647334 31.700677
24.787046 19.154591 32.119492
24.790211 17.60505 31.999926000000002
23.43548 17.035538 32.429371
23.405883 15.509748 32.351684
22.066568 14.926914 32.803463
22.038772 13.400171 32.763187
20.713229 12.810779 33.241196
20.692104 11.283198 33.234574
19.374219 10.695250999999999 33.736272
19.347671 9.166922 33.750941
18.025292999999998 8.599986 34.264684
26.123088 42.27402 36.170677
24.787046 42.766763 35.751862
24.790211 44.316304 35.871428
23.43548 44.885816 35.441983
23.405883 46.411606 35.51967
22.066568 46.994440000000004 35.067891
22.038772 48.521183 35.108167
20.713229 49.110575000000004 34.630158
20.692104 50.638156 34.63678
19.374219 51.226103 34.135082
19.347671 52.754432 34.120413
18.025292999999998 53.321368 33.60667
38.023088 42.27402 24.270677
36.687046 42.766763 23.851862
36.690211 44.316304 23.971428
35.335480000000004 44.885816 23.541983000000002
35.305883 46.411606 23.61967
33.966568 46.994440000000004 23.167890999999997
33.938772 48.521183 23.208167
32.613229000000004 49.110575000000004 22.730158
32.592104 50.638156 22.73678
31.274219000000002 51.226103 22.235082
31.247671 52.754432 22.220413
29.925293 53.321368 21.70667
32.073088 42.27402 36.170677
30.737046 42.766763 35.751862
30.740211000000002 44.316304 35.871428
29.38548 44.885816 35.441983
29.355883 46.411606 35.51967
28.016568 46.994440000000004 35.067891
27.988772 48.521183 35.108167
26.663229 49.110575000000004 34.630158
26.642104 50.638156 34.63678
25.324219 51.226103 34.135082
25.297671 52.754432 34.120413
23.975293 53.321368 33.60667
38.023088 42.27402 30.220677000000002
36.687046 42.766763 29.801862
36.690211 44.316304 29.921428
35.335480000000004 44.885816 29.491982999999998
35.305883 46.411606 29.56967
33.966568 46.994440000000004 29.117891
33.938772 48.521183 29.158167
32.613229000000004 49.110575000000004 28.680158
32.592104 50.638156 28.68678
31.274219000000002 51.226103 28.185082
31.247671 52.754432 28.170413
29.925293 53.321368 27.65667
20.560016 27.985677 27.985677
20.992227 33.935677 20.992227
20.560016 33.935677 33.935677
20.992227 33.935677 40.929127
27.985677 20.560016 33.935677
27.985677 27.985677 41.361338
27.985677 33.935677 20.560016
27.985677 41.361338 33.935677
27.985677 40.929127 40.929127
33.935677 20.992227 40.929127
33.935677 33.935677 20.560016
33.935677 41.361338 33.935677
40.929127 20.992227 33.935677
40.929127 27.985677 40.929127
40.929127 33.935677 20.992227
41.361338 33.935677 33.935677
40.929127 33.935677 40.929127
40.929127 40.929127 27.985677
40.929127 40.929127 33.935677
22.035677 22.035677 27.985677
22.035677 22.035677 33.935677
22.035677 27.985677 22.035677
22.035677 27.985677 33.935677
22.035677 27.985677 39.885677
22.035677 33.935677 27.985677
22.035677 39.885677 27.985677
22.035677 39.885677 33.935677
27.985677 22.035677 22.035677
27.985677 22.035677 27.985677
27.985677 27.985677 22.035677
27.985677 27.985677 27.985677
27.985677 27.985677 33.935677
27.985677 33.935677 27.985677
27.985677 33.935677 33.935677
27.985677 33.935677 39.885677
27.985677 39.885677 22.035677
27.985677 39.885677 27.985677
33.935677 22.035677 22.035677
33.935677 22.035677 33.935677
33.935677 27.985677 22.035677
33.935677 27.985677 27.985677
33.935677 27.985677 33.935677
33.935677 27.985677 39.885677
33.935677 33.935677 27.985677
33.935677 33.935677 33.935677
33.935677 33.935677 39.885677
33.935677 39.885677 22.035677
33.935677 39.885677 27.985677
33.935677 39.885677 39.885677
39.885677 22.035677 27.985677
39.885677 27.985677 22.035677
39.885677 27.985677 27.985677
39.885677 27.985677 33.935677
39.885677 33.935677 27.985677
38.273770999999996 24.686599 42.343854
38.867907 26.414448999999998 42.488031
35.896012999999996 25.526835 42.353629
36.47327 27.210877 42.484691
37.490457 26.680559 44.73818
36.910677 25.010677 44.611813
34.540158 25.842107 44.461988
35.114005 27.511141 44.562222
35.519783000000004 25.367251 46.735351
36.1153 27.027962 46.828312000000004
33.156549999999996 26.218955 46.592012000000004
33.74736 27.880589 46.650842000000004
34.146829 25.78419 48.866024
34.760787 27.437178 48.916616999999995
31.792009 26.658439 48.727852
32.401719 28.313223999999998 48.746959
32.793417 26.260901 51.002981
33.42294 27.90834 51.015509
30.444891 27.15841 50.851723
31.073661 28.805799 50.848436
31.445843 26.781761 53.129804
32.080363 28.425234 53.123032
29.081561 27.689574999999998 52.988982
29.723347 29.343356 52.983452
29.923088 28.319261 54.421354
26.373770999999998 36.586599 42.343854
26.967907 38.314448999999996 42.488031
23.996012999999998 37.426835 42.353629
24.57327 39.110877 42.484691
25.590457 38.580559 44.73818
25.010677 36.910677 44.611813
22.640158 37.742107 44.461988
23.214005 39.411141 44.562222
23.619782999999998 37.267251 46.735351
24.2153 38.927962 46.828312000000004
21.25655 38.118955 46.592012000000004
21.847360000000002 39.780589 46.650842000000004
22.246828999999998 37.68419 48.866024
22.860787000000002 39.337177999999994 48.916616999999995
19.892009 38.558439 48.727852
20.501719 40.213224 48.746959
20.893417 38.160900999999996 51.002981
21.52294 39.80834 51.015509
18.544891 39.058409999999995 50.851723
19.173661 40.705799 50.848436
19.545842999999998 38.681760999999995 53.129804
20.180363 40.325233999999995 53.123032
17.181561 39.589574999999996 52.988982
17.823347 41.243356 52.983452
18.023088 40.219261 54.421354
26.373770999999998 24.686599 42.343854
26.967907 26.414448999999998 42.488031
23.996012999999998 25.526835 42.353629
24.57327 27.210877 42.484691
25.590457 26.680559 44.73818
25.010677 25.010677 44.611813
22.640158 25.842107 44.461988
23.214005 27.511141 44.562222
23.619782999999998 25.367251 46.735351
24.2153 27.027962 46.828312000000004
21.25655 26.218955 46.592012000000004
21.847360000000002 27.880589 46.650842000000004
22.246828999999998 25.78419 48.866024
22.860787000000002 27.437178 48.916616999999995
19.892009 26.658439 48.727852
20.501719 28.313223999999998 48.746959
20.893417 26.260901 51.002981
21.52294 27.90834 51.015509
18.544891 27.15841 50.851723
19.173661 28.805799 50.848436
19.545842999999998 26.781761 53.129804
20.180363 28.425234 53.123032
17.181561 27.689574999999998 52.988982
17.823347 29.343356 52.983452
18.023088 28.319261 54.421354
38.273770999999996 30.636599 42.343854
38.867907 32.364449 42.488031
35.896012999999996 31.476835 42.353629
36.47327 33.160877 42.484691
37.490457 32.630559 44.73818
36.910677 30.960677 44.611813
34.540158 31.792107 44.461988
35.114005 33.461141 44.562222
35.519783000000004 31.317251 46.735351
36.1153 32.977962 46.828312000000004
33.156549999999996 32.168955 46.592012000000004
33.74736 33.830589 46.650842000000004
34.146829 31.734189999999998 48.866024
34.760787 33.387178 48.916616999999995
31.792009 32.608439000000004 48.727852
32.401719 34.263224 48.746959
32.793417 32.210901 51.002981
33.42294 33.85834 51.015509
30.444891 33.10841 50.851723
31.073661 34.755798999999996 50.848436
31.445843 32.731761 53.129804
32.080363 34.375234 53.123032
29.081561 33.639575 52.988982
29.723347 35.293356 52.983452
29.923088 34.269261 54.421354
29.597583 30.636599 19.5775
29.003447 32.364449 19.433323
31.975341 31.476835 19.567725
31.398083999999997 33.160877 19.436663
30.380896999999997 32.630559 17.183174
30.960677 30.960677 17.309541
33.331196 31.792107 17.459366
32.757349 33.461141 17.359132
32.351571 31.317251 15.186003
31.756054 32.977962 15.093042
34.714804 32.168955 15.329342
34.123993999999996 33.830589 15.270512
33.724525 31.734189999999998 13.05533
33.110567 33.387178 13.004737
36.079345 32.608439000000004 13.193502
35.469635 34.263224 13.174395
35.077937 32.210901 10.918372999999999
34.448414 33.85834 10.905845
37.426463 33.10841 11.069631
36.797692999999995 34.755798999999996 11.072918
36.425511 32.731761 8.791549999999999
35.790991 34.375234 8.798321999999999
38.789793 33.639575 8.932371999999999
38.148007 35.293356 8.937902
37.948266000000004 34.269261 7.5
35.547583 30.636599 19.5775
34.953447 32.364449 19.433323
37.925341 31.476835 19.567725
37.348084 33.160877 19.436663
36.330897 32.630559 17.183174
36.910677 30.960677 17.309541
39.281196 31.792107 17.459366
38.707349 33.461141 17.359132
38.301570999999996 31.317251 15.186003
37.706054 32.977962 15.093042
40.664804000000004 32.168955 15.329342
40.073994 33.830589 15.270512
39.674525 31.734189999999998 13.05533
39.060567 33.387178 13.004737
42.029345 32.608439000000004 13.193502
41.419635 34.263224 13.174395
41.027937 32.210901 10.918372999999999
40.398414 33.85834 10.905845
43.376463 33.10841 11.069631
42.747693 34.755798999999996 11.072918
42.375511 32.731761 8.791549999999999
41.740991 34.375234 8.798321999999999
44.739793 33.639575 8.932371999999999
44.098006999999996 35.293356 8.937902
43.898266 34.269261 7.5
23.647582999999997 36.586599 19.5775
23.053447 38.314448999999996 19.433323
26.025340999999997 37.426835 19.567725
25.448084 39.110877 19.436663
24.430897 38.580559 17.183174
25.010677 36.910677 17.309541
27.381196 37.742107 17.459366
26.807349 39.411141 17.359132
26.401571 37.267251 15.186003
25.806054 38.927962 15.093042
28.764803999999998 38.118955 15.329342
28.173994 39.780589 15.270512
27.774525 37.68419 13.05533
27.160567 39.337177999999994 13.004737
30.129345 38.558439 13.193502
29.519635 40.213224 13.174395
29.127937 38.160900999999996 10.918372999999999
28.498414 39.80834 10.905845
31.476463 39.058409999999995 11.069631
30.847693 40.705799 11.072918
30.475510999999997 38.681760999999995 8.791549999999999
29.840991 40.325233999999995 8.798321999999999
32.839793 39.589574999999996 8.932371999999999
32.198007000000004 41.243356 8.937902
31.998266 40.219261 7.5
23.647582999999997 30.636599 19.5775
23.053447 32.364449 19.433323
26.025340999999997 31.476835 19.567725
25.448084 33.160877 19.436663
24.430897 32.630559 17.183174
25.010677 30.960677 17.309541
27.381196 31.792107 17.459366
26.807349 33.461141 17.359132
26.401571 31.317251 15.186003
25.806054 32.977962 15.093042
28.764803999999998 32.168955 15.329342
28.173994 33.830589 15.270512
27.774525 31.734189999999998 13.05533
27.160567 33.387178 13.004737
30.129345 32.608439000000004 13.193502
29.519635 34.263224 13.174395
29.127937 32.210901 10.918372999999999
28.498414 33.85834 10.905845
31.476463 33.10841 11.069631
30.847693 34.755798999999996 11.072918
30.475510999999997 32.731761 8.791549999999999
29.840991 34.375234 8.798321999999999
32.839793 33.639575 8.932371999999999
32.198007000000004 35.293356 8.937902
31.998266 34.269261 7.5
19.5775 30.636599 38.273770999999996
19.433323 32.364449 38.867907
19.567725 31.476835 35.896012999999996
19.436663 33.160877 36.47327
17.183174 32.630559 37.490457
17.309541 30.960677 36.910677
17.459366 31.792107 34.540158
17.359132 33.461141 35.114005
15.186003 31.317251 35.519783000000004
15.093042 32.977962 36.1153
15.329342 32.168955 33.156549999999996
15.270512 33.830589 33.74736
13.05533 31.734189999999998 34.146829
13.004737 33.387178 34.760787
13.193502 32.608439000000004 31.792009
13.174395 34.263224 32.401719
10.918372999999999 32.210901 32.793417
10.905845 33.85834 33.42294
11.069631 33.10841 30.444891
11.072918 34.755798999999996 31.073661
8.791549999999999 32.731761 31.445843
8.798321999999999 34.375234 32.080363
8.932371999999999 33.639575 29.081561
8.937902 35.293356 29.723347
7.5 34.269261 29.923088
19.5775 24.686599 26.373770999999998
19.433323 26.414448999999998 26.967907
19.567725 25.526835 23.996012999999998
19.436663 27.210877 24.57327
17.183174 26.680559 25.590457
17.309541 25.010677 25.010677
17.459366 25.842107 22.640158
17.359132 27.511141 23.214005
15.186003 25.367251 23.619782999999998
15.093042 27.027962 24.2153
15.329342 26.218955 21.25655
15.270512 27.880589 21.847360000000002
13.05533 25.78419 22.246828999999998
13.004737 27.437178 22.860787000000002
13.193502 26.658439 19.892009
13.174395 28.313223999999998 20.501719
10.918372999999999 26.260901 20.893417
10.905845 27.90834 21.52294
11.069631 27.15841 18.544891
11.072918 28.805799 19.173661
8.791549999999999 26.781761 19.545842999999998
8.798321999999999 28.425234 20.180363
8.932371999999999 27.689574999999998 17.181561
8.937902 29.343356 17.823347
7.5 28.319261 18.023088
19.5775 30.636599 32.323771
19.433323 32.364449 32.917907
19.567725 31.476835 29.946013
19.436663 33.160877 30.52327
17.183174 32.630559 31.540457
17.309541 30.960677 30.960677
17.459366 31.792107 28.590158
17.359132 33.461141 29.164005
15.186003 31.317251 29.569783
15.093042 32.977962 30.165300000000002
15.329342 32.168955 27.20655
15.270512 33.830589 27.797359999999998
13.05533 31.734189999999998 28.196829
13.004737 33.387178 28.810786999999998
13.193502 32.608439000000004 25.842008999999997
13.174395 34.263224 26.451719
10.918372999999999 32.210901 26.843417
10.905845 33.85834 27.47294
11.069631 33.10841 24.494891
11.072918 34.755798999999996 25.123661
8.791549999999999 32.731761 25.495843
8.798321999999999 34.375234 26.130363
8.932371999999999 33.639575 23.131560999999998
8.937902 35.293356 23.773347
7.5 34.269261 23.973088
19.5775 36.586599 38.273770999999996
19.433323 38.314448999999996 38.867907
19.567725 37.426835 35.896012999999996
19.436663 39.110877 36.47327
17.183174 38.580559 37.490457
17.309541 36.910677 36.910677
17.459366 37.742107 34.540158
17.359132 39.411141 35.114005
15.186003 37.267251 35.519783000000004
15.093042 38.927962 36.1153
15.329342 38.118955 33.156549999999996
15.270512 39.780589 33.74736
13.05533 37.68419 34.146829
13.004737 39.337177999999994 34.760787
13.193502 38.558439 31.792009
13.174395 40.213224 32.401719
10.918372999999999 38.160900999999996 32.793417
10.905845 39.80834 33.42294
11.069631 39.058409999999995 30.444891
11.072918 40.705799 31.073661
8.791549999999999 38.681760999999995 31.445843
8.798321999999999 40.325233999999995 32.080363
8.932371999999999 39.589574999999996 29.081561
8.937902 41.243356 29.723347
7.5 40.219261 29.923088
42.343854 30.636599 23.647582999999997
42.488031 32.364449 23.053447
42.353629 31.476835 26.025340999999997
42.484691 33.160877 25.448084
44.73818 32.630559 24.430897
44.611813 30.960677 25.010677
44.461988 31.792107 27.381196
44.562222 33.461141 26.807349
46.735351 31.317251 26.401571
46.828312000000004 32.977962 25.806054
46.592012000000004 32.168955 28.764803999999998
46.650842000000004 33.830589 28.173994
48.866024 31.734189999999998 27.774525
48.916616999999995 33.387178 27.160567
48.727852 32.608439000000004 30.129345
48.746959 34.263224 29.519635
51.002981 32.210901 29.127937
51.015509 33.85834 28.498414
50.851723 33.10841 31.476463
50.848436 34.755798999999996 30.847693
53.129804 32.731761 30.475510999999997
53.123032 34.375234 29.840991
52.988982 33.639575 32.839793
52.983452 35.293356 32.198007000000004
54.421354 34.269261 31.998266
42.343854 30.636599 35.547583
42.488031 32.364449 34.953447
42.353629 31.476835 37.925341
42.484691 33.160877 37.348084
44.73818 32.630559 36.330897
44.611813 30.960677 36.910677
44.461988 31.792107 39.281196
44.562222 33.461141 38.707349
46.735351 31.317251 38.301570999999996
46.828312000000004 32.977962 37.706054
46.592012000000004 32.168955 40.664804000000004
46.650842000000004 33.830589 40.073994
48.866024 31.734189999999998 39.674525
48.916616999999995 33.387178 39.060567
48.727852 32.608439000000004 42.029345
48.746959 34.263224 41.419635
51.002981 32.210901 41.027937
51.015509 33.85834 40.398414
50.851723 33.10841 43.376463
50.848436 34.755798999999996 42.747693
53.129804 32.731761 42.375511
53.123032 34.375234 41.740991
52.988982 33.639575 44.739793
52.983452 35.293356 44.098006999999996
54.421354 34.269261 43.898266
42.343854 36.586599 35.547583
42.488031 38.314448999999996 34.953447
42.353629 37.426835 37.925341
42.484691 39.110877 37.348084
44.73818 38.580559 36.330897
44.611813 36.910677 36.910677
44.461988 37.742107 39.281196
44.562222 39.411141 38.707349
46.735351 37.267251 38.301570999999996
46.828312000000004 38.927962 37.706054
46.592012000000004 38.118955 40.664804000000004
46.650842000000004 39.780589 40.073994
48.866024 37.68419 39.674525
48.916616999999995 39.337177999999994 39.060567
48.727852 38.558439 42.029345
48.746959 40.213224 41.419635
51.002981 38.160900999999996 41.027937
51.015509 39.80834 40.398414
50.851723 39.058409999999995 43.376463
50.848436 40.705799 42.747693
53.129804 38.681760999999995 42.375511
53.123032 40.325233999999995 41.740991
52.988982 39.589574999999996 44.739793
52.983452 41.243356 44.098006999999996
54.421354 40.219261 43.898266
42.343854 36.586599 29.597583
42.488031 38.314448999999996 29.003447
42.353629 37.426835 31.975341
42.484691 39.110877 31.398083999999997
44.73818 38.580559 30.380896999999997
44.611813 36.910677 30.960677
44.461988 37.742107 33.331196
44.562222 39.411141 32.757349
46.735351 37.267251 32.351571
46.828312000000004 38.927962 31.756054
46.592012000000004 38.118955 34.714804
46.650842000000004 39.780589 34.123993999999996
48.866024 37.68419 33.724525
48.916616999999995 39.337177999999994 33.110567
48.727852 38.558439 36.079345
48.746959 40.213224 35.469635
51.002981 38.160900999999996 35.077937
51.015509 39.80834 34.448414
50.851723 39.058409999999995 37.426463
50.848436 40.705799 36.797692999999995
53.129804 38.681760999999995 36.425511
53.123032 40.325233999999995 35.790991
52.988982 39.589574999999996 38.789793
52.983452 41.243356 38.148007
54.421354 40.219261 37.948266000000004
38.273770999999996 19.5775 30.636599
38.867907 19.433323 32.364449
35.896012999999996 19.567725 31.476835
36.47327 19.436663 33.160877
37.490457 17.183174 32.630559
36.910677 17.309541 30.960677
34.540158 17.459366 31.792107
35.114005 17.359132 33.461141
35.519783000000004 15.186003 31.317251
36.1153 15.093042 32.977962
33.156549999999996 15.329342 32.168955
33.74736 15.270512 33.830589
34.146829 13.05533 31.734189999999998
34.760787 13.004737 33.387178
31.792009 13.193502 32.608439000000004
32.401719 13.174395 34.263224
32.793417 10.918372999999999 32.210901
33.42294 10.905845 33.85834
30.444891 11.069631 33.10841
31.073661 11.072918 34.755798999999996
31.445843 8.791549999999999 32.731761
32.080363 8.798321999999999 34.375234
29.081561 8.932371999999999 33.639575
29.723347 8.937902 35.293356
29.923088 7.5 34.269261
32.323771 19.5775 36.586599
32.917907 19.433323 38.314448999999996
29.946013 19.567725 37.426835
30.52327 19.436663 39.110877
31.540457 17.183174 38.580559
30.960677 17.309541 36.910677
28.590158 17.459366 37.742107
29.164005 17.359132 39.411141
29.569783 15.186003 37.267251
30.165300000000002 15.093042 38.927962
27.20655 15.329342 38.118955
27.797359999999998 15.270512 39.780589
28.196829 13.05533 37.68419
28.810786999999998 13.004737 39.337177999999994
25.842008999999997 13.193502 38.558439
26.451719 13.174395 40.213224
26.843417 10.918372999999999 38.160900999999996