3_train/277_cspbbr3_MA-Cys_4_0.20\277_cspbbr3_MA-Cys_4_0.20.xyz
1.0
47.396326 0 0
0 47.396326 0
0 0 47.396326
Br C Cs H N O Pb S 
216 89 95 270 41 48 64 24 
Cartesian
14.773163 14.773163 11.798163
14.773163 11.798163 14.773163
11.798163 14.773163 14.773163
14.773163 14.773163 17.748162999999998
14.773163 11.798163 20.723163
11.798163 14.773163 20.723163
14.773163 14.773163 23.698163
14.773163 11.798163 26.673163000000002
11.798163 14.773163 26.673163000000002
14.773163 14.773163 29.648163000000004
14.773163 20.723163 11.798163
14.773163 17.748162999999998 14.773163
11.798163 20.723163 14.773163
14.773163 20.723163 17.748162999999998
14.773163 17.748162999999998 20.723163
11.798163 20.723163 20.723163
14.773163 20.723163 23.698163
14.773163 17.748162999999998 26.673163000000002
14.773163 20.723163 29.648163000000004
14.773163 17.748162999999998 32.623163
14.773163 26.673163000000002 11.798163
14.773163 23.698163 14.773163
11.798163 26.673163000000002 14.773163
14.773163 26.673163000000002 17.748162999999998
14.773163 23.698163 20.723163
11.798163 26.673163000000002 20.723163
14.773163 26.673163000000002 23.698163
14.773163 23.698163 26.673163000000002
11.798163 26.673163000000002 26.673163000000002
14.773163 26.673163000000002 29.648163000000004
14.773163 23.698163 32.623163
11.798163 26.673163000000002 32.623163
14.773163 26.673163000000002 35.598163
14.773163 32.623163 11.798163
14.773163 29.648163000000004 14.773163
11.798163 32.623163 14.773163
14.773163 32.623163 17.748162999999998
14.773163 29.648163000000004 20.723163
14.773163 32.623163 23.698163
14.773163 29.648163000000004 26.673163000000002
11.798163 32.623163 26.673163000000002
14.773163 32.623163 29.648163000000004
14.773163 29.648163000000004 32.623163
11.798163 32.623163 32.623163
14.773163 32.623163 35.598163
14.773163 35.598163 20.723163
14.773163 35.598163 26.673163000000002
14.773163 35.598163 32.623163
20.723163 14.773163 11.798163
20.723163 11.798163 14.773163
17.748162999999998 14.773163 14.773163
20.723163 14.773163 17.748162999999998
17.748162999999998 14.773163 20.723163
20.723163 14.773163 23.698163
17.748162999999998 14.773163 26.673163000000002
20.723163 14.773163 29.648163000000004
20.723163 11.798163 32.623163
17.748162999999998 14.773163 32.623163
20.723163 14.773163 35.598163
20.723163 20.723163 11.798163
20.723163 17.748162999999998 14.773163
17.748162999999998 20.723163 14.773163
20.723163 20.723163 17.748162999999998
20.723163 17.748162999999998 20.723163
17.748162999999998 20.723163 20.723163
20.723163 20.723163 23.698163
20.723163 17.748162999999998 26.673163000000002
17.748162999999998 20.723163 26.673163000000002
20.723163 20.723163 29.648163000000004
20.723163 17.748162999999998 32.623163
17.748162999999998 20.723163 32.623163
20.723163 20.723163 35.598163
20.723163 26.673163000000002 11.798163
20.723163 23.698163 14.773163
17.748162999999998 26.673163000000002 14.773163
20.723163 26.673163000000002 17.748162999999998
20.723163 23.698163 20.723163
17.748162999999998 26.673163000000002 20.723163
20.723163 26.673163000000002 23.698163
20.723163 23.698163 26.673163000000002
17.748162999999998 26.673163000000002 26.673163000000002
20.723163 26.673163000000002 29.648163000000004
20.723163 23.698163 32.623163
17.748162999999998 26.673163000000002 32.623163
20.723163 32.623163 11.798163
20.723163 29.648163000000004 14.773163
17.748162999999998 32.623163 14.773163
20.723163 32.623163 17.748162999999998
20.723163 29.648163000000004 20.723163
17.748162999999998 32.623163 20.723163
20.723163 32.623163 23.698163
20.723163 29.648163000000004 26.673163000000002
17.748162999999998 32.623163 26.673163000000002
20.723163 32.623163 29.648163000000004
20.723163 29.648163000000004 32.623163
17.748162999999998 32.623163 32.623163
20.723163 32.623163 35.598163
20.723163 35.598163 20.723163
20.723163 35.598163 26.673163000000002
20.723163 35.598163 32.623163
26.673163000000002 14.773163 11.798163
26.673163000000002 11.798163 14.773163
23.698163 14.773163 14.773163
26.673163000000002 14.773163 17.748162999999998
26.673163000000002 11.798163 20.723163
23.698163 14.773163 20.723163
26.673163000000002 14.773163 23.698163
26.673163000000002 11.798163 26.673163000000002
23.698163 14.773163 26.673163000000002
26.673163000000002 14.773163 29.648163000000004
23.698163 14.773163 32.623163
26.673163000000002 14.773163 35.598163
26.673163000000002 20.723163 11.798163
26.673163000000002 17.748162999999998 14.773163
23.698163 20.723163 14.773163
26.673163000000002 20.723163 17.748162999999998
26.673163000000002 17.748162999999998 20.723163
23.698163 20.723163 20.723163
26.673163000000002 20.723163 23.698163
26.673163000000002 17.748162999999998 26.673163000000002
23.698163 20.723163 26.673163000000002
26.673163000000002 20.723163 29.648163000000004
26.673163000000002 17.748162999999998 32.623163
23.698163 20.723163 32.623163
26.673163000000002 20.723163 35.598163
26.673163000000002 26.673163000000002 11.798163
26.673163000000002 23.698163 14.773163
23.698163 26.673163000000002 14.773163
26.673163000000002 26.673163000000002 17.748162999999998
26.673163000000002 23.698163 20.723163
23.698163 26.673163000000002 20.723163
26.673163000000002 26.673163000000002 23.698163
26.673163000000002 23.698163 26.673163000000002
23.698163 26.673163000000002 26.673163000000002
26.673163000000002 26.673163000000002 29.648163000000004
26.673163000000002 23.698163 32.623163
23.698163 26.673163000000002 32.623163
26.673163000000002 29.648163000000004 14.773163
23.698163 32.623163 14.773163
26.673163000000002 32.623163 17.748162999999998
26.673163000000002 29.648163000000004 20.723163
23.698163 32.623163 20.723163
26.673163000000002 32.623163 23.698163
26.673163000000002 29.648163000000004 26.673163000000002
23.698163 32.623163 26.673163000000002
26.673163000000002 32.623163 29.648163000000004
26.673163000000002 29.648163000000004 32.623163
23.698163 32.623163 32.623163
26.673163000000002 32.623163 35.598163
26.673163000000002 35.598163 14.773163
26.673163000000002 35.598163 20.723163
26.673163000000002 35.598163 26.673163000000002
26.673163000000002 35.598163 32.623163
32.623163 11.798163 14.773163
29.648163000000004 14.773163 14.773163
32.623163 14.773163 17.748162999999998
32.623163 11.798163 20.723163
29.648163000000004 14.773163 20.723163
32.623163 14.773163 23.698163
32.623163 11.798163 26.673163000000002
29.648163000000004 14.773163 26.673163000000002
32.623163 14.773163 29.648163000000004
32.623163 11.798163 32.623163
29.648163000000004 14.773163 32.623163
32.623163 14.773163 35.598163
32.623163 17.748162999999998 14.773163
29.648163000000004 20.723163 14.773163
32.623163 20.723163 17.748162999999998
32.623163 17.748162999999998 20.723163
29.648163000000004 20.723163 20.723163
32.623163 20.723163 23.698163
32.623163 17.748162999999998 26.673163000000002
29.648163000000004 20.723163 26.673163000000002
32.623163 20.723163 29.648163000000004
32.623163 17.748162999999998 32.623163
29.648163000000004 20.723163 32.623163
32.623163 20.723163 35.598163
32.623163 23.698163 14.773163
29.648163000000004 26.673163000000002 14.773163
32.623163 26.673163000000002 17.748162999999998
32.623163 23.698163 20.723163
29.648163000000004 26.673163000000002 20.723163
32.623163 26.673163000000002 23.698163
32.623163 23.698163 26.673163000000002
29.648163000000004 26.673163000000002 26.673163000000002
32.623163 26.673163000000002 29.648163000000004
32.623163 23.698163 32.623163
29.648163000000004 26.673163000000002 32.623163
32.623163 26.673163000000002 35.598163
32.623163 32.623163 11.798163
32.623163 29.648163000000004 14.773163
29.648163000000004 32.623163 14.773163
32.623163 32.623163 17.748162999999998
32.623163 29.648163000000004 20.723163
29.648163000000004 32.623163 20.723163
32.623163 32.623163 23.698163
32.623163 29.648163000000004 26.673163000000002
29.648163000000004 32.623163 26.673163000000002
32.623163 32.623163 29.648163000000004
32.623163 29.648163000000004 32.623163
29.648163000000004 32.623163 32.623163
32.623163 32.623163 35.598163
32.623163 35.598163 26.673163000000002
32.623163 35.598163 32.623163
35.598163 14.773163 14.773163
35.598163 14.773163 20.723163
35.598163 14.773163 26.673163000000002
35.598163 20.723163 14.773163
35.598163 20.723163 26.673163000000002
35.598163 26.673163000000002 14.773163
35.598163 26.673163000000002 20.723163
35.598163 26.673163000000002 26.673163000000002
35.598163 26.673163000000002 32.623163
35.598163 32.623163 14.773163
35.598163 32.623163 20.723163
35.598163 32.623163 32.623163
14.773163 14.773163 38.045739
14.451271 14.247910000000001 36.649784000000004
15.890883 15.822812 37.977453000000004
14.773163 20.723163 38.045739
14.451271 20.19791 36.649784000000004
15.890883 21.772812000000002 37.977453000000004
20.723163 26.673163000000002 38.045739
20.401271 26.147910000000003 36.649784000000004
21.840882999999998 27.722812000000005 37.977453000000004
26.673163000000002 26.673163000000002 38.045739
26.351271000000004 26.147910000000003 36.649784000000004
27.790883 27.722812000000005 37.977453000000004
32.623163 14.773163 9.350587
32.945055 14.247910000000001 10.746542000000002
31.505443 15.822812 9.418873000000001
26.673163000000002 32.623163 9.350587
26.995055 32.09791 10.746542000000002
25.555443000000004 33.672812 9.418873000000001
32.623163 26.673163000000002 9.350587
32.945055 26.147910000000003 10.746542000000002
31.505443 27.722812000000005 9.418873000000001
32.623163 20.723163 9.350587
32.945055 20.19791 10.746542000000002
31.505443 21.772812000000002 9.418873000000001
9.350587 20.723163 32.623163
10.746542000000002 20.19791 32.301271
9.418873000000001 21.772812000000002 33.740883000000004
9.350587 20.723163 26.673163000000002
10.746542000000002 20.19791 26.351271000000004
9.418873000000001 21.772812000000002 27.790883
9.350587 32.623163 20.723163
10.746542000000002 32.09791 20.401271
9.418873000000001 33.672812 21.840882999999998
9.350587 14.773163 32.623163
10.746542000000002 14.247910000000001 32.301271
9.418873000000001 15.822812 33.740883000000004
38.045739 32.623163 26.673163000000002
36.649784000000004 32.09791 26.995055
37.977453000000004 33.672812 25.555443000000004
38.045739 20.723163 20.723163
36.649784000000004 20.19791 21.045055000000005
37.977453000000004 21.772812000000002 19.605443
38.045739 20.723163 32.623163
36.649784000000004 20.19791 32.945055
37.977453000000004 21.772812000000002 31.505443
38.045739 14.773163 32.623163
36.649784000000004 14.247910000000001 32.945055
37.977453000000004 15.822812 31.505443
20.723163 9.350587 26.673163000000002
20.401271 10.746542000000002 26.147910000000003
21.840882999999998 9.418873000000001 27.722812000000005
20.723163 9.350587 20.723163
20.401271 10.746542000000002 20.19791
21.840882999999998 9.418873000000001 21.772812000000002
14.773163 9.350587 32.623163
14.451271 10.746542000000002 32.09791
15.890883 9.418873000000001 33.672812
26.673163000000002 9.350587 32.623163
26.351271000000004 10.746542000000002 32.09791
27.790883 9.418873000000001 33.672812
32.623163 38.045739 20.723163
32.301271 36.649784000000004 21.248416
33.740883000000004 37.977453000000004 19.673514
20.723163 38.045739 14.773163
20.401271 36.649784000000004 15.298416000000001
21.840882999999998 37.977453000000004 13.723514
32.623163 38.045739 14.773163
32.301271 36.649784000000004 15.298416000000001
33.740883000000004 37.977453000000004 13.723514
14.773163 38.045739 14.773163
14.451271 36.649784000000004 15.298416000000001
15.890883 37.977453000000004 13.723514
10.322502 17.748162999999998 17.748162999999998
23.698163 37.073824 29.648163000000004
29.648163000000004 17.748162999999998 37.073824
10.754713 10.754713 17.748162999999998
37.073824 29.648163000000004 17.748162999999998
23.698163 10.754713 10.754713
10.322502 29.648163000000004 17.748162999999998
17.748162999999998 10.322502 17.748162999999998
17.748162999999998 29.648163000000004 37.073824
29.648163000000004 29.648163000000004 10.322502
17.748162999999998 37.073824 23.698163
29.648163000000004 29.648163000000004 37.073824
10.754713 36.64161300000001 23.698163
23.698163 10.322502 17.748162999999998
29.648163000000004 23.698163 37.073824
36.64161300000001 10.754713 17.748162999999998
10.322502 17.748162999999998 23.698163
11.798163 11.798163 23.698163
11.798163 11.798163 29.648163000000004
11.798163 17.748162999999998 11.798163
11.798163 17.748162999999998 29.648163000000004
11.798163 23.698163 17.748162999999998
11.798163 23.698163 23.698163
11.798163 23.698163 29.648163000000004
11.798163 23.698163 35.598163
11.798163 29.648163000000004 11.798163
11.798163 29.648163000000004 23.698163
11.798163 29.648163000000004 29.648163000000004
11.798163 29.648163000000004 35.598163
11.798163 35.598163 17.748162999999998
11.798163 35.598163 29.648163000000004
17.748162999999998 11.798163 23.698163
17.748162999999998 11.798163 29.648163000000004
17.748162999999998 11.798163 35.598163
17.748162999999998 17.748162999999998 17.748162999999998
17.748162999999998 17.748162999999998 23.698163
17.748162999999998 17.748162999999998 29.648163000000004
17.748162999999998 17.748162999999998 35.598163
17.748162999999998 23.698163 11.798163
17.748162999999998 23.698163 17.748162999999998
17.748162999999998 23.698163 23.698163
17.748162999999998 23.698163 29.648163000000004
17.748162999999998 23.698163 35.598163
17.748162999999998 29.648163000000004 11.798163
17.748162999999998 29.648163000000004 17.748162999999998
17.748162999999998 29.648163000000004 23.698163
17.748162999999998 29.648163000000004 29.648163000000004
17.748162999999998 35.598163 11.798163
17.748162999999998 35.598163 17.748162999999998
17.748162999999998 35.598163 29.648163000000004
17.748162999999998 35.598163 35.598163
23.698163 11.798163 23.698163
23.698163 11.798163 29.648163000000004
23.698163 11.798163 35.598163
23.698163 17.748162999999998 11.798163
23.698163 17.748162999999998 17.748162999999998
23.698163 17.748162999999998 23.698163
23.698163 17.748162999999998 29.648163000000004
23.698163 17.748162999999998 35.598163
23.698163 23.698163 11.798163
23.698163 23.698163 17.748162999999998
23.698163 23.698163 23.698163
23.698163 23.698163 29.648163000000004
23.698163 23.698163 35.598163
23.698163 29.648163000000004 11.798163
23.698163 29.648163000000004 17.748162999999998
23.698163 29.648163000000004 23.698163
23.698163 29.648163000000004 29.648163000000004
23.698163 29.648163000000004 35.598163
23.698163 35.598163 17.748162999999998
23.698163 35.598163 23.698163
23.698163 35.598163 35.598163
29.648163000000004 11.798163 11.798163
29.648163000000004 11.798163 17.748162999999998
29.648163000000004 11.798163 23.698163
29.648163000000004 11.798163 29.648163000000004
29.648163000000004 11.798163 35.598163
29.648163000000004 17.748162999999998 11.798163
29.648163000000004 17.748162999999998 17.748162999999998
29.648163000000004 17.748162999999998 23.698163
29.648163000000004 17.748162999999998 29.648163000000004
29.648163000000004 23.698163 11.798163
29.648163000000004 23.698163 17.748162999999998
29.648163000000004 23.698163 23.698163
29.648163000000004 23.698163 29.648163000000004
29.648163000000004 29.648163000000004 17.748162999999998
29.648163000000004 29.648163000000004 23.698163
29.648163000000004 29.648163000000004 29.648163000000004
29.648163000000004 35.598163 11.798163
29.648163000000004 35.598163 17.748162999999998
29.648163000000004 35.598163 23.698163
29.648163000000004 35.598163 29.648163000000004
29.648163000000004 35.598163 35.598163
35.598163 11.798163 23.698163
35.598163 11.798163 29.648163000000004
35.598163 17.748162999999998 11.798163
35.598163 17.748162999999998 17.748162999999998
35.598163 17.748162999999998 23.698163
35.598163 17.748162999999998 29.648163000000004
35.598163 17.748162999999998 35.598163
35.598163 23.698163 11.798163
35.598163 23.698163 17.748162999999998
35.598163 23.698163 23.698163
35.598163 23.698163 29.648163000000004
35.598163 23.698163 35.598163
35.598163 29.648163000000004 11.798163
35.598163 29.648163000000004 23.698163
35.598163 29.648163000000004 29.648163000000004
35.598163 29.648163000000004 35.598163
35.598163 35.598163 17.748162999999998
35.598163 35.598163 23.698163
35.598163 35.598163 29.648163000000004
13.842383 15.279888000000001 38.381767
13.552649 12.827349 35.772337
14.5647 12.871522 38.820585
15.168101 13.969373000000001 39.896326
16.734050000000003 15.41713 37.403007
16.250390000000003 16.031925 38.992665
15.334231 18.117429 38.361152000000004
13.842383 21.229888000000003 38.381767
13.552649 18.777349 35.772337
14.5647 18.821522 38.820585
15.168101 19.919373 39.896326
16.734050000000003 21.367130000000003 37.403007
16.250390000000003 21.981925000000004 38.992665
15.334231 24.067429000000004 38.361152000000004
19.792383 27.179888 38.381767
19.502648999999998 24.727349000000004 35.772337
20.514700000000005 24.771522000000004 38.820585
21.118101000000003 25.869373000000003 39.896326
22.68405 27.31713 37.403007
22.20039 27.931925 38.992665
21.284231 30.017429 38.361152000000004
25.742383000000004 27.179888 38.381767
25.452649 24.727349000000004 35.772337
26.4647 24.771522000000004 38.820585
27.068101 25.869373000000003 39.896326
28.634050000000002 27.31713 37.403007
28.15039 27.931925 38.992665
27.234231 30.017429 38.361152000000004
33.553943000000004 15.279888000000001 9.014559
33.843677 12.827349 11.623989000000002
32.831626 12.871522 8.575741
32.228225 13.969373000000001 7.500000000000001
30.662276 15.41713 9.993319
31.145936 16.031925 8.403661
32.062095 18.117429 9.035174000000001
27.603943 33.129888 9.014559
27.893677000000004 30.677349 11.623989000000002
26.881626000000004 30.721522 8.575741
26.278225 31.819373 7.500000000000001
24.712276000000003 33.26713 9.993319
25.195936000000003 33.881925 8.403661
26.112095000000004 35.967429 9.035174000000001
33.553943000000004 27.179888 9.014559
33.843677 24.727349000000004 11.623989000000002
32.831626 24.771522000000004 8.575741
32.228225 25.869373000000003 7.500000000000001
30.662276 27.31713 9.993319
31.145936 27.931925 8.403661
32.062095 30.017429 9.035174000000001
33.553943000000004 21.229888000000003 9.014559
33.843677 18.777349 11.623989000000002
32.831626 18.821522 8.575741
32.228225 19.919373 7.500000000000001
30.662276 21.367130000000003 9.993319
31.145936 21.981925000000004 8.403661
32.062095 24.067429000000004 9.035174000000001
9.014559 21.229888000000003 31.692383
11.623989000000002 18.777349 31.402649000000004
8.575741 18.821522 32.4147
7.500000000000001 19.919373 33.018101
9.993319 21.367130000000003 34.58405
8.403661 21.981925000000004 34.10039
9.035174000000001 24.067429000000004 33.184231000000004
9.014559 21.229888000000003 25.742383000000004
11.623989000000002 18.777349 25.452649
8.575741 18.821522 26.4647
7.500000000000001 19.919373 27.068101
9.993319 21.367130000000003 28.634050000000002
8.403661 21.981925000000004 28.15039
9.035174000000001 24.067429000000004 27.234231
9.014559 33.129888 19.792383
11.623989000000002 30.677349 19.502648999999998
8.575741 30.721522 20.514700000000005
7.500000000000001 31.819373 21.118101000000003
9.993319 33.26713 22.68405
8.403661 33.881925 22.20039
9.035174000000001 35.967429 21.284231
9.014559 15.279888000000001 31.692383
11.623989000000002 12.827349 31.402649000000004
8.575741 12.871522 32.4147
7.500000000000001 13.969373000000001 33.018101
9.993319 15.41713 34.58405
8.403661 16.031925 34.10039
9.035174000000001 18.117429 33.184231000000004
38.381767 33.129888 27.603943
35.772337 30.677349 27.893677000000004
38.820585 30.721522 26.881626000000004
39.896326 31.819373 26.278225
37.403007 33.26713 24.712276000000003
38.992665 33.881925 25.195936000000003
38.361152000000004 35.967429 26.112095000000004
38.381767 21.229888000000003 21.653942999999998
35.772337 18.777349 21.943677
38.820585 18.821522 20.931626
39.896326 19.919373 20.328225000000003
37.403007 21.367130000000003 18.762276
38.992665 21.981925000000004 19.245936
38.361152000000004 24.067429000000004 20.162095
38.381767 21.229888000000003 33.553943000000004
35.772337 18.777349 33.843677
38.820585 18.821522 32.831626
39.896326 19.919373 32.228225
37.403007 21.367130000000003 30.662276
38.992665 21.981925000000004 31.145936
38.361152000000004 24.067429000000004 32.062095
38.381767 15.279888000000001 33.553943000000004
35.772337 12.827349 33.843677
38.820585 12.871522 32.831626
39.896326 13.969373000000001 32.228225
37.403007 15.41713 30.662276
38.992665 16.031925 31.145936
38.361152000000004 18.117429 32.062095
19.792383 9.014559 27.179888
19.502648999999998 11.623989000000002 24.727349000000004
20.514700000000005 8.575741 24.771522000000004
21.118101000000003 7.500000000000001 25.869373000000003
22.68405 9.993319 27.31713
22.20039 8.403661 27.931925
21.284231 9.035174000000001 30.017429
19.792383 9.014559 21.229888000000003
19.502648999999998 11.623989000000002 18.777349
20.514700000000005 8.575741 18.821522
21.118101000000003 7.500000000000001 19.919373
22.68405 9.993319 21.367130000000003
22.20039 8.403661 21.981925000000004
21.284231 9.035174000000001 24.067429000000004
13.842383 9.014559 33.129888
13.552649 11.623989000000002 30.677349
14.5647 8.575741 30.721522
15.168101 7.500000000000001 31.819373
16.734050000000003 9.993319 33.26713
16.250390000000003 8.403661 33.881925
15.334231 9.035174000000001 35.967429
25.742383000000004 9.014559 33.129888
25.452649 11.623989000000002 30.677349
26.4647 8.575741 30.721522
27.068101 7.500000000000001 31.819373
28.634050000000002 9.993319 33.26713
28.15039 8.403661 33.881925
27.234231 9.035174000000001 35.967429
31.692383 38.381767 20.216438
31.402649000000004 35.772337 22.668976999999998
32.4147 38.820585 22.624804000000005
33.018101 39.896326 21.526953
34.58405 37.403007 20.079196000000003
34.10039 38.992665 19.464401000000002
33.184231000000004 38.361152000000004 17.378897000000002
19.792383 38.381767 14.266438
19.502648999999998 35.772337 16.718977000000002
20.514700000000005 38.820585 16.674804
21.118101000000003 39.896326 15.576953000000001
22.68405 37.403007 14.129196
22.20039 38.992665 13.514401000000001
21.284231 38.361152000000004 11.428897000000001
31.692383 38.381767 14.266438
31.402649000000004 35.772337 16.718977000000002
32.4147 38.820585 16.674804
33.018101 39.896326 15.576953000000001
34.58405 37.403007 14.129196
34.10039 38.992665 13.514401000000001
33.184231000000004 38.361152000000004 11.428897000000001
13.842383 38.381767 14.266438
13.552649 35.772337 16.718977000000002
14.5647 38.820585 16.674804
15.168101 39.896326 15.576953000000001
16.734050000000003 37.403007 14.129196
16.250390000000003 38.992665 13.514401000000001
15.334231 38.361152000000004 11.428897000000001
9.988581 16.787088 17.352612999999998
9.988581 17.886144 18.778253
9.988581 18.571257000000003 17.113622
12.172905 18.633895000000003 18.112704
12.172905 17.620998999999998 16.798826
12.172905 16.989596 18.332959000000002
23.302613 37.407745000000006 30.609237999999998
24.728253000000002 37.407745000000006 29.510182
23.063622000000002 37.407745000000006 28.825069
24.062704000000004 35.223421 28.762431
22.748826 35.223421 29.775326999999997
24.282958999999998 35.223421 30.406730000000003
29.252613000000004 16.787088 37.407745000000006
30.678252999999998 17.886144 37.407745000000006
29.013621999999998 18.571257000000003 37.407745000000006
30.012704 18.633895000000003 35.223421
28.698826000000004 17.620998999999998 35.223421
30.232959 16.989596 35.223421
10.801358 10.235833 16.788884000000003
10.96465 10.072541000000001 18.574114
9.789778 11.247412 17.88149
11.80255 12.323741 18.632239
11.65206 12.474232 16.986962
12.734827000000001 11.391464000000001 17.625287999999998
37.407745000000006 28.687088000000003 18.143712999999998
37.407745000000006 29.786144 16.718073
37.407745000000006 30.471257 18.382704
35.223421 30.533895 17.383622000000003
35.223421 29.520999000000003 18.697499999999998
35.223421 28.889595999999997 17.163367
23.302613 11.198178 9.839013000000001
24.728253000000002 10.421028 10.616163
23.063622000000002 9.936580000000001 11.10061
24.062704000000004 11.436839 12.689453
22.748826 12.153065000000002 11.973227000000001
24.282958999999998 12.599534 11.526758000000001
9.988581 28.687088000000003 17.352612999999998
9.988581 29.786144 18.778253
9.988581 30.471257 17.113622
12.172905 30.533895 18.112704
12.172905 29.520999000000003 16.798826
12.172905 28.889595999999997 18.332959000000002
17.352612999999998 9.988581 16.787088
18.778253 9.988581 17.886144
17.113622 9.988581 18.571257000000003
18.112704 12.172905 18.633895000000003
16.798826 12.172905 17.620998999999998
18.332959000000002 12.172905 16.989596
17.352612999999998 28.687088000000003 37.407745000000006
18.778253 29.786144 37.407745000000006
17.113622 30.471257 37.407745000000006
18.112704 30.533895 35.223421
16.798826 29.520999000000003 35.223421
18.332959000000002 28.889595999999997 35.223421
30.043713000000004 28.687088000000003 9.988581
28.618073000000003 29.786144 9.988581
30.282704000000003 30.471257 9.988581
29.283622 30.533895 12.172905
30.597500000000004 29.520999000000003 12.172905
29.063367 28.889595999999997 12.172905
17.352612999999998 37.407745000000006 24.659238000000002
18.778253 37.407745000000006 23.560182000000005
17.113622 37.407745000000006 22.875069000000003
18.112704 35.223421 22.812431000000004
16.798826 35.223421 23.825327
18.332959000000002 35.223421 24.45673
29.252613000000004 28.687088000000003 37.407745000000006
30.678252999999998 29.786144 37.407745000000006
29.013621999999998 30.471257 37.407745000000006
30.012704 30.533895 35.223421
28.698826000000004 29.520999000000003 35.223421
30.232959 28.889595999999997 35.223421
9.840283 36.199418 24.09805
11.102631 37.461766 24.328979000000004
10.612872 36.972007000000005 22.66746
12.688282000000001 35.958317 23.329625
11.524895 34.79493 23.116800000000005
11.97626 35.246295 24.648063999999998
23.302613 9.988581 16.787088
24.728253000000002 9.988581 17.886144
23.063622000000002 9.988581 18.571257000000003
24.062704000000004 12.172905 18.633895000000003
22.748826 12.172905 17.620998999999998
24.282958999999998 12.172905 16.989596
29.252613000000004 22.737088 37.407745000000006
30.678252999999998 23.836144000000004 37.407745000000006
29.013621999999998 24.521257 37.407745000000006
30.012704 24.583895 35.223421
28.698826000000004 23.570999 35.223421
30.232959 22.939596 35.223421
36.199418 9.840283 17.348276
37.461766 11.102631 17.117347000000002
36.972007000000005 10.612872 18.778866
35.958317 12.688282000000001 18.116701
34.79493 11.524895 18.329526
35.246295 11.97626 16.798262
9.988581 16.787088 23.302613
9.988581 17.886144 24.728253000000002
9.988581 18.571257000000003 23.063622000000002
12.172905 18.633895000000003 24.062704000000004
12.172905 17.620998999999998 22.748826
12.172905 16.989596 24.282958999999998
15.19482 13.671173000000001 38.918819
15.19482 19.621173 38.918819
21.144820000000003 25.571173 38.918819
27.09482 25.571173 38.918819
32.201506 13.671173000000001 8.477507000000001
26.251506 31.521172999999997 8.477507000000001
32.201506 25.571173 8.477507000000001
32.201506 19.621173 8.477507000000001
8.477507000000001 19.621173 33.04482
8.477507000000001 19.621173 27.09482
8.477507000000001 31.521172999999997 21.144820000000003
8.477507000000001 13.671173000000001 33.04482
38.918819 31.521172999999997 26.251506
38.918819 19.621173 20.301506000000003
38.918819 19.621173 32.201506
38.918819 13.671173000000001 32.201506
21.144820000000003 8.477507000000001 25.571173
21.144820000000003 8.477507000000001 19.621173
15.19482 8.477507000000001 31.521172999999997
27.09482 8.477507000000001 31.521172999999997
33.04482 38.918819 21.825153
21.144820000000003 38.918819 15.875153000000001
33.04482 38.918819 15.875153000000001
15.19482 38.918819 15.875153000000001
11.798163 17.748162999999998 17.748162999999998
23.698163 35.598163 29.648163000000004
29.648163000000004 17.748162999999998 35.598163
11.798163 11.798163 17.748162999999998
35.598163 29.648163000000004 17.748162999999998
23.698163 11.798163 11.798163
11.798163 29.648163000000004 17.748162999999998
17.748162999999998 11.798163 17.748162999999998
17.748162999999998 29.648163000000004 35.598163
29.648163000000004 29.648163000000004 11.798163
17.748162999999998 35.598163 23.698163
29.648163000000004 29.648163000000004 35.598163
11.798163 35.598163 23.698163
23.698163 11.798163 17.748162999999998
29.648163000000004 23.698163 35.598163
35.598163 11.798163 17.748162999999998
11.798163 17.748162999999998 23.698163
13.713116000000001 13.098915 36.702009000000004
14.773163 14.773163 35.598163
13.713116000000001 19.048915 36.702009000000004
14.773163 20.723163 35.598163
19.663116000000002 24.998915000000004 36.702009000000004
20.723163 26.673163000000002 35.598163
25.613115999999998 24.998915000000004 36.702009000000004
26.673163000000002 26.673163000000002 35.598163
33.68321 13.098915 10.694317000000002
32.623163 14.773163 11.798163
27.73321 30.948915 10.694317000000002
26.673163000000002 32.623163 11.798163
33.68321 24.998915000000004 10.694317000000002
32.623163 26.673163000000002 11.798163
33.68321 19.048915 10.694317000000002
32.623163 20.723163 11.798163
10.694317000000002 19.048915 31.563116
11.798163 20.723163 32.623163
10.694317000000002 19.048915 25.613115999999998
11.798163 20.723163 26.673163000000002
10.694317000000002 30.948915 19.663116000000002