3_train/233_cspbbr3_MA-AbzO_4_0.40\233_cspbbr3_MA-AbzO_4_0.40.xyz
1.0
49.572974 0 0
0 49.572974 0
0 0 49.572974
Br C Cs H N O Pb 
198 328 78 456 76 84 64 
Cartesian
15.861487 15.861487 12.886487
12.886487 15.861487 15.861487
15.861487 15.861487 18.836486999999998
15.861487 15.861487 24.786487
15.861487 12.886487 27.761487000000002
12.886487 15.861487 27.761487000000002
15.861487 15.861487 30.736487000000004
15.861487 21.811487 12.886487
15.861487 18.836486999999998 15.861487
12.886487 21.811487 15.861487
15.861487 21.811487 18.836486999999998
15.861487 18.836486999999998 21.811487
12.886487 21.811487 21.811487
15.861487 21.811487 24.786487
15.861487 18.836486999999998 27.761487000000002
12.886487 21.811487 27.761487000000002
15.861487 21.811487 30.736487000000004
15.861487 18.836486999999998 33.711487
12.886487 21.811487 33.711487
15.861487 21.811487 36.686487
15.861487 27.761487000000002 12.886487
15.861487 24.786487 15.861487
15.861487 27.761487000000002 18.836486999999998
15.861487 24.786487 21.811487
15.861487 27.761487000000002 24.786487
15.861487 24.786487 27.761487000000002
12.886487 27.761487000000002 27.761487000000002
15.861487 27.761487000000002 30.736487000000004
15.861487 24.786487 33.711487
12.886487 27.761487000000002 33.711487
15.861487 33.711487 12.886487
15.861487 30.736487000000004 15.861487
12.886487 33.711487 15.861487
15.861487 33.711487 18.836486999999998
15.861487 30.736487000000004 21.811487
15.861487 33.711487 24.786487
15.861487 30.736487000000004 27.761487000000002
15.861487 33.711487 30.736487000000004
15.861487 30.736487000000004 33.711487
15.861487 33.711487 36.686487
15.861487 36.686487 15.861487
15.861487 36.686487 27.761487000000002
15.861487 36.686487 33.711487
21.811487 15.861487 12.886487
21.811487 12.886487 15.861487
18.836486999999998 15.861487 15.861487
21.811487 15.861487 18.836486999999998
21.811487 12.886487 21.811487
18.836486999999998 15.861487 21.811487
21.811487 15.861487 24.786487
21.811487 12.886487 27.761487000000002
18.836486999999998 15.861487 27.761487000000002
21.811487 15.861487 30.736487000000004
21.811487 12.886487 33.711487
18.836486999999998 15.861487 33.711487
21.811487 18.836486999999998 15.861487
18.836486999999998 21.811487 15.861487
21.811487 21.811487 18.836486999999998
21.811487 18.836486999999998 21.811487
18.836486999999998 21.811487 21.811487
21.811487 21.811487 24.786487
21.811487 18.836486999999998 27.761487000000002
18.836486999999998 21.811487 27.761487000000002
21.811487 21.811487 30.736487000000004
21.811487 18.836486999999998 33.711487
18.836486999999998 21.811487 33.711487
21.811487 21.811487 36.686487
21.811487 24.786487 15.861487
18.836486999999998 27.761487000000002 15.861487
21.811487 27.761487000000002 18.836486999999998
21.811487 24.786487 21.811487
18.836486999999998 27.761487000000002 21.811487
21.811487 27.761487000000002 24.786487
21.811487 24.786487 27.761487000000002
18.836486999999998 27.761487000000002 27.761487000000002
21.811487 27.761487000000002 30.736487000000004
21.811487 24.786487 33.711487
18.836486999999998 27.761487000000002 33.711487
21.811487 30.736487000000004 15.861487
18.836486999999998 33.711487 15.861487
21.811487 33.711487 18.836486999999998
21.811487 30.736487000000004 21.811487
18.836486999999998 33.711487 21.811487
21.811487 33.711487 24.786487
21.811487 30.736487000000004 27.761487000000002
18.836486999999998 33.711487 27.761487000000002
21.811487 33.711487 30.736487000000004
21.811487 30.736487000000004 33.711487
18.836486999999998 33.711487 33.711487
21.811487 33.711487 36.686487
21.811487 36.686487 15.861487
21.811487 36.686487 27.761487000000002
27.761487000000002 12.886487 15.861487
24.786487 15.861487 15.861487
27.761487000000002 15.861487 18.836486999999998
24.786487 15.861487 21.811487
27.761487000000002 15.861487 24.786487
24.786487 15.861487 27.761487000000002
27.761487000000002 15.861487 30.736487000000004
24.786487 15.861487 33.711487
27.761487000000002 15.861487 36.686487
27.761487000000002 21.811487 12.886487
27.761487000000002 18.836486999999998 15.861487
24.786487 21.811487 15.861487
27.761487000000002 21.811487 18.836486999999998
27.761487000000002 18.836486999999998 21.811487
24.786487 21.811487 21.811487
27.761487000000002 21.811487 24.786487
27.761487000000002 18.836486999999998 27.761487000000002
24.786487 21.811487 27.761487000000002
27.761487000000002 21.811487 30.736487000000004
27.761487000000002 18.836486999999998 33.711487
24.786487 21.811487 33.711487
27.761487000000002 24.786487 15.861487
24.786487 27.761487000000002 15.861487
27.761487000000002 27.761487000000002 18.836486999999998
27.761487000000002 24.786487 21.811487
24.786487 27.761487000000002 21.811487
27.761487000000002 27.761487000000002 24.786487
27.761487000000002 24.786487 27.761487000000002
24.786487 27.761487000000002 27.761487000000002
27.761487000000002 27.761487000000002 30.736487000000004
27.761487000000002 24.786487 33.711487
24.786487 27.761487000000002 33.711487
27.761487000000002 30.736487000000004 15.861487
24.786487 33.711487 15.861487
27.761487000000002 33.711487 18.836486999999998
27.761487000000002 30.736487000000004 21.811487
24.786487 33.711487 21.811487
27.761487000000002 33.711487 24.786487
27.761487000000002 30.736487000000004 27.761487000000002
24.786487 33.711487 27.761487000000002
27.761487000000002 33.711487 30.736487000000004
27.761487000000002 30.736487000000004 33.711487
24.786487 33.711487 33.711487
27.761487000000002 33.711487 36.686487
27.761487000000002 36.686487 15.861487
27.761487000000002 36.686487 33.711487
33.711487 15.861487 12.886487
33.711487 12.886487 15.861487
30.736487000000004 15.861487 15.861487
33.711487 15.861487 18.836486999999998
33.711487 12.886487 21.811487
30.736487000000004 15.861487 21.811487
33.711487 15.861487 24.786487
33.711487 12.886487 27.761487000000002
30.736487000000004 15.861487 27.761487000000002
33.711487 15.861487 30.736487000000004
30.736487000000004 15.861487 33.711487
33.711487 15.861487 36.686487
33.711487 21.811487 12.886487
33.711487 18.836486999999998 15.861487
30.736487000000004 21.811487 15.861487
33.711487 21.811487 18.836486999999998
33.711487 18.836486999999998 21.811487
30.736487000000004 21.811487 21.811487
33.711487 21.811487 24.786487
33.711487 18.836486999999998 27.761487000000002
30.736487000000004 21.811487 27.761487000000002
33.711487 21.811487 30.736487000000004
33.711487 18.836486999999998 33.711487
30.736487000000004 21.811487 33.711487
33.711487 21.811487 36.686487
33.711487 24.786487 15.861487
30.736487000000004 27.761487000000002 15.861487
33.711487 27.761487000000002 18.836486999999998
33.711487 24.786487 21.811487
30.736487000000004 27.761487000000002 21.811487
33.711487 27.761487000000002 24.786487
33.711487 24.786487 27.761487000000002
30.736487000000004 27.761487000000002 27.761487000000002
33.711487 27.761487000000002 30.736487000000004
33.711487 24.786487 33.711487
30.736487000000004 27.761487000000002 33.711487
33.711487 33.711487 12.886487
33.711487 30.736487000000004 15.861487
30.736487000000004 33.711487 15.861487
33.711487 33.711487 18.836486999999998
33.711487 30.736487000000004 21.811487
30.736487000000004 33.711487 21.811487
33.711487 33.711487 24.786487
33.711487 30.736487000000004 27.761487000000002
30.736487000000004 33.711487 27.761487000000002
33.711487 33.711487 30.736487000000004
33.711487 30.736487000000004 33.711487
30.736487000000004 33.711487 33.711487
33.711487 33.711487 36.686487
33.711487 36.686487 21.811487
33.711487 36.686487 27.761487000000002
36.686487 15.861487 21.811487
36.686487 21.811487 15.861487
36.686487 21.811487 21.811487
36.686487 21.811487 27.761487000000002
36.686487 21.811487 33.711487
36.686487 27.761487000000002 15.861487
36.686487 27.761487000000002 27.761487000000002
36.686487 27.761487000000002 33.711487
36.686487 33.711487 27.761487000000002
15.932717 17.094867 40.281516
16.074724000000003 17.046177 38.893687
15.861487 15.861487 38.19108800000001
15.344220000000002 14.742439000000001 40.331509000000004
15.543515000000001 15.940559 40.991377
15.861487 15.861487 36.686487
15.556501 14.667219000000001 38.92822700000001
27.832717000000002 28.994867 40.281516
27.974724000000002 28.946177 38.893687
27.761487000000002 27.761487000000002 38.19108800000001
27.24422 26.642439000000003 40.331509000000004
27.443515000000005 27.840559 40.991377
27.761487000000002 27.761487000000002 36.686487
27.456501000000003 26.567219 38.92822700000001
21.882717 28.994867 40.281516
22.024724 28.946177 38.893687
21.811487 27.761487000000002 38.19108800000001
21.294220000000003 26.642439000000003 40.331509000000004
21.493515000000002 27.840559 40.991377
21.811487 27.761487000000002 36.686487
21.506501 26.567219 38.92822700000001
15.932717 28.994867 40.281516
16.074724000000003 28.946177 38.893687
15.861487 27.761487000000002 38.19108800000001
15.344220000000002 26.642439000000003 40.331509000000004
15.543515000000001 27.840559 40.991377
15.861487 27.761487000000002 36.686487
15.556501 26.567219 38.92822700000001
33.782717 28.994867 40.281516
33.924724 28.946177 38.893687
33.711487 27.761487000000002 38.19108800000001
33.19422 26.642439000000003 40.331509000000004
33.393515 27.840559 40.991377
33.711487 27.761487000000002 36.686487
33.406501 26.567219 38.92822700000001
27.832717000000002 23.044867000000004 40.281516
27.974724000000002 22.996177000000003 38.893687
27.761487000000002 21.811487 38.19108800000001
27.24422 20.692439 40.331509000000004
27.443515000000005 21.890559000000003 40.991377
27.761487000000002 21.811487 36.686487
27.456501000000003 20.617219 38.92822700000001
21.882717 17.094867 40.281516
22.024724 17.046177 38.893687
21.811487 15.861487 38.19108800000001
21.294220000000003 14.742439000000001 40.331509000000004
21.493515000000002 15.940559 40.991377
21.811487 15.861487 36.686487
21.506501 14.667219000000001 38.92822700000001
21.740257 23.044867000000004 9.291458
21.59825 22.996177000000003 10.679287
21.811487 21.811487 11.381886000000002
22.328754000000004 20.692439 9.241465000000002
22.129459000000004 21.890559000000003 8.581597
21.811487 21.811487 12.886487
22.116473 20.617219 10.644747
33.640257 28.994867 9.291458
33.49825 28.946177 10.679287
33.711487 27.761487000000002 11.381886000000002
34.228754 26.642439000000003 9.241465000000002
34.029459 27.840559 8.581597
33.711487 27.761487000000002 12.886487
34.016473 26.567219 10.644747
21.740257 34.944867 9.291458
21.59825 34.896177 10.679287
21.811487 33.711487 11.381886000000002
22.328754000000004 32.592439 9.241465000000002
22.129459000000004 33.790559 8.581597
21.811487 33.711487 12.886487
22.116473 32.517219 10.644747
27.690257000000003 34.944867 9.291458
27.548250000000003 34.896177 10.679287
27.761487000000002 33.711487 11.381886000000002
28.278754 32.592439 9.241465000000002
28.079459 33.790559 8.581597
27.761487000000002 33.711487 12.886487
28.066473000000002 32.517219 10.644747
27.690257000000003 28.994867 9.291458
27.548250000000003 28.946177 10.679287
27.761487000000002 27.761487000000002 11.381886000000002
28.278754 26.642439000000003 9.241465000000002
28.079459 27.840559 8.581597
27.761487000000002 27.761487000000002 12.886487
28.066473000000002 26.567219 10.644747
27.690257000000003 17.094867 9.291458
27.548250000000003 17.046177 10.679287
27.761487000000002 15.861487 11.381886000000002
28.278754 14.742439000000001 9.241465000000002
28.079459 15.940559 8.581597
27.761487000000002 15.861487 12.886487
28.066473000000002 14.667219000000001 10.644747
21.740257 28.994867 9.291458
21.59825 28.946177 10.679287
21.811487 27.761487000000002 11.381886000000002
22.328754000000004 26.642439000000003 9.241465000000002
22.129459000000004 27.840559 8.581597
21.811487 27.761487000000002 12.886487
22.116473 26.567219 10.644747
9.291458 34.944867 21.882717
10.679287 34.896177 22.024724
11.381886000000002 33.711487 21.811487
9.241465000000002 32.592439 21.294220000000003
8.581597 33.790559 21.493515000000002
12.886487 33.711487 21.811487
10.644747 32.517219 21.506501
9.291458 34.944867 27.832717000000002
10.679287 34.896177 27.974724000000002
11.381886000000002 33.711487 27.761487000000002
9.241465000000002 32.592439 27.24422
8.581597 33.790559 27.443515000000005
12.886487 33.711487 27.761487000000002
10.644747 32.517219 27.456501000000003
9.291458 28.994867 15.932717
10.679287 28.946177 16.074724000000003
11.381886000000002 27.761487000000002 15.861487
9.241465000000002 26.642439000000003 15.344220000000002
8.581597 27.840559 15.543515000000001
12.886487 27.761487000000002 15.861487
10.644747 26.567219 15.556501
9.291458 17.094867 33.782717
10.679287 17.046177 33.924724
11.381886000000002 15.861487 33.711487
9.241465000000002 14.742439000000001 33.19422
8.581597 15.940559 33.393515
12.886487 15.861487 33.711487
10.644747 14.667219000000001 33.406501
9.291458 28.994867 21.882717
10.679287 28.946177 22.024724
11.381886000000002 27.761487000000002 21.811487
9.241465000000002 26.642439000000003 21.294220000000003
8.581597 27.840559 21.493515000000002
12.886487 27.761487000000002 21.811487
10.644747 26.567219 21.506501
9.291458 17.094867 21.882717
10.679287 17.046177 22.024724
11.381886000000002 15.861487 21.811487
9.241465000000002 14.742439000000001 21.294220000000003
8.581597 15.940559 21.493515000000002
12.886487 15.861487 21.811487
10.644747 14.667219000000001 21.506501
9.291458 34.944867 33.782717
10.679287 34.896177 33.924724
11.381886000000002 33.711487 33.711487
9.241465000000002 32.592439 33.19422
8.581597 33.790559 33.393515
12.886487 33.711487 33.711487
10.644747 32.517219 33.406501
40.281516 34.944867 21.740257
38.893687 34.896177 21.59825
38.19108800000001 33.711487 21.811487
40.331509000000004 32.592439 22.328754000000004
40.991377 33.790559 22.129459000000004
36.686487 33.711487 21.811487
38.92822700000001 32.517219 22.116473
40.281516 17.094867 33.640257
38.893687 17.046177 33.49825
38.19108800000001 15.861487 33.711487
40.331509000000004 14.742439000000001 34.228754
40.991377 15.940559 34.029459
36.686487 15.861487 33.711487
38.92822700000001 14.667219000000001 34.016473
40.281516 17.094867 27.690257000000003
38.893687 17.046177 27.548250000000003
38.19108800000001 15.861487 27.761487000000002
40.331509000000004 14.742439000000001 28.278754
40.991377 15.940559 28.079459
36.686487 15.861487 27.761487000000002
38.92822700000001 14.667219000000001 28.066473000000002
40.281516 34.944867 15.790257
38.893687 34.896177 15.64825
38.19108800000001 33.711487 15.861487
40.331509000000004 32.592439 16.378754
40.991377 33.790559 16.179459
36.686487 33.711487 15.861487
38.92822700000001 32.517219 16.166473000000003
40.281516 17.094867 15.790257
38.893687 17.046177 15.64825
38.19108800000001 15.861487 15.861487
40.331509000000004 14.742439000000001 16.378754
40.991377 15.940559 16.179459
36.686487 15.861487 15.861487
38.92822700000001 14.667219000000001 16.166473000000003
40.281516 34.944867 33.640257
38.893687 34.896177 33.49825
38.19108800000001 33.711487 33.711487
40.331509000000004 32.592439 34.228754
40.991377 33.790559 34.029459
36.686487 33.711487 33.711487
38.92822700000001 32.517219 34.016473
40.281516 28.994867 21.740257
38.893687 28.946177 21.59825
38.19108800000001 27.761487000000002 21.811487
40.331509000000004 26.642439000000003 22.328754000000004
40.991377 27.840559 22.129459000000004
36.686487 27.761487000000002 21.811487
38.92822700000001 26.567219 22.116473
33.782717 9.291458 34.944867
33.924724 10.679287 34.896177
33.711487 11.381886000000002 33.711487
33.19422 9.241465000000002 32.592439
33.393515 8.581597 33.790559
33.711487 12.886487 33.711487
33.406501 10.644747 32.517219
15.932717 9.291458 23.044867000000004
16.074724000000003 10.679287 22.996177000000003
15.861487 11.381886000000002 21.811487
15.344220000000002 9.241465000000002 20.692439
15.543515000000001 8.581597 21.890559000000003
15.861487 12.886487 21.811487
15.556501 10.644747 20.617219
27.832717000000002 9.291458 34.944867
27.974724000000002 10.679287 34.896177
27.761487000000002 11.381886000000002 33.711487
27.24422 9.241465000000002 32.592439
27.443515000000005 8.581597 33.790559
27.761487000000002 12.886487 33.711487
27.456501000000003 10.644747 32.517219
27.832717000000002 9.291458 23.044867000000004
27.974724000000002 10.679287 22.996177000000003
27.761487000000002 11.381886000000002 21.811487
27.24422 9.241465000000002 20.692439
27.443515000000005 8.581597 21.890559000000003
27.761487000000002 12.886487 21.811487
27.456501000000003 10.644747 20.617219
15.932717 9.291458 34.944867
16.074724000000003 10.679287 34.896177
15.861487 11.381886000000002 33.711487
15.344220000000002 9.241465000000002 32.592439
15.543515000000001 8.581597 33.790559
15.861487 12.886487 33.711487
15.556501 10.644747 32.517219
15.932717 9.291458 17.094867
16.074724000000003 10.679287 17.046177
15.861487 11.381886000000002 15.861487
15.344220000000002 9.241465000000002 14.742439000000001
15.543515000000001 8.581597 15.940559
15.861487 12.886487 15.861487
15.556501 10.644747 14.667219000000001
27.832717000000002 9.291458 28.994867
27.974724000000002 10.679287 28.946177
27.761487000000002 11.381886000000002 27.761487000000002
27.24422 9.241465000000002 26.642439000000003
27.443515000000005 8.581597 27.840559
27.761487000000002 12.886487 27.761487000000002
27.456501000000003 10.644747 26.567219
21.882717 40.281516 20.578107000000003
22.024724 38.893687 20.626797000000003
21.811487 38.19108800000001 21.811487
21.294220000000003 40.331509000000004 22.930535
21.493515000000002 40.991377 21.732415000000003
21.811487 36.686487 21.811487
21.506501 38.92822700000001 23.005755
33.782717 40.281516 14.628107
33.924724 38.893687 14.676797
33.711487 38.19108800000001 15.861487
33.19422 40.331509000000004 16.980535000000003
33.393515 40.991377 15.782415
33.711487 36.686487 15.861487
33.406501 38.92822700000001 17.055754999999998
27.832717000000002 40.281516 26.528107
27.974724000000002 38.893687 26.576797
27.761487000000002 38.19108800000001 27.761487000000002
27.24422 40.331509000000004 28.880535000000002
27.443515000000005 40.991377 27.682415
27.761487000000002 36.686487 27.761487000000002
27.456501000000003 38.92822700000001 28.955755000000003
27.832717000000002 40.281516 20.578107000000003
27.974724000000002 38.893687 20.626797000000003
27.761487000000002 38.19108800000001 21.811487
27.24422 40.331509000000004 22.930535
27.443515000000005 40.991377 21.732415000000003
27.761487000000002 36.686487 21.811487
27.456501000000003 38.92822700000001 23.005755
15.932717 40.281516 20.578107000000003
16.074724000000003 38.893687 20.626797000000003
15.861487 38.19108800000001 21.811487
15.344220000000002 40.331509000000004 22.930535
15.543515000000001 40.991377 21.732415000000003
15.861487 36.686487 21.811487
15.556501 38.92822700000001 23.005755
33.782717 40.281516 32.478107
33.924724 38.893687 32.526797
33.711487 38.19108800000001 33.711487
33.19422 40.331509000000004 34.830535
33.393515 40.991377 33.632415
33.711487 36.686487 33.711487
33.406501 38.92822700000001 34.905755
21.882717 40.281516 32.478107
22.024724 38.893687 32.526797
21.811487 38.19108800000001 33.711487
21.294220000000003 40.331509000000004 34.830535
21.493515000000002 40.991377 33.632415
21.811487 36.686487 33.711487
21.506501 38.92822700000001 34.905755
38.162148 24.786487 18.836486999999998
24.786487 24.786487 38.162148
24.786487 37.72993700000001 11.843037
37.72993700000001 11.843037 24.786487
18.836486999999998 11.843037 37.72993700000001
18.836486999999998 30.736487000000004 11.410826
30.736487000000004 38.162148 30.736487000000004
11.410826 18.836486999999998 30.736487000000004
11.410826 24.786487 24.786487
37.72993700000001 37.72993700000001 24.786487
30.736487000000004 30.736487000000004 38.162148
37.72993700000001 18.836486999999998 37.72993700000001
11.410826 30.736487000000004 30.736487000000004
30.736487000000004 11.843037 11.843037
38.162148 30.736487000000004 18.836486999999998
18.836486999999998 11.410826 24.786487
30.736487000000004 37.72993700000001 37.72993700000001
30.736487000000004 30.736487000000004 11.410826
38.162148 24.786487 24.786487
30.736487000000004 38.162148 18.836486999999998
24.786487 38.162148 30.736487000000004
30.736487000000004 18.836486999999998 11.410826
18.836486999999998 24.786487 11.410826
30.736487000000004 24.786487 11.410826
30.736487000000004 11.410826 18.836486999999998
18.836486999999998 18.836486999999998 11.410826
38.162148 18.836486999999998 24.786487
38.162148 18.836486999999998 18.836486999999998
30.736487000000004 38.162148 24.786487
11.843037 37.72993700000001 24.786487
30.736487000000004 18.836486999999998 38.162148
11.410826 18.836486999999998 18.836486999999998
18.836486999999998 18.836486999999998 38.162148
11.843037 11.843037 18.836486999999998
12.886487 12.886487 24.786487
12.886487 12.886487 30.736487000000004
12.886487 18.836486999999998 12.886487
12.886487 18.836486999999998 24.786487
12.886487 24.786487 12.886487
12.886487 24.786487 18.836486999999998
12.886487 24.786487 30.736487000000004
12.886487 24.786487 36.686487
12.886487 30.736487000000004 12.886487
12.886487 30.736487000000004 18.836486999999998
12.886487 30.736487000000004 24.786487
12.886487 36.686487 18.836486999999998
18.836486999999998 12.886487 12.886487
18.836486999999998 12.886487 18.836486999999998
18.836486999999998 12.886487 30.736487000000004
18.836486999999998 18.836486999999998 18.836486999999998
18.836486999999998 18.836486999999998 24.786487
18.836486999999998 18.836486999999998 30.736487000000004
18.836486999999998 24.786487 18.836486999999998
18.836486999999998 24.786487 24.786487
18.836486999999998 24.786487 30.736487000000004
18.836486999999998 24.786487 36.686487
18.836486999999998 30.736487000000004 18.836486999999998
18.836486999999998 30.736487000000004 24.786487
18.836486999999998 30.736487000000004 30.736487000000004
18.836486999999998 30.736487000000004 36.686487
18.836486999999998 36.686487 12.886487
18.836486999999998 36.686487 18.836486999999998
18.836486999999998 36.686487 24.786487
18.836486999999998 36.686487 30.736487000000004
18.836486999999998 36.686487 36.686487
24.786487 12.886487 12.886487
24.786487 12.886487 18.836486999999998
24.786487 12.886487 24.786487
24.786487 12.886487 30.736487000000004
24.786487 12.886487 36.686487
24.786487 18.836486999999998 12.886487
24.786487 18.836486999999998 18.836486999999998
24.786487 18.836486999999998 24.786487
24.786487 18.836486999999998 30.736487000000004
24.786487 18.836486999999998 36.686487
24.786487 24.786487 12.886487
24.786487 24.786487 18.836486999999998
24.786487 24.786487 24.786487
24.786487 24.786487 30.736487000000004
24.786487 30.736487000000004 12.886487
24.786487 30.736487000000004 18.836486999999998
24.786487 30.736487000000004 24.786487
24.786487 30.736487000000004 30.736487000000004
24.786487 30.736487000000004 36.686487
24.786487 36.686487 18.836486999999998
24.786487 36.686487 24.786487
30.736487000000004 12.886487 24.786487
30.736487000000004 12.886487 30.736487000000004
30.736487000000004 12.886487 36.686487
30.736487000000004 18.836486999999998 18.836486999999998
30.736487000000004 18.836486999999998 24.786487
30.736487000000004 18.836486999999998 30.736487000000004
30.736487000000004 24.786487 18.836486999999998
30.736487000000004 24.786487 24.786487
30.736487000000004 24.786487 30.736487000000004
30.736487000000004 24.786487 36.686487
30.736487000000004 30.736487000000004 18.836486999999998
30.736487000000004 30.736487000000004 24.786487
30.736487000000004 30.736487000000004 30.736487000000004
30.736487000000004 36.686487 12.886487
36.686487 12.886487 18.836486999999998
36.686487 12.886487 30.736487000000004
36.686487 18.836486999999998 12.886487
36.686487 18.836486999999998 30.736487000000004
36.686487 24.786487 30.736487000000004
36.686487 24.786487 36.686487
36.686487 30.736487000000004 12.886487
36.686487 30.736487000000004 24.786487
36.686487 30.736487000000004 30.736487000000004
36.686487 30.736487000000004 36.686487
36.686487 36.686487 18.836486999999998
36.686487 36.686487 30.736487000000004
15.055094 13.841239 40.877487
15.403914 15.990658000000002 42.072974
16.08874 18.033585000000002 40.815304
16.305304 17.943946 38.316549
15.104101000000002 12.670722000000001 38.693952
15.672637 13.58239 37.22656
26.955094000000003 25.741239 40.877487
27.303914 27.890658000000002 42.072974
27.98874 29.933585 40.815304
28.205303999999998 29.843946000000003 38.316549
27.004101 24.570722000000004 38.693952
27.572637 25.482390000000002 37.22656
21.005094 25.741239 40.877487
21.353914000000003 27.890658000000002 42.072974
22.038740000000004 29.933585 40.815304
22.255304000000002 29.843946000000003 38.316549
21.054101000000003 24.570722000000004 38.693952
21.622637000000005 25.482390000000002 37.22656
15.055094 25.741239 40.877487
15.403914 27.890658000000002 42.072974
16.08874 29.933585 40.815304
16.305304 29.843946000000003 38.316549
15.104101000000002 24.570722000000004 38.693952
15.672637 25.482390000000002 37.22656
32.905094 25.741239 40.877487
33.253914 27.890658000000002 42.072974
33.93874 29.933585 40.815304
34.155304 29.843946000000003 38.316549
32.954101 24.570722000000004 38.693952
33.522637 25.482390000000002 37.22656
26.955094000000003 19.791239 40.877487
27.303914 21.940658 42.072974
27.98874 23.983585000000005 40.815304
28.205303999999998 23.893946 38.316549
27.004101 18.620722 38.693952
27.572637 19.53239 37.22656
21.005094 13.841239 40.877487
21.353914000000003 15.990658000000002 42.072974
22.038740000000004 18.033585000000002 40.815304
22.255304000000002 17.943946 38.316549
21.054101000000003 12.670722000000001 38.693952
21.622637000000005 13.58239 37.22656
22.61788 19.791239 8.695487
22.269060000000003 21.940658 7.500000000000001
21.584234000000002 23.983585000000005 8.757670000000001
21.36767 23.893946 11.256425
22.568873000000004 18.620722 10.879022
22.000337000000002 19.53239 12.346414000000001
34.51788 25.741239 8.695487
34.16906 27.890658000000002 7.500000000000001
33.484234 29.933585 8.757670000000001
33.26767 29.843946000000003 11.256425
34.468873 24.570722000000004 10.879022
33.900337 25.482390000000002 12.346414000000001
22.61788 31.691239000000003 8.695487
22.269060000000003 33.840658 7.500000000000001
21.584234000000002 35.883585000000004 8.757670000000001
21.36767 35.793946 11.256425
22.568873000000004 30.520722 10.879022
22.000337000000002 31.432389999999998 12.346414000000001
28.567880000000002 31.691239000000003 8.695487
28.21906 33.840658 7.500000000000001
27.534234000000005 35.883585000000004 8.757670000000001
27.31767 35.793946 11.256425
28.518873 30.520722 10.879022
27.950337000000005 31.432389999999998 12.346414000000001
28.567880000000002 25.741239 8.695487
28.21906 27.890658000000002 7.500000000000001
27.534234000000005 29.933585 8.757670000000001
27.31767 29.843946000000003 11.256425
28.518873 24.570722000000004 10.879022
27.950337000000005 25.482390000000002 12.346414000000001
28.567880000000002 13.841239 8.695487
28.21906 15.990658000000002 7.500000000000001
27.534234000000005 18.033585000000002 8.757670000000001
27.31767 17.943946 11.256425
28.518873 12.670722000000001 10.879022
27.950337000000005 13.58239 12.346414000000001
22.61788 25.741239 8.695487
22.269060000000003 27.890658000000002 7.500000000000001
21.584234000000002 29.933585 8.757670000000001
21.36767 29.843946000000003 11.256425
22.568873000000004 24.570722000000004 10.879022
22.000337000000002 25.482390000000002 12.346414000000001
8.695487 31.691239000000003 21.005094
7.500000000000001 33.840658 21.353914000000003
8.757670000000001 35.883585000000004 22.038740000000004
11.256425 35.793946 22.255304000000002
10.879022 30.520722 21.054101000000003
12.346414000000001 31.432389999999998 21.622637000000005
8.695487 31.691239000000003 26.955094000000003
7.500000000000001 33.840658 27.303914
8.757670000000001 35.883585000000004 27.98874
11.256425 35.793946 28.205303999999998
10.879022 30.520722 27.004101
12.346414000000001 31.432389999999998 27.572637
8.695487 25.741239 15.055094
7.500000000000001 27.890658000000002 15.403914
8.757670000000001 29.933585 16.08874
11.256425 29.843946000000003 16.305304
10.879022 24.570722000000004 15.104101000000002
12.346414000000001 25.482390000000002 15.672637
8.695487 13.841239 32.905094
7.500000000000001 15.990658000000002 33.253914
8.757670000000001 18.033585000000002 33.93874
11.256425 17.943946 34.155304
10.879022 12.670722000000001 32.954101
12.346414000000001 13.58239 33.522637
8.695487 25.741239 21.005094
7.500000000000001 27.890658000000002 21.353914000000003
8.757670000000001 29.933585 22.038740000000004
11.256425 29.843946000000003 22.255304000000002
10.879022 24.570722000000004 21.054101000000003
12.346414000000001 25.482390000000002 21.622637000000005
8.695487 13.841239 21.005094
7.500000000000001 15.990658000000002 21.353914000000003
8.757670000000001 18.033585000000002 22.038740000000004
11.256425 17.943946 22.255304000000002
10.879022 12.670722000000001 21.054101000000003
12.346414000000001 13.58239 21.622637000000005
8.695487 31.691239000000003 32.905094
7.500000000000001 33.840658 33.253914
8.757670000000001 35.883585000000004 33.93874
11.256425 35.793946 34.155304
10.879022 30.520722 32.954101
12.346414000000001 31.432389999999998 33.522637
40.877487 31.691239000000003 22.61788
42.072974 33.840658 22.269060000000003