3_train/234_cspbbr3_MA-AbzO_4_0.60\234_cspbbr3_MA-AbzO_4_0.60.xyz
1.0
49.572974 0 0
0 49.572974 0
0 0 49.572974
Br C Cs H N O Pb 
180 471 61 666 111 120 64 
Cartesian
15.861487 15.861487 18.836486999999998
15.861487 15.861487 24.786487
15.861487 12.886487 27.761487000000002
15.861487 15.861487 30.736487000000004
12.886487 15.861487 33.711487
15.861487 18.836486999999998 15.861487
12.886487 21.811487 15.861487
15.861487 21.811487 18.836486999999998
15.861487 18.836486999999998 21.811487
15.861487 21.811487 24.786487
15.861487 18.836486999999998 27.761487000000002
15.861487 21.811487 30.736487000000004
15.861487 18.836486999999998 33.711487
15.861487 21.811487 36.686487
15.861487 24.786487 15.861487
15.861487 27.761487000000002 18.836486999999998
15.861487 24.786487 21.811487
12.886487 27.761487000000002 21.811487
15.861487 27.761487000000002 24.786487
15.861487 24.786487 27.761487000000002
15.861487 27.761487000000002 30.736487000000004
15.861487 24.786487 33.711487
12.886487 27.761487000000002 33.711487
15.861487 30.736487000000004 15.861487
12.886487 33.711487 15.861487
15.861487 33.711487 18.836486999999998
15.861487 30.736487000000004 21.811487
15.861487 33.711487 24.786487
15.861487 30.736487000000004 27.761487000000002
15.861487 33.711487 30.736487000000004
15.861487 30.736487000000004 33.711487
12.886487 33.711487 33.711487
15.861487 33.711487 36.686487
15.861487 36.686487 21.811487
18.836486999999998 15.861487 15.861487
21.811487 15.861487 18.836486999999998
21.811487 12.886487 21.811487
18.836486999999998 15.861487 21.811487
21.811487 15.861487 24.786487
18.836486999999998 15.861487 27.761487000000002
21.811487 15.861487 30.736487000000004
18.836486999999998 15.861487 33.711487
21.811487 15.861487 36.686487
21.811487 18.836486999999998 15.861487
18.836486999999998 21.811487 15.861487
21.811487 21.811487 18.836486999999998
21.811487 18.836486999999998 21.811487
18.836486999999998 21.811487 21.811487
21.811487 21.811487 24.786487
21.811487 18.836486999999998 27.761487000000002
18.836486999999998 21.811487 27.761487000000002
21.811487 21.811487 30.736487000000004
21.811487 18.836486999999998 33.711487
18.836486999999998 21.811487 33.711487
21.811487 24.786487 15.861487
18.836486999999998 27.761487000000002 15.861487
21.811487 27.761487000000002 18.836486999999998
21.811487 24.786487 21.811487
18.836486999999998 27.761487000000002 21.811487
21.811487 27.761487000000002 24.786487
21.811487 24.786487 27.761487000000002
18.836486999999998 27.761487000000002 27.761487000000002
21.811487 27.761487000000002 30.736487000000004
21.811487 24.786487 33.711487
18.836486999999998 27.761487000000002 33.711487
21.811487 33.711487 12.886487
21.811487 30.736487000000004 15.861487
18.836486999999998 33.711487 15.861487
21.811487 33.711487 18.836486999999998
21.811487 30.736487000000004 21.811487
18.836486999999998 33.711487 21.811487
21.811487 33.711487 24.786487
21.811487 30.736487000000004 27.761487000000002
18.836486999999998 33.711487 27.761487000000002
21.811487 33.711487 30.736487000000004
21.811487 30.736487000000004 33.711487
18.836486999999998 33.711487 33.711487
21.811487 33.711487 36.686487
21.811487 36.686487 21.811487
21.811487 36.686487 33.711487
27.761487000000002 15.861487 12.886487
27.761487000000002 12.886487 15.861487
24.786487 15.861487 15.861487
27.761487000000002 15.861487 18.836486999999998
24.786487 15.861487 21.811487
27.761487000000002 15.861487 24.786487
27.761487000000002 12.886487 27.761487000000002
24.786487 15.861487 27.761487000000002
27.761487000000002 15.861487 30.736487000000004
24.786487 15.861487 33.711487
27.761487000000002 15.861487 36.686487
27.761487000000002 21.811487 12.886487
27.761487000000002 18.836486999999998 15.861487
24.786487 21.811487 15.861487
27.761487000000002 21.811487 18.836486999999998
27.761487000000002 18.836486999999998 21.811487
24.786487 21.811487 21.811487
27.761487000000002 21.811487 24.786487
27.761487000000002 18.836486999999998 27.761487000000002
24.786487 21.811487 27.761487000000002
27.761487000000002 21.811487 30.736487000000004
27.761487000000002 18.836486999999998 33.711487
24.786487 21.811487 33.711487
27.761487000000002 21.811487 36.686487
27.761487000000002 27.761487000000002 12.886487
27.761487000000002 24.786487 15.861487
24.786487 27.761487000000002 15.861487
27.761487000000002 27.761487000000002 18.836486999999998
27.761487000000002 24.786487 21.811487
24.786487 27.761487000000002 21.811487
27.761487000000002 27.761487000000002 24.786487
27.761487000000002 24.786487 27.761487000000002
24.786487 27.761487000000002 27.761487000000002
27.761487000000002 27.761487000000002 30.736487000000004
27.761487000000002 24.786487 33.711487
24.786487 27.761487000000002 33.711487
27.761487000000002 33.711487 12.886487
27.761487000000002 30.736487000000004 15.861487
24.786487 33.711487 15.861487
27.761487000000002 33.711487 18.836486999999998
27.761487000000002 30.736487000000004 21.811487
24.786487 33.711487 21.811487
27.761487000000002 33.711487 24.786487
27.761487000000002 30.736487000000004 27.761487000000002
24.786487 33.711487 27.761487000000002
27.761487000000002 33.711487 30.736487000000004
27.761487000000002 30.736487000000004 33.711487
24.786487 33.711487 33.711487
27.761487000000002 36.686487 33.711487
30.736487000000004 15.861487 15.861487
33.711487 15.861487 18.836486999999998
33.711487 12.886487 21.811487
30.736487000000004 15.861487 21.811487
33.711487 15.861487 24.786487
33.711487 12.886487 27.761487000000002
30.736487000000004 15.861487 27.761487000000002
33.711487 15.861487 30.736487000000004
30.736487000000004 15.861487 33.711487
33.711487 21.811487 12.886487
33.711487 18.836486999999998 15.861487
30.736487000000004 21.811487 15.861487
33.711487 21.811487 18.836486999999998
33.711487 18.836486999999998 21.811487
30.736487000000004 21.811487 21.811487
33.711487 21.811487 24.786487
33.711487 18.836486999999998 27.761487000000002
30.736487000000004 21.811487 27.761487000000002
33.711487 21.811487 30.736487000000004
33.711487 18.836486999999998 33.711487
30.736487000000004 21.811487 33.711487
33.711487 24.786487 15.861487
30.736487000000004 27.761487000000002 15.861487
33.711487 27.761487000000002 18.836486999999998
33.711487 24.786487 21.811487
30.736487000000004 27.761487000000002 21.811487
33.711487 27.761487000000002 24.786487
33.711487 24.786487 27.761487000000002
30.736487000000004 27.761487000000002 27.761487000000002
33.711487 27.761487000000002 30.736487000000004
33.711487 24.786487 33.711487
30.736487000000004 27.761487000000002 33.711487
33.711487 30.736487000000004 15.861487
30.736487000000004 33.711487 15.861487
33.711487 33.711487 18.836486999999998
33.711487 30.736487000000004 21.811487
30.736487000000004 33.711487 21.811487
33.711487 33.711487 24.786487
33.711487 30.736487000000004 27.761487000000002
30.736487000000004 33.711487 27.761487000000002
33.711487 33.711487 30.736487000000004
33.711487 30.736487000000004 33.711487
30.736487000000004 33.711487 33.711487
33.711487 36.686487 15.861487
33.711487 36.686487 27.761487000000002
36.686487 15.861487 15.861487
36.686487 15.861487 27.761487000000002
36.686487 21.811487 21.811487
36.686487 21.811487 33.711487
36.686487 27.761487000000002 21.811487
36.686487 33.711487 33.711487
33.782717 17.094867 40.281516
33.924724 17.046177 38.893687
33.711487 15.861487 38.19108800000001
33.19422 14.742439000000001 40.331509000000004
33.393515 15.940559 40.991377
33.711487 15.861487 36.686487
33.406501 14.667219000000001 38.92822700000001
21.882717 23.044867000000004 40.281516
22.024724 22.996177000000003 38.893687
21.811487 21.811487 38.19108800000001
21.294220000000003 20.692439 40.331509000000004
21.493515000000002 21.890559000000003 40.991377
21.811487 21.811487 36.686487
21.506501 20.617219 38.92822700000001
27.832717000000002 28.994867 40.281516
27.974724000000002 28.946177 38.893687
27.761487000000002 27.761487000000002 38.19108800000001
27.24422 26.642439000000003 40.331509000000004
27.443515000000005 27.840559 40.991377
27.761487000000002 27.761487000000002 36.686487
27.456501000000003 26.567219 38.92822700000001
33.782717 28.994867 40.281516
33.924724 28.946177 38.893687
33.711487 27.761487000000002 38.19108800000001
33.19422 26.642439000000003 40.331509000000004
33.393515 27.840559 40.991377
33.711487 27.761487000000002 36.686487
33.406501 26.567219 38.92822700000001
15.932717 28.994867 40.281516
16.074724000000003 28.946177 38.893687
15.861487 27.761487000000002 38.19108800000001
15.344220000000002 26.642439000000003 40.331509000000004
15.543515000000001 27.840559 40.991377
15.861487 27.761487000000002 36.686487
15.556501 26.567219 38.92822700000001
33.782717 23.044867000000004 40.281516
33.924724 22.996177000000003 38.893687
33.711487 21.811487 38.19108800000001
33.19422 20.692439 40.331509000000004
33.393515 21.890559000000003 40.991377
33.711487 21.811487 36.686487
33.406501 20.617219 38.92822700000001
33.782717 34.944867 40.281516
33.924724 34.896177 38.893687
33.711487 33.711487 38.19108800000001
33.19422 32.592439 40.331509000000004
33.393515 33.790559 40.991377
33.711487 33.711487 36.686487
33.406501 32.517219 38.92822700000001
15.932717 17.094867 40.281516
16.074724000000003 17.046177 38.893687
15.861487 15.861487 38.19108800000001
15.344220000000002 14.742439000000001 40.331509000000004
15.543515000000001 15.940559 40.991377
15.861487 15.861487 36.686487
15.556501 14.667219000000001 38.92822700000001
27.832717000000002 34.944867 40.281516
27.974724000000002 34.896177 38.893687
27.761487000000002 33.711487 38.19108800000001
27.24422 32.592439 40.331509000000004
27.443515000000005 33.790559 40.991377
27.761487000000002 33.711487 36.686487
27.456501000000003 32.517219 38.92822700000001
21.882717 28.994867 40.281516
22.024724 28.946177 38.893687
21.811487 27.761487000000002 38.19108800000001
21.294220000000003 26.642439000000003 40.331509000000004
21.493515000000002 27.840559 40.991377
21.811487 27.761487000000002 36.686487
21.506501 26.567219 38.92822700000001
15.790257 23.044867000000004 9.291458
15.64825 22.996177000000003 10.679287
15.861487 21.811487 11.381886000000002
16.378754 20.692439 9.241465000000002
16.179459 21.890559000000003 8.581597
15.861487 21.811487 12.886487
16.166473000000003 20.617219 10.644747
21.740257 23.044867000000004 9.291458
21.59825 22.996177000000003 10.679287
21.811487 21.811487 11.381886000000002
22.328754000000004 20.692439 9.241465000000002
22.129459000000004 21.890559000000003 8.581597
21.811487 21.811487 12.886487
22.116473 20.617219 10.644747
15.790257 34.944867 9.291458
15.64825 34.896177 10.679287
15.861487 33.711487 11.381886000000002
16.378754 32.592439 9.241465000000002
16.179459 33.790559 8.581597
15.861487 33.711487 12.886487
16.166473000000003 32.517219 10.644747
21.740257 17.094867 9.291458
21.59825 17.046177 10.679287
21.811487 15.861487 11.381886000000002
22.328754000000004 14.742439000000001 9.241465000000002
22.129459000000004 15.940559 8.581597
21.811487 15.861487 12.886487
22.116473 14.667219000000001 10.644747
33.640257 28.994867 9.291458
33.49825 28.946177 10.679287
33.711487 27.761487000000002 11.381886000000002
34.228754 26.642439000000003 9.241465000000002
34.029459 27.840559 8.581597
33.711487 27.761487000000002 12.886487
34.016473 26.567219 10.644747
21.740257 28.994867 9.291458
21.59825 28.946177 10.679287
21.811487 27.761487000000002 11.381886000000002
22.328754000000004 26.642439000000003 9.241465000000002
22.129459000000004 27.840559 8.581597
21.811487 27.761487000000002 12.886487
22.116473 26.567219 10.644747
33.640257 17.094867 9.291458
33.49825 17.046177 10.679287
33.711487 15.861487 11.381886000000002
34.228754 14.742439000000001 9.241465000000002
34.029459 15.940559 8.581597
33.711487 15.861487 12.886487
34.016473 14.667219000000001 10.644747
15.790257 28.994867 9.291458
15.64825 28.946177 10.679287
15.861487 27.761487000000002 11.381886000000002
16.378754 26.642439000000003 9.241465000000002
16.179459 27.840559 8.581597
15.861487 27.761487000000002 12.886487
16.166473000000003 26.567219 10.644747
15.790257 17.094867 9.291458
15.64825 17.046177 10.679287
15.861487 15.861487 11.381886000000002
16.378754 14.742439000000001 9.241465000000002
16.179459 15.940559 8.581597
15.861487 15.861487 12.886487
16.166473000000003 14.667219000000001 10.644747
33.640257 34.944867 9.291458
33.49825 34.896177 10.679287
33.711487 33.711487 11.381886000000002
34.228754 32.592439 9.241465000000002
34.029459 33.790559 8.581597
33.711487 33.711487 12.886487
34.016473 32.517219 10.644747
9.291458 28.994867 27.832717000000002
10.679287 28.946177 27.974724000000002
11.381886000000002 27.761487000000002 27.761487000000002
9.241465000000002 26.642439000000003 27.24422
8.581597 27.840559 27.443515000000005
12.886487 27.761487000000002 27.761487000000002
10.644747 26.567219 27.456501000000003
9.291458 23.044867000000004 27.832717000000002
10.679287 22.996177000000003 27.974724000000002
11.381886000000002 21.811487 27.761487000000002
9.241465000000002 20.692439 27.24422
8.581597 21.890559000000003 27.443515000000005
12.886487 21.811487 27.761487000000002
10.644747 20.617219 27.456501000000003
9.291458 23.044867000000004 33.782717
10.679287 22.996177000000003 33.924724
11.381886000000002 21.811487 33.711487
9.241465000000002 20.692439 33.19422
8.581597 21.890559000000003 33.393515
12.886487 21.811487 33.711487
10.644747 20.617219 33.406501
9.291458 17.094867 15.932717
10.679287 17.046177 16.074724000000003
11.381886000000002 15.861487 15.861487
9.241465000000002 14.742439000000001 15.344220000000002
8.581597 15.940559 15.543515000000001
12.886487 15.861487 15.861487
10.644747 14.667219000000001 15.556501
9.291458 28.994867 15.932717
10.679287 28.946177 16.074724000000003
11.381886000000002 27.761487000000002 15.861487
9.241465000000002 26.642439000000003 15.344220000000002
8.581597 27.840559 15.543515000000001
12.886487 27.761487000000002 15.861487
10.644747 26.567219 15.556501
9.291458 23.044867000000004 21.882717
10.679287 22.996177000000003 22.024724
11.381886000000002 21.811487 21.811487
9.241465000000002 20.692439 21.294220000000003
8.581597 21.890559000000003 21.493515000000002
12.886487 21.811487 21.811487
10.644747 20.617219 21.506501
9.291458 17.094867 21.882717
10.679287 17.046177 22.024724
11.381886000000002 15.861487 21.811487
9.241465000000002 14.742439000000001 21.294220000000003
8.581597 15.940559 21.493515000000002
12.886487 15.861487 21.811487
10.644747 14.667219000000001 21.506501
9.291458 34.944867 21.882717
10.679287 34.896177 22.024724
11.381886000000002 33.711487 21.811487
9.241465000000002 32.592439 21.294220000000003
8.581597 33.790559 21.493515000000002
12.886487 33.711487 21.811487
10.644747 32.517219 21.506501
9.291458 17.094867 27.832717000000002
10.679287 17.046177 27.974724000000002
11.381886000000002 15.861487 27.761487000000002
9.241465000000002 14.742439000000001 27.24422
8.581597 15.940559 27.443515000000005
12.886487 15.861487 27.761487000000002
10.644747 14.667219000000001 27.456501000000003
9.291458 34.944867 27.832717000000002
10.679287 34.896177 27.974724000000002
11.381886000000002 33.711487 27.761487000000002
9.241465000000002 32.592439 27.24422
8.581597 33.790559 27.443515000000005
12.886487 33.711487 27.761487000000002
10.644747 32.517219 27.456501000000003
40.281516 17.094867 33.640257
38.893687 17.046177 33.49825
38.19108800000001 15.861487 33.711487
40.331509000000004 14.742439000000001 34.228754
40.991377 15.940559 34.029459
36.686487 15.861487 33.711487
38.92822700000001 14.667219000000001 34.016473
40.281516 34.944867 15.790257
38.893687 34.896177 15.64825
38.19108800000001 33.711487 15.861487
40.331509000000004 32.592439 16.378754
40.991377 33.790559 16.179459
36.686487 33.711487 15.861487
38.92822700000001 32.517219 16.166473000000003
40.281516 28.994867 33.640257
38.893687 28.946177 33.49825
38.19108800000001 27.761487000000002 33.711487
40.331509000000004 26.642439000000003 34.228754
40.991377 27.840559 34.029459
36.686487 27.761487000000002 33.711487
38.92822700000001 26.567219 34.016473
40.281516 34.944867 27.690257000000003
38.893687 34.896177 27.548250000000003
38.19108800000001 33.711487 27.761487000000002
40.331509000000004 32.592439 28.278754
40.991377 33.790559 28.079459
36.686487 33.711487 27.761487000000002
38.92822700000001 32.517219 28.066473000000002
40.281516 28.994867 15.790257
38.893687 28.946177 15.64825
38.19108800000001 27.761487000000002 15.861487
40.331509000000004 26.642439000000003 16.378754
40.991377 27.840559 16.179459
36.686487 27.761487000000002 15.861487
38.92822700000001 26.567219 16.166473000000003
40.281516 23.044867000000004 15.790257
38.893687 22.996177000000003 15.64825
38.19108800000001 21.811487 15.861487
40.331509000000004 20.692439 16.378754
40.991377 21.890559000000003 16.179459
36.686487 21.811487 15.861487
38.92822700000001 20.617219 16.166473000000003
40.281516 23.044867000000004 27.690257000000003
38.893687 22.996177000000003 27.548250000000003
38.19108800000001 21.811487 27.761487000000002
40.331509000000004 20.692439 28.278754
40.991377 21.890559000000003 28.079459
36.686487 21.811487 27.761487000000002
38.92822700000001 20.617219 28.066473000000002
40.281516 28.994867 27.690257000000003
38.893687 28.946177 27.548250000000003
38.19108800000001 27.761487000000002 27.761487000000002
40.331509000000004 26.642439000000003 28.278754
40.991377 27.840559 28.079459
36.686487 27.761487000000002 27.761487000000002
38.92822700000001 26.567219 28.066473000000002
40.281516 34.944867 21.740257
38.893687 34.896177 21.59825
38.19108800000001 33.711487 21.811487
40.331509000000004 32.592439 22.328754000000004
40.991377 33.790559 22.129459000000004
36.686487 33.711487 21.811487
38.92822700000001 32.517219 22.116473
40.281516 17.094867 21.740257
38.893687 17.046177 21.59825
38.19108800000001 15.861487 21.811487
40.331509000000004 14.742439000000001 22.328754000000004
40.991377 15.940559 22.129459000000004
36.686487 15.861487 21.811487
38.92822700000001 14.667219000000001 22.116473
21.882717 9.291458 17.094867
22.024724 10.679287 17.046177
21.811487 11.381886000000002 15.861487
21.294220000000003 9.241465000000002 14.742439000000001
21.493515000000002 8.581597 15.940559
21.811487 12.886487 15.861487
21.506501 10.644747 14.667219000000001
15.932717 9.291458 34.944867
16.074724000000003 10.679287 34.896177
15.861487 11.381886000000002 33.711487
15.344220000000002 9.241465000000002 32.592439
15.543515000000001 8.581597 33.790559
15.861487 12.886487 33.711487
15.556501 10.644747 32.517219
15.932717 9.291458 23.044867000000004
16.074724000000003 10.679287 22.996177000000003
15.861487 11.381886000000002 21.811487
15.344220000000002 9.241465000000002 20.692439
15.543515000000001 8.581597 21.890559000000003
15.861487 12.886487 21.811487
15.556501 10.644747 20.617219
21.882717 9.291458 34.944867
22.024724 10.679287 34.896177
21.811487 11.381886000000002 33.711487
21.294220000000003 9.241465000000002 32.592439
21.493515000000002 8.581597 33.790559
21.811487 12.886487 33.711487
21.506501 10.644747 32.517219
33.782717 9.291458 17.094867
33.924724 10.679287 17.046177
33.711487 11.381886000000002 15.861487
33.19422 9.241465000000002 14.742439000000001
33.393515 8.581597 15.940559
33.711487 12.886487 15.861487
33.406501 10.644747 14.667219000000001
27.832717000000002 9.291458 23.044867000000004
27.974724000000002 10.679287 22.996177000000003
27.761487000000002 11.381886000000002 21.811487
27.24422 9.241465000000002 20.692439
27.443515000000005 8.581597 21.890559000000003
27.761487000000002 12.886487 21.811487
27.456501000000003 10.644747 20.617219
21.882717 9.291458 28.994867
22.024724 10.679287 28.946177
21.811487 11.381886000000002 27.761487000000002
21.294220000000003 9.241465000000002 26.642439000000003
21.493515000000002 8.581597 27.840559
21.811487 12.886487 27.761487000000002
21.506501 10.644747 26.567219
33.782717 9.291458 34.944867
33.924724 10.679287 34.896177
33.711487 11.381886000000002 33.711487
33.19422 9.241465000000002 32.592439
33.393515 8.581597 33.790559
33.711487 12.886487 33.711487
33.406501 10.644747 32.517219
15.932717 9.291458 17.094867
16.074724000000003 10.679287 17.046177
15.861487 11.381886000000002 15.861487
15.344220000000002 9.241465000000002 14.742439000000001
15.543515000000001 8.581597 15.940559
15.861487 12.886487 15.861487
15.556501 10.644747 14.667219000000001
27.832717000000002 9.291458 34.944867
27.974724000000002 10.679287 34.896177
27.761487000000002 11.381886000000002 33.711487
27.24422 9.241465000000002 32.592439
27.443515000000005 8.581597 33.790559
27.761487000000002 12.886487 33.711487
27.456501000000003 10.644747 32.517219
33.782717 40.281516 20.578107000000003
33.924724 38.893687 20.626797000000003
33.711487 38.19108800000001 21.811487
33.19422 40.331509000000004 22.930535
33.393515 40.991377 21.732415000000003
33.711487 36.686487 21.811487
33.406501 38.92822700000001 23.005755
27.832717000000002 40.281516 26.528107
27.974724000000002 38.893687 26.576797
27.761487000000002 38.19108800000001 27.761487000000002
27.24422 40.331509000000004 28.880535000000002
27.443515000000005 40.991377 27.682415
27.761487000000002 36.686487 27.761487000000002
27.456501000000003 38.92822700000001 28.955755000000003
15.932717 40.281516 32.478107
16.074724000000003 38.893687 32.526797
15.861487 38.19108800000001 33.711487
15.344220000000002 40.331509000000004 34.830535
15.543515000000001 40.991377 33.632415
15.861487 36.686487 33.711487
15.556501 38.92822700000001 34.905755
33.782717 40.281516 32.478107
33.924724 38.893687 32.526797
33.711487 38.19108800000001 33.711487
33.19422 40.331509000000004 34.830535
33.393515 40.991377 33.632415
33.711487 36.686487 33.711487
33.406501 38.92822700000001 34.905755
21.882717 40.281516 14.628107
22.024724 38.893687 14.676797
21.811487 38.19108800000001 15.861487
21.294220000000003 40.331509000000004 16.980535000000003
21.493515000000002 40.991377 15.782415
21.811487 36.686487 15.861487
21.506501 38.92822700000001 17.055754999999998
21.882717 40.281516 26.528107
22.024724 38.893687 26.576797
21.811487 38.19108800000001 27.761487000000002
21.294220000000003 40.331509000000004 28.880535000000002
21.493515000000002 40.991377 27.682415
21.811487 36.686487 27.761487000000002
21.506501 38.92822700000001 28.955755000000003
27.832717000000002 40.281516 14.628107
27.974724000000002 38.893687 14.676797
27.761487000000002 38.19108800000001 15.861487
27.24422 40.331509000000004 16.980535000000003
27.443515000000005 40.991377 15.782415
27.761487000000002 36.686487 15.861487
27.456501000000003 38.92822700000001 17.055754999999998
27.832717000000002 40.281516 20.578107000000003
27.974724000000002 38.893687 20.626797000000003
27.761487000000002 38.19108800000001 21.811487
27.24422 40.331509000000004 22.930535
27.443515000000005 40.991377 21.732415000000003
27.761487000000002 36.686487 21.811487
27.456501000000003 38.92822700000001 23.005755
15.932717 40.281516 14.628107
16.074724000000003 38.893687 14.676797
15.861487 38.19108800000001 15.861487
15.344220000000002 40.331509000000004 16.980535000000003
15.543515000000001 40.991377 15.782415
15.861487 36.686487 15.861487
15.556501 38.92822700000001 17.055754999999998
15.932717 40.281516 26.528107
16.074724000000003 38.893687 26.576797
15.861487 38.19108800000001 27.761487000000002
15.344220000000002 40.331509000000004 28.880535000000002
15.543515000000001 40.991377 27.682415
15.861487 36.686487 27.761487000000002
15.556501 38.92822700000001 28.955755000000003
11.410826 18.836486999999998 30.736487000000004
37.72993700000001 24.786487 37.72993700000001
24.786487 11.843037 11.843037
38.162148 18.836486999999998 30.736487000000004
11.410826 24.786487 30.736487000000004
18.836486999999998 37.72993700000001 11.843037
24.786487 30.736487000000004 11.410826
38.162148 18.836486999999998 24.786487
38.162148 24.786487 24.786487
24.786487 11.410826 30.736487000000004
18.836486999999998 11.410826 30.736487000000004
18.836486999999998 11.410826 24.786487
24.786487 37.72993700000001 11.843037
11.843037 11.843037 24.786487
11.843037 37.72993700000001 18.836486999999998
24.786487 37.72993700000001 37.72993700000001
11.410826 18.836486999999998 24.786487
37.72993700000001 37.72993700000001 30.736487000000004
30.736487000000004 11.410826 24.786487
38.162148 30.736487000000004 30.736487000000004
24.786487 24.786487 11.410826
18.836486999999998 30.736487000000004 38.162148
11.843037 24.786487 37.72993700000001
30.736487000000004 24.786487 11.410826
30.736487000000004 30.736487000000004 11.410826
18.836486999999998 30.736487000000004 11.410826
11.410826 18.836486999999998 18.836486999999998
38.162148 24.786487 30.736487000000004
18.836486999999998 24.786487 38.162148
30.736487000000004 18.836486999999998 11.410826
24.786487 38.162148 30.736487000000004
18.836486999999998 18.836486999999998 38.162148
11.843037 11.843037 30.736487000000004
38.162148 24.786487 18.836486999999998
11.843037 30.736487000000004 37.72993700000001
37.72993700000001 37.72993700000001 24.786487
30.736487000000004 38.162148 18.836486999999998
11.410826 24.786487 24.786487
11.843037 11.843037 18.836486999999998
11.410826 30.736487000000004 24.786487
30.736487000000004 11.843037 11.843037
24.786487 24.786487 38.162148
24.786487 18.836486999999998 11.410826
37.72993700000001 30.736487000000004 37.72993700000001
30.736487000000004 37.72993700000001 11.843037
37.72993700000001 30.736487000000004 11.843037
30.736487000000004 11.410826 30.736487000000004
37.72993700000001 37.72993700000001 18.836486999999998
11.843037 18.836486999999998 37.72993700000001
11.843037 37.72993700000001 24.786487
37.72993700000001 11.843037 30.736487000000004
12.886487 18.836486999999998 12.886487
12.886487 24.786487 12.886487
12.886487 24.786487 18.836486999999998
12.886487 30.736487000000004 18.836486999999998
12.886487 30.736487000000004 30.736487000000004
12.886487 36.686487 30.736487000000004
18.836486999999998 12.886487 12.886487
18.836486999999998 12.886487 36.686487
18.836486999999998 18.836486999999998 12.886487
18.836486999999998 18.836486999999998 18.836486999999998
18.836486999999998 18.836486999999998 24.786487
18.836486999999998 18.836486999999998 30.736487000000004
18.836486999999998 24.786487 12.886487
18.836486999999998 24.786487 18.836486999999998
18.836486999999998 24.786487 24.786487
18.836486999999998 24.786487 30.736487000000004
18.836486999999998 30.736487000000004 18.836486999999998
18.836486999999998 30.736487000000004 24.786487
18.836486999999998 30.736487000000004 30.736487000000004
18.836486999999998 36.686487 18.836486999999998
18.836486999999998 36.686487 24.786487
18.836486999999998 36.686487 30.736487000000004
18.836486999999998 36.686487 36.686487
24.786487 12.886487 18.836486999999998
24.786487 12.886487 24.786487
24.786487 12.886487 36.686487
24.786487 18.836486999999998 18.836486999999998
24.786487 18.836486999999998 24.786487
24.786487 18.836486999999998 30.736487000000004
24.786487 18.836486999999998 36.686487
24.786487 24.786487 18.836486999999998
24.786487 24.786487 24.786487
24.786487 24.786487 30.736487000000004
24.786487 30.736487000000004 18.836486999999998
24.786487 30.736487000000004 24.786487
24.786487 30.736487000000004 30.736487000000004
24.786487 30.736487000000004 36.686487
24.786487 36.686487 24.786487
30.736487000000004 12.886487 18.836486999999998
30.736487000000004 12.886487 36.686487
30.736487000000004 18.836486999999998 18.836486999999998
30.736487000000004 18.836486999999998 24.786487
30.736487000000004 18.836486999999998 30.736487000000004
30.736487000000004 24.786487 18.836486999999998
30.736487000000004 24.786487 24.786487
30.736487000000004 24.786487 30.736487000000004
30.736487000000004 24.786487 36.686487
30.736487000000004 30.736487000000004 18.836486999999998
30.736487000000004 30.736487000000004 24.786487
30.736487000000004 30.736487000000004 30.736487000000004
30.736487000000004 30.736487000000004 36.686487
30.736487000000004 36.686487 30.736487000000004
30.736487000000004 36.686487 36.686487
36.686487 12.886487 18.836486999999998
36.686487 12.886487 24.786487
36.686487 18.836486999999998 12.886487
36.686487 18.836486999999998 18.836486999999998
36.686487 18.836486999999998 36.686487
36.686487 24.786487 12.886487
36.686487 30.736487000000004 18.836486999999998
36.686487 30.736487000000004 24.786487
32.905094 13.841239 40.877487
33.253914 15.990658000000002 42.072974
33.93874 18.033585000000002 40.815304
34.155304 17.943946 38.316549
32.954101 12.670722000000001 38.693952
33.522637 13.58239 37.22656
21.005094 19.791239 40.877487
21.353914000000003 21.940658 42.072974
22.038740000000004 23.983585000000005 40.815304
22.255304000000002 23.893946 38.316549
21.054101000000003 18.620722 38.693952
21.622637000000005 19.53239 37.22656
26.955094000000003 25.741239 40.877487
27.303914 27.890658000000002 42.072974
27.98874 29.933585 40.815304
28.205303999999998 29.843946000000003 38.316549
27.004101 24.570722000000004 38.693952
27.572637 25.482390000000002 37.22656
32.905094 25.741239 40.877487
33.253914 27.890658000000002 42.072974
33.93874 29.933585 40.815304
34.155304 29.843946000000003 38.316549
32.954101 24.570722000000004 38.693952
33.522637 25.482390000000002 37.22656
15.055094 25.741239 40.877487
15.403914 27.890658000000002 42.072974
16.08874 29.933585 40.815304