3_train/224_cspbbr3_MA-BzO_3_0.40\224_cspbbr3_MA-BzO_3_0.40.xyz
1.0
43.838651999999996 0 0
0 43.838651999999996 0
0 0 43.838651999999996
Br C Cs H N O Pb 
84 187 35 234 19 48 27 
Cartesian
15.969325999999999 12.994326 15.969325999999999
12.994326 15.969325999999999 15.969325999999999
15.969325999999999 15.969325999999999 18.944325999999997
15.969325999999999 15.969325999999999 24.894326
15.969325999999999 12.994326 27.869326
12.994326 15.969325999999999 27.869326
15.969325999999999 21.919325999999998 12.994326
15.969325999999999 18.944325999999997 15.969325999999999
12.994326 21.919325999999998 15.969325999999999
15.969325999999999 21.919325999999998 18.944325999999997
15.969325999999999 18.944325999999997 21.919325999999998
12.994326 21.919325999999998 21.919325999999998
15.969325999999999 21.919325999999998 24.894326
15.969325999999999 18.944325999999997 27.869326
12.994326 21.919325999999998 27.869326
15.969325999999999 27.869326 12.994326
15.969325999999999 24.894326 15.969325999999999
15.969325999999999 27.869326 18.944325999999997
15.969325999999999 24.894326 21.919325999999998
15.969325999999999 27.869326 24.894326
15.969325999999999 24.894326 27.869326
15.969325999999999 27.869326 30.844326000000002
15.969325999999999 30.844326000000002 21.919325999999998
15.969325999999999 30.844326000000002 27.869326
21.919325999999998 12.994326 15.969325999999999
18.944325999999997 15.969325999999999 15.969325999999999
21.919325999999998 15.969325999999999 18.944325999999997
18.944325999999997 15.969325999999999 21.919325999999998
21.919325999999998 15.969325999999999 24.894326
21.919325999999998 12.994326 27.869326
18.944325999999997 15.969325999999999 27.869326
21.919325999999998 21.919325999999998 12.994326
21.919325999999998 18.944325999999997 15.969325999999999
18.944325999999997 21.919325999999998 15.969325999999999
21.919325999999998 21.919325999999998 18.944325999999997
21.919325999999998 18.944325999999997 21.919325999999998
18.944325999999997 21.919325999999998 21.919325999999998
21.919325999999998 21.919325999999998 24.894326
21.919325999999998 18.944325999999997 27.869326
18.944325999999997 21.919325999999998 27.869326
21.919325999999998 21.919325999999998 30.844326000000002
21.919325999999998 27.869326 12.994326
21.919325999999998 24.894326 15.969325999999999
18.944325999999997 27.869326 15.969325999999999
21.919325999999998 27.869326 18.944325999999997
21.919325999999998 24.894326 21.919325999999998
18.944325999999997 27.869326 21.919325999999998
21.919325999999998 27.869326 24.894326
21.919325999999998 24.894326 27.869326
18.944325999999997 27.869326 27.869326
21.919325999999998 27.869326 30.844326000000002
21.919325999999998 30.844326000000002 27.869326
27.869326 15.969325999999999 12.994326
27.869326 12.994326 15.969325999999999
24.894326 15.969325999999999 15.969325999999999
27.869326 15.969325999999999 18.944325999999997
24.894326 15.969325999999999 21.919325999999998
27.869326 15.969325999999999 24.894326
24.894326 15.969325999999999 27.869326
27.869326 15.969325999999999 30.844326000000002
27.869326 18.944325999999997 15.969325999999999
24.894326 21.919325999999998 15.969325999999999
27.869326 21.919325999999998 18.944325999999997
27.869326 18.944325999999997 21.919325999999998
24.894326 21.919325999999998 21.919325999999998
27.869326 21.919325999999998 24.894326
27.869326 18.944325999999997 27.869326
24.894326 21.919325999999998 27.869326
27.869326 21.919325999999998 30.844326000000002
27.869326 24.894326 15.969325999999999
24.894326 27.869326 15.969325999999999
27.869326 27.869326 18.944325999999997
27.869326 24.894326 21.919325999999998
24.894326 27.869326 21.919325999999998
27.869326 27.869326 24.894326
27.869326 24.894326 27.869326
24.894326 27.869326 27.869326
27.869326 30.844326000000002 15.969325999999999
27.869326 30.844326000000002 27.869326
30.844326000000002 15.969325999999999 21.919325999999998
30.844326000000002 21.919325999999998 15.969325999999999
30.844326000000002 27.869326 15.969325999999999
30.844326000000002 27.869326 21.919325999999998
30.844326000000002 27.869326 27.869326
15.709123 14.799976999999998 34.554175
15.712876 14.778144999999999 33.155752
15.969325999999999 15.969325999999999 32.478695
16.215739999999997 17.163621999999997 34.542055
15.958699 15.986291 35.246705
15.969325999999999 15.969325999999999 30.844326000000002
16.223139 17.167516999999997 33.144039
27.284801 26.823662 34.554175
27.282138000000003 26.80167 33.155752
27.869326 27.869326 32.478695
28.447792999999997 28.942843000000003 34.542055
27.864009000000003 27.888624999999998 35.246705
27.869326 27.869326 30.844326000000002
28.455998 28.944453000000003 33.144039
22.062626 17.158673 34.554175
22.056731999999997 17.180028 33.155752
21.919325999999998 15.969325999999999 32.478695
21.792214 14.756516999999999 34.542055
21.931578000000002 15.953494999999998 35.246705
21.919325999999998 15.969325999999999 30.844326000000002
21.785235999999998 14.751909 33.144039
15.660711999999998 23.076839999999997 34.554175
15.64731 23.094479 33.155752
15.969325999999999 21.919325999999998 32.478695
16.301682999999997 20.74604 34.542055
15.986581 21.909177 35.246705
15.969325999999999 21.919325999999998 30.844326000000002
16.296915 20.73917 33.144039
27.415242999999997 28.977879 9.284476999999999
27.415252000000002 29.000031999999997 10.6829
27.869326 27.869326 11.359957
28.314034999999997 26.733854 9.296596999999998
27.861719 27.850808999999998 8.591947
27.869326 27.869326 12.994326
28.321986000000003 26.731265 10.694612999999999
15.185840999999998 16.875545 9.284476999999999
15.178793999999998 16.896546999999998 10.6829
15.969325999999999 15.969325999999999 11.359957
16.752498 15.034604999999999 9.296596999999998
15.968013 15.949350999999998 8.591947
15.969325999999999 15.969325999999999 12.994326
16.76086 15.034683 10.694612999999999
20.808484 16.417780999999998 9.284476999999999
20.792625 16.433248999999996 10.6829
21.919325999999998 15.969325999999999 11.359957
23.042904 15.49537 9.296596999999998
21.927279 15.950954999999999 8.591947
21.919325999999998 15.969325999999999 12.994326
23.050308 15.499258 10.694612999999999
28.776839000000002 21.137340000000002 9.284476999999999
28.786879 21.117593 10.6829
27.869326 21.919325999999998 11.359957
26.957957999999998 22.729554999999998 9.296596999999998
27.867706 21.939279 8.591947
27.869326 21.919325999999998 12.994326
26.949697 22.728254999999997 10.694612999999999
9.284476999999999 26.779935000000002 22.417633000000002
10.6829 26.764792999999997 22.433802
11.359957 27.869326 21.919325999999998
9.296596999999998 28.970284999999997 21.394968
8.591947 27.876438999999998 21.900613999999997
12.994326 27.869326 21.919325999999998
10.694612999999999 28.977857 21.398517
9.284476999999999 29.040915999999996 15.719408999999999
10.6829 29.059207999999998 15.706911999999999
11.359957 27.869326 15.969325999999999
9.296596999999998 26.680788 16.242162
8.591947 27.858320999999997 15.986047999999998
12.994326 27.869326 15.969325999999999
10.694612999999999 26.674166999999997 16.237054
9.284476999999999 28.548285 26.882362999999998
10.6829 28.552976 26.860712
11.359957 27.869326 27.869326
9.296596999999998 27.193815999999998 28.884583999999997
8.591947 27.872830999999998 27.889035
12.994326 27.869326 27.869326
10.694612999999999 27.185496 28.885427
9.284476999999999 15.146481 21.04869
10.6829 15.126292999999999 21.039566999999998
11.359957 15.969325999999999 21.919325999999998
9.296596999999998 16.820560999999998 22.792516
8.591947 15.989332 21.920028000000002
12.994326 15.969325999999999 21.919325999999998
10.694612999999999 16.819642 22.800828000000003
34.554175 17.057021 27.367328999999998
33.155752 17.079152999999998 27.366372
32.478695 15.969325999999999 27.869326
34.542055 14.854329 28.363132
35.246705 15.950494999999998 27.862533999999997
30.844326000000002 15.969325999999999 27.869326
33.144039 14.852089 28.371187999999997
34.554175 21.783383 23.109537000000003
33.155752 21.772705000000002 23.128946
32.478695 21.919325999999998 21.919325999999998
34.542055 22.076448999999997 20.710039000000002
35.246705 21.934910000000002 21.906762
30.844326000000002 21.919325999999998 21.919325999999998
33.144039 22.070728000000003 20.703941
34.554175 20.731884 27.711013
33.155752 20.712677999999997 27.699972000000002
32.478695 21.919325999999998 27.869326
34.542055 23.125442 28.049174
35.246705 21.931595 27.885143999999997
30.844326000000002 21.919325999999998 27.869326
33.144039 23.131647 28.043568
34.554175 17.030485 15.413426999999999
33.155752 17.052540999999998 15.411361
32.478695 15.969325999999999 15.969325999999999
34.542055 14.880488999999999 16.518413
35.246705 15.950178 15.963486999999999
30.844326000000002 15.969325999999999 15.969325999999999
33.144039 14.878656 16.526572
15.395496999999999 9.284476999999999 20.867755
15.393056999999999 10.6829 20.845737
15.969325999999999 11.359957 21.919325999999998
16.536814 9.296596999999998 22.998686999999997
15.963813 8.591947 21.93857
15.969325999999999 12.994326 21.919325999999998
16.545003 10.694612999999999 23.000380999999997
28.223081999999998 9.284476999999999 20.774800999999997
28.237164999999997 10.6829 20.757700999999997
27.869326 11.359957 21.919325999999998
27.491227000000002 9.296596999999998 23.078681000000003
27.851686 8.591947 21.928790999999997
27.869326 12.994326 21.919325999999998
27.495722 10.694612999999999 23.085732
21.828707 9.284476999999999 20.724809
21.835538 10.6829 20.703736
21.919325999999998 11.359957 21.919325999999998
21.992736999999998 9.296596999999998 23.136566000000002
21.906385999999998 8.591947 21.934600000000003
21.919325999999998 12.994326 21.919325999999998
21.999504 10.694612999999999 23.141478
28.164339 9.284476999999999 26.708271000000003
28.177532999999997 10.6829 26.690475999999997
27.869326 11.359957 27.869326
27.550756999999997 9.296596999999998 29.046431
27.852190999999998 8.591947 27.879677
27.869326 12.994326 27.869326
27.555605 10.694612999999999 29.053244
22.567248 34.554175 16.976937
22.585403 33.155752 16.98963
21.919325999999998 32.478695 15.969325999999999
21.243975 34.542055 14.953963
21.899794 35.246705 15.964941999999999
21.919325999999998 30.844326000000002 15.969325999999999
21.246412 33.144039 14.945962999999999
28.465078 34.554175 20.880018
28.467978000000002 33.155752 20.858055999999998
27.869326 32.478695 21.919325999999998
27.279331 34.542055 22.986551
27.874435 35.246705 21.938682
27.869326 30.844326000000002 21.919325999999998
27.271109000000003 33.144039 22.988073
22.954101 34.554175 21.315734999999997
22.967570000000002 33.155752 21.298147
21.919325999999998 32.478695 21.919325999999998
20.875614999999996 34.542055 22.549985
21.914099 35.246705 21.938650000000003
21.919325999999998 30.844326000000002 21.919325999999998
20.867728999999997 33.144039 22.547202
15.778529999999998 34.554175 14.786669
15.766967 33.155752 14.767773
15.969325999999999 32.478695 15.969325999999999
16.18216 34.542055 17.170060999999997
15.985473999999998 35.246705 15.981157
15.969325999999999 30.844326000000002 15.969325999999999
16.176727 33.144039 17.176417
31.887776000000002 11.950876 18.944325999999997
31.887776000000002 18.944325999999997 31.887776000000002
24.894326 31.887776000000002 31.887776000000002
11.950876 11.950876 18.944325999999997
24.894326 11.950876 11.950876
18.944325999999997 18.944325999999997 11.518664999999999
11.950876 31.887776000000002 18.944325999999997
18.944325999999997 24.894326 32.319987
24.894326 11.518664999999999 18.944325999999997
31.887776000000002 18.944325999999997 11.950876
11.518664999999999 24.894326 24.894326
32.319987 24.894326 24.894326
18.944325999999997 24.894326 11.518664999999999
31.887776000000002 24.894326 11.950876
31.887776000000002 24.894326 31.887776000000002
24.894326 32.319987 24.894326
24.894326 11.518664999999999 24.894326
31.887776000000002 11.950876 24.894326
31.887776000000002 31.887776000000002 24.894326
12.994326 12.994326 24.894326
12.994326 18.944325999999997 12.994326
12.994326 18.944325999999997 18.944325999999997
12.994326 18.944325999999997 24.894326
12.994326 18.944325999999997 30.844326000000002
12.994326 24.894326 12.994326
12.994326 24.894326 18.944325999999997
12.994326 24.894326 30.844326000000002
12.994326 30.844326000000002 24.894326
18.944325999999997 12.994326 12.994326
18.944325999999997 12.994326 18.944325999999997
18.944325999999997 12.994326 24.894326
18.944325999999997 12.994326 30.844326000000002
18.944325999999997 18.944325999999997 18.944325999999997
18.944325999999997 18.944325999999997 24.894326
18.944325999999997 18.944325999999997 30.844326000000002
18.944325999999997 24.894326 18.944325999999997
18.944325999999997 24.894326 24.894326
18.944325999999997 30.844326000000002 12.994326
18.944325999999997 30.844326000000002 18.944325999999997
18.944325999999997 30.844326000000002 24.894326
18.944325999999997 30.844326000000002 30.844326000000002
24.894326 12.994326 30.844326000000002
24.894326 18.944325999999997 12.994326
24.894326 18.944325999999997 18.944325999999997
24.894326 18.944325999999997 24.894326
24.894326 24.894326 12.994326
24.894326 24.894326 18.944325999999997
24.894326 24.894326 24.894326
24.894326 24.894326 30.844326000000002
24.894326 30.844326000000002 12.994326
30.844326000000002 18.944325999999997 18.944325999999997
30.844326000000002 18.944325999999997 24.894326
30.844326000000002 24.894326 18.944325999999997
30.844326000000002 30.844326000000002 18.944325999999997
16.412646 18.096665 35.074540999999996
15.951960999999999 15.993048 36.338651999999996
15.506998 13.873937999999999 35.097378
15.520988 13.85911 32.605855999999996
16.419385 18.077871000000002 32.582131
28.903931 29.780267000000002 35.074540999999996
27.859491 27.897031 36.338651999999996
26.825671 25.994444 35.097378
26.834823 25.976227 32.605855999999996
28.904998999999997 29.760329999999996 32.582131
21.688533999999997 13.808575999999999 35.074540999999996
21.938952 15.947436999999999 36.338651999999996
22.172192000000003 18.100161 35.097378
22.156804 18.113532999999997 32.605855999999996
21.679969999999997 13.826611999999999 32.582131
16.557436 19.827382 35.074540999999996
15.995676999999999 21.906291000000003 36.338651999999996
15.412819999999998 23.991692 35.097378
15.393567 23.998393 32.605855999999996
16.542786999999997 19.840947 32.582131
28.665796 25.84751 8.764111
27.85622 27.84301 7.499999999999999
27.059520999999997 29.856439 8.741273999999999
27.070805 29.873418 11.232795999999999
28.669262000000003 25.867173 11.256521
17.368221 14.306437999999998 8.764111
15.965283 15.940205999999998 7.499999999999999
14.568841999999998 17.595070999999997 8.741273999999999
14.574131 17.614759 11.232795999999999
17.365245 14.326181 11.256521
23.923191000000003 15.128713 8.764111
21.929026 15.941574 7.499999999999999
19.931009 16.776169 8.741273999999999
19.926723 16.796098999999998 11.232795999999999
23.911527999999997 15.144917999999999 11.256521
26.242427999999997 23.359918 8.764111
27.86907 21.948724 7.499999999999999
29.492368 20.515711 8.741273999999999
29.490012999999998 20.495461 11.232795999999999
26.248257000000002 23.340822000000003 11.256521
8.764111 29.833061999999998 20.988819
7.499999999999999 27.877758999999998 21.891163
8.741273999999999 25.919592 22.815393999999998
11.232795999999999 25.916213999999997 22.835498
11.256521 29.822145 21.005535
8.764111 25.750414 16.451318
7.499999999999999 27.854979999999998 15.994987
8.741273999999999 29.967093 15.517912999999998
11.232795999999999 29.974755000000002 15.499020999999999
11.256521 25.764699999999998 16.43737
8.764111 26.661997999999997 29.676108999999997
7.499999999999999 27.87655 27.897823000000002
8.741273999999999 29.082321999999998 26.099286
11.232795999999999 29.074897999999997 26.080298999999997
11.256521 26.662782999999997 29.656157999999998
8.764111 17.483125 23.478337000000003
7.499999999999999 15.998703999999998 21.918231
8.741273999999999 14.492641999999998 20.362468999999997
11.232795999999999 14.472520999999999 20.365751
11.256521 17.463782000000002 23.473391
35.074540999999996 13.984169 28.753213000000002
36.338651999999996 15.942464 27.85738
35.097378 17.919230999999996 26.97363
32.605855999999996 17.936686 26.984161999999998
32.582131 14.003964 28.755817999999998
35.074540999999996 22.195047000000002 19.763849
36.338651999999996 21.943486 21.902576000000003
35.097378 21.672005 24.050812
32.605855999999996 21.653939 24.060257999999997
32.582131 22.182540000000003 19.779412
35.074540999999996 24.069234 28.185553
36.338651999999996 21.935619000000003 27.893797
35.097378 19.792870999999998 27.581944999999997
32.605855999999996 19.783766 27.563705
32.582131 24.053908999999997 28.172755000000002
35.074540999999996 14.030980999999999 16.951631
36.338651999999996 15.941899 15.958741999999999
35.097378 17.871871 14.976994999999999
32.605855999999996 17.889832 14.986638
32.582131 14.050882 16.95324
16.984386999999998 8.764111 23.840719999999997
15.959209 7.499999999999999 21.946928999999997
14.944847 8.741273999999999 20.033896999999996
14.954184999999999 11.232795999999999 20.015774
16.985659 11.256521 23.820794999999997
27.199655 8.764111 23.986606000000002
27.842484 7.499999999999999 21.931317999999997
28.506649000000003 8.741273999999999 19.87037
28.526151 11.232795999999999 19.864429
27.214824999999998 11.256521 23.973625
22.054439000000002 8.764111 24.088161999999997
21.898752 7.499999999999999 21.940326
21.760838 8.741273999999999 19.7794
21.776802000000004 11.232795999999999 19.766720999999997
22.063792 11.256521 24.070521999999997
27.305799 8.764111 29.968026000000002
27.843130000000002 7.499999999999999 27.882669999999997
28.401480999999997 8.741273999999999 25.790574
28.420654 11.232795999999999 25.783647000000002
27.320287999999998 11.256521 29.954288999999996
20.719448999999997 35.074540999999996 14.157587
21.890251 36.338651999999996 15.964977
23.083123999999998 35.097378 17.772094
23.103505 32.605855999999996 17.772584000000002
20.737546000000002 32.582131 14.16602
26.814200999999997 35.074540999999996 23.819014000000003
27.878861999999998 36.338651999999996 21.947135000000003
28.933112 35.097378 20.055791999999997
28.924157 32.605855999999996 20.037478
26.813347999999998 32.582131 23.799067
20.057229999999997 35.074540999999996 23.039461000000003
21.913719 36.338651999999996 21.948185000000002
23.770894 35.097378 20.834846
23.772267999999997 32.605855999999996 20.814506
20.066440999999998 32.582131 23.021746999999998
16.344352999999998 35.074540999999996 18.10976
15.994233999999999 36.338651999999996 15.984941999999998
15.623776999999999 35.097378 13.851545
15.605293999999999 32.605855999999996 13.842944
16.331139999999998 32.582131 18.094791999999998
32.857576 12.448440999999999 19.003856999999996
31.720596999999998 11.311461999999999 19.813135
31.793507999999996 11.384371999999999 18.015985999999998
29.903177 12.583143 18.889462
30.951023999999997 13.630989 18.143628
30.883829 13.563794 19.799889
32.74966 19.489264999999996 31.498126999999997
31.477305 19.438260999999997 32.770482
32.144716 17.905453 32.103071
30.002634 18.442107 31.156053
31.175243000000002 18.489112999999996 29.983444
30.560153 19.901756999999996 30.598532999999996
24.282837999999998 31.529668 32.718119
25.927844 32.046548 32.201239
24.472296 32.795465 31.452323
25.457876 31.126984999999998 30.031701999999996
23.941830000000003 30.650624999999998 30.508060999999998
25.283271999999997 29.96042 31.198265999999997
12.090585999999998 11.338930999999999 18.051223
12.073756999999999 11.35576 19.851169999999996
10.979932999999999 12.449582999999999 18.930585
12.912944 13.605673 19.767414000000002
12.928453999999999 13.590162999999999 18.108573999999997
13.936527 12.582089999999999 18.956989999999998
23.862627000000003 11.80342 11.626097
25.518763 12.302211999999999 11.127305
25.301588000000002 11.038644 12.390873
25.845145000000002 13.177598 13.341019
24.318841999999997 12.717908999999999 13.800709
24.518991 13.88242 12.636198
18.986356999999998 17.905886 11.184743999999998
18.023995 19.427146 11.184743999999998
19.822626 19.499946 11.184743999999998
18.905589999999997 19.901358000000002 13.369067999999999
19.792507999999998 18.499356 13.369067999999999
18.13488 18.432263999999996 13.369067999999999
11.070215999999999 31.479351 19.443579
12.342759 32.751894 19.484099999999998
11.731300999999998 32.140436 17.905299
13.853323 31.173356999999996 18.484211000000002
12.680539999999999 30.000574999999998 18.446868000000002
13.244062999999999 30.564098 19.901899
19.132554999999996 23.872222999999998 32.653908
19.735379000000002 25.568389000000003 32.653908
17.965044 25.242365999999997 32.653908
18.770853 25.836301 30.469583999999998
18.215288 24.273106 30.469583999999998
19.846837 24.573571 30.469583999999998
25.619003 11.184743999999998 19.689287999999998
23.886832 11.184743999999998 19.199433999999997
25.177143 11.184743999999998 17.944256
24.226460000000003 13.369067999999999 18.257765
25.822837999999997 13.369067999999999 18.709217
24.63368 13.369067999999999 19.865994999999998
32.856728 18.866652000000002 12.447593
31.709910999999998 18.085628 11.300775999999999
31.805042 19.880698 11.395907
29.903959999999998 19.015911 12.583924999999999
30.960872000000002 19.735706 13.640837
30.873198000000002 18.081361 13.553163999999999
11.184743999999998 24.554367 25.876443000000002
11.184743999999998 25.914842999999998 24.697681000000003
11.184743999999998 24.213768 24.108855
13.369067999999999 25.207634 23.989202
13.369067999999999 23.953812 25.075555
13.369067999999999 25.521532 25.61822
32.653908 25.259084 25.867505
32.653908 23.869149999999998 24.723626000000003
32.653908 25.554744999999997 24.091847
30.469583999999998 24.558163999999998 23.997439
30.469583999999998 25.839134 25.051644000000003
30.469583999999998 24.28568 25.633893999999998
17.95174 25.202379999999998 11.184743999999998
19.707402000000002 25.599904000000002 11.184743999999998
19.173836 23.880694 11.184743999999998
19.859099 24.610421000000002 13.369067999999999
18.241070999999998 24.244062 13.369067999999999
18.732808999999996 25.828494999999997 13.369067999999999
31.989497 23.872563 11.580362
31.565391999999996 25.569809 11.156257
32.816792 25.240606 12.407656
30.703204 25.835988 13.383168999999999
31.094060999999996 24.271797 13.774026
29.940765 24.575193 12.620729999999998
32.190343999999996 25.929358999999998 32.057443
31.456843 24.458194 32.790943999999996
32.724494 24.295425 31.523293000000002
30.518102999999996 23.940434000000003 30.640583999999997
31.194100999999996 25.296267999999998 29.964585999999997
30.025826000000002 25.446275999999997 31.13286
24.036268999999997 32.653908 25.480724000000002
25.83119 32.653908 25.344226
24.815519000000002 32.653908 23.858027999999997
25.685116 30.469583999999998 24.353898
24.030907 30.469583999999998 24.479695999999997
24.966955 30.469583999999998 25.849384
24.766624999999998 11.184743999999998 25.925741000000002
24.064945 11.184743999999998 24.268026
25.851408 11.184743999999998 24.489210999999997
25.012016000000003 13.369067999999999 23.943768
25.658687999999998 13.369067999999999 25.471527000000002
24.012273999999998 13.369067999999999 25.267682
31.805996999999998 11.396861999999999 23.957304999999998
32.856648 12.447512999999999 24.973494000000002
31.709035999999998 11.299900999999998 25.752178999999998
30.872318 13.552283999999998 25.757890000000003
29.904033 12.583998999999999 24.821364000000003
30.961678 13.641644 24.103724999999997
31.508161 32.739627 25.461663
32.779181 31.468606 25.364773999999997
32.084339 32.163449 23.856541999999997
31.146805999999998 30.011881000000002 24.371465
29.975426999999996 31.183259999999997 24.460759000000003
30.615797 30.542889000000002 25.850752999999997
30.844326000000002 12.994326 18.944325999999997
30.844326000000002 18.944325999999997 30.844326000000002
24.894326 30.844326000000002 30.844326000000002
12.994326 12.994326 18.944325999999997
24.894326 12.994326 12.994326
18.944325999999997 18.944325999999997 12.994326
12.994326 30.844326000000002 18.944325999999997
18.944325999999997 24.894326 30.844326000000002
24.894326 12.994326 18.944325999999997
30.844326000000002 18.944325999999997 12.994326
12.994326 24.894326 24.894326
30.844326000000002 24.894326 24.894326
18.944325999999997 24.894326 12.994326
30.844326000000002 24.894326 12.994326
30.844326000000002 24.894326 30.844326000000002
24.894326 30.844326000000002 24.894326
24.894326 12.994326 24.894326
30.844326000000002 12.994326 24.894326
30.844326000000002 30.844326000000002 24.894326
15.734357999999999 14.829431 30.411575999999997
16.202043 17.107146 30.40587
27.317421000000003 26.844645 30.411575999999997
28.418480000000002 28.892664000000003 30.40587
22.040427 17.126869 30.411575999999997
21.800258999999997 14.814070999999998 30.40587
15.651912 23.039067000000003 30.411575999999997
16.287779999999998 20.802464999999998 30.40587
27.445092000000002 28.953114 13.427076
28.290990999999998 26.787202999999998 13.432782
15.222022999999998 16.861575000000002 13.427076
16.713664 15.077836999999999 13.432782
20.847053 16.421875999999997 13.427076
22.988614 15.516098999999999 13.432782
28.739002999999997 21.145871 13.427076
27.002693 22.692462 13.432782
13.427076 26.818649999999998 22.419976
13.432782 28.916989 21.418134
13.427076 29.003633 15.708715999999999
13.432782 26.737842 16.231119
13.427076 28.51386 26.900230999999998
13.432782 27.227655 28.837339
13.427076 15.156740999999998 21.086092999999998
13.432782 16.781453 22.749532000000002
30.411575999999997 17.033580999999998 27.398229999999998
30.40587 14.906621999999999 28.337783
30.411575999999997 21.769150000000003 23.073456999999998
30.40587 22.070951 20.767891999999996
30.411575999999997 20.768225 27.697462
30.40587 23.067704 28.042588000000002
30.411575999999997 17.008623999999998 15.445464
30.40587 14.931446 16.490474
15.427900999999999 13.427076 20.889069
16.508014 13.432782 22.948211999999998
28.230395 13.427076 20.81289
27.507331999999998 13.432782 23.022844
21.849479000000002 13.427076 20.757564000000002
21.987242000000002 13.432782 23.078713
28.173582000000003 13.427076 26.745939
27.563997 13.432782 28.989846
22.564071 30.411575999999997 16.938282
21.274473 30.40587 15.00343
28.432234 30.411575999999997 20.900647999999997
27.309182999999997 30.40587 22.936691000000003
22.915345000000002 30.411575999999997 21.317231999999997
20.926358999999998 30.40587 22.521662
15.765979999999999 30.411575999999997 14.823367
16.173994999999998 30.40587 17.112524
15.969325999999999 15.969325999999999 15.969325999999999
15.969325999999999 15.969325999999999 21.919325999999998
15.969325999999999 15.969325999999999 27.869326
15.969325999999999 21.919325999999998 15.969325999999999
15.969325999999999 21.919325999999998 21.919325999999998
15.969325999999999 21.919325999999998 27.869326
15.969325999999999 27.869326 15.969325999999999
15.969325999999999 27.869326 21.919325999999998
15.969325999999999 27.869326 27.869326
21.919325999999998 15.969325999999999 15.969325999999999
21.919325999999998 15.969325999999999 21.919325999999998
21.919325999999998 15.969325999999999 27.869326
21.919325999999998 21.919325999999998 15.969325999999999
21.919325999999998 21.919325999999998 21.919325999999998
21.919325999999998 21.919325999999998 27.869326
21.919325999999998 27.869326 15.969325999999999
21.919325999999998 27.869326 21.919325999999998
21.919325999999998 27.869326 27.869326
27.869326 15.969325999999999 15.969325999999999
27.869326 15.969325999999999 21.919325999999998
27.869326 15.969325999999999 27.869326
27.869326 21.919325999999998 15.969325999999999
27.869326 21.919325999999998 21.919325999999998
27.869326 21.919325999999998 27.869326
27.869326 27.869326 15.969325999999999
27.869326 27.869326 21.919325999999998
27.869326 27.869326 27.869326
