1_train/72_cspbbr3_methylammonium_4_0.40\72_cspbbr3_methylammonium_4_0.40.xyz
1.0
47.853692 0 0
0 47.853692 0
0 0 47.853692
Br C Cs H N Pb 
240 34 78 204 34 64 
Cartesian
35.844896999999996 21.053365999999997 21.187979
24.180092000000002 27.004406000000003 20.862929
26.919974000000003 24.026608000000003 26.674816999999997
35.728541 20.938654999999997 26.737091
23.935679 26.695698999999998 26.753470999999998
35.836113 20.850341999999998 15.235470000000001
26.944212999999998 26.961031 29.623407
27.012900000000002 27.136007 23.981448
35.633473 14.908715 32.871967
23.789048 26.874477 33.019778
27.04148 24.079409 21.002634999999998
26.874011000000003 26.961737999999997 35.587793999999995
35.746058 15.149768 26.815392000000003
26.790852 32.975714 12.191038
27.079422 29.761901 15.183615000000001
35.900134 15.264106 21.017463
24.048282999999998 32.758395 14.833296
36.022922 14.956429000000002 14.904153
27.057367 32.91007 18.089084
26.818056 29.776361 20.806294
24.108845000000002 32.860491 20.860579
33.08473 35.860738 32.80806
27.055856 32.996774 23.761127000000002
27.006796 23.818164000000003 32.725625
26.781841 26.884915 17.824194
26.790376000000002 23.763041 14.962751
23.84888 26.844911000000003 14.749654000000001
24.168667999999997 15.114483000000002 26.847504
35.783364 33.1251 32.818312
26.712837 15.155115 29.962576
27.012932999999997 12.023244 32.587286
35.608194 33.018123 26.945012
23.985778000000003 15.033101 33.100881
27.063011000000003 15.095260000000001 35.763344999999994
35.700238 32.774593 20.767570999999997
35.673043 32.96895 14.927123
26.822383000000002 20.841769 12.233826
26.799932 17.758992 14.877018000000001
23.781382999999998 21.091140000000003 14.860662000000001
27.028669999999998 21.136465 18.129489
35.947018 20.864078 32.655836
27.012092000000003 17.915753000000002 21.153225999999997
35.931394 26.745841 33.038703
27.028834000000003 21.110241000000002 24.056199
27.004921000000003 18.05673 27.028570000000002
23.77192 21.171307 26.791004
36.030766 27.039597 26.73263
26.689966 20.904237000000002 29.734204
26.758829 18.105044 32.974018
24.037430999999998 21.108482000000002 32.872931
35.953325 26.737315000000002 20.813856
26.693435 21.10362 35.879912999999995
27.120292999999997 26.724897 12.006422
27.069724 29.760174 26.873992
35.835523 27.019174999999997 14.819636000000001
23.996834 20.71228 20.936923999999998
32.795134 35.842814999999995 26.653796999999997
33.075127 26.887666000000003 29.853227000000004
32.662411 36.008516 21.085697000000003
29.974494999999997 21.174134000000002 14.840422
29.764580000000002 33.044433 20.836339000000002
32.770862 21.14898 17.939308
32.85692 17.818101 20.856672000000003
30.0231 21.163829999999997 21.059185
32.916689 30.106172 20.832267
32.724885 21.139906000000003 24.068416
32.588278 17.874473000000002 26.987324
30.018793000000002 20.727517 26.776347
32.916937000000004 20.917049 30.084319999999998
33.053507 32.775022 17.962904
32.611396 17.967869999999998 32.960398
29.997338 21.171006 32.710858
32.845402 20.955391 35.617786
30.053196 32.975164 14.878350000000001
32.701411 26.809682000000002 11.977640000000001
32.799353 24.019033 15.223737000000002
32.997764000000004 29.631895999999998 14.95735
29.943879000000003 27.084747 15.089943
32.686212 26.728938 18.057336999999997
32.854519 23.736894 20.818465000000003
32.779866 32.604357 12.167708000000001
30.024884999999998 26.887573000000003 21.090949000000002
32.671306 27.071492999999997 23.947257999999998
32.816941 23.910891999999997 26.672024
30.059420000000003 26.925621 26.855925
29.934994000000003 27.119248999999996 33.028092
32.759255 18.102155000000003 14.874403000000001
33.011954 21.088500000000003 11.830968
32.763933 32.738907 23.777614999999997
33.042819 29.989483 26.890732
26.700342999999997 32.752416000000004 29.915926
27.147280000000002 29.988623000000004 32.979752
32.995648 24.001075 32.954991
23.842134 32.985532 32.634032
27.056584 32.601083 35.796879999999994
26.821047999999998 35.627835999999995 15.185096
27.026153 35.905939 21.161203999999998
32.901518 35.657162 14.839981
27.035012000000002 35.885434 27.026076000000003
26.717095 35.840774 32.789585
32.777015 32.928864000000004 35.972609
33.017798 15.053972 12.096160000000001
29.995918000000003 32.668981 33.002083
24.117561000000002 32.764925 26.757565999999997
33.121093 11.959624000000002 14.907641
33.028800000000004 14.876361000000001 17.782223000000002
32.786994 29.980314999999997 33.037522
32.635774 12.040930000000001 21.001753
29.707847 15.125389 21.006106000000003
32.758776 32.782884 30.099767999999997
32.87272 14.792149 23.987046
32.702942 11.913495000000001 26.828527
29.75495 15.076906000000001 27.028556000000002
29.750599 33.076787 26.765957999999998
32.74705 14.848612000000001 29.847488
32.639372 12.187674000000001 32.924642
29.799413 15.137935 32.712841
32.609097 15.034251000000001 35.922342
29.976708000000002 15.102387 14.850585
26.800463 11.883649 27.049999999999997
32.742839000000004 26.871980999999998 36.062712999999995
14.849572 14.776288000000001 29.938592999999997
21.010575000000003 12.062081000000001 14.827262000000001
18.144122000000003 14.93012 14.94937
14.964991000000001 17.905366 26.735318
20.860956 15.099874000000002 18.137172999999997
14.954607000000001 20.910919 24.149062
20.960907 12.269570000000002 21.112443
17.911239000000002 14.862405 21.124975
20.770026 15.142028000000002 23.790049000000003
20.909520999999998 12.255839 27.029981999999997
11.829062 21.125042999999998 20.982892999999997
17.868271 14.998489000000001 26.755114
14.851897000000001 17.840915000000003 20.985663000000002
20.992323999999996 14.963107 29.68799
20.809919999999998 12.245173000000001 32.724093
17.895674 15.269577 32.805042
21.118561999999997 15.215175 35.855798
21.125539000000003 21.019716000000003 12.057792000000001
21.159108000000003 17.809255 15.130024
14.848062 21.008122999999998 17.885914
18.184216 21.122459999999997 14.916585000000001
20.843097999999998 20.938418 17.711675
21.045572 17.828157 21.144593999999998
11.895523 20.982236999999998 15.232099
17.741855 20.774361999999996 20.998607
14.973695000000001 18.043695 15.260674
14.929206 20.774355 11.979545000000002
20.953001 20.76742 24.072429999999997
15.235755000000001 26.922547 18.107045
21.095841 18.157214000000003 26.759072000000003
20.877757000000003 15.201018000000001 12.007760000000001
11.923304000000002 20.816724 27.016306
15.211954 35.934869 33.036015
15.092722 35.95148 26.722659
12.219622000000001 26.711101 20.983347000000002
15.002951000000001 26.870733 24.170231
14.993643 24.216209999999997 26.920153
12.198979000000001 26.738821 26.914740000000002
12.10269 26.741276999999997 15.157148000000001
14.851365000000001 26.923639 30.103468
15.130517000000001 23.778501 32.954570000000004
11.964160000000001 26.752938 32.672774000000004
15.004117 26.679282999999998 35.892565999999995
15.099158000000001 23.912737999999997 14.791084000000001
15.065257 32.689544 12.165412000000002
14.923462 29.855043000000002 14.836728
11.864591 33.037706 14.879908
14.974814 26.944958999999997 12.295313
17.963796000000002 21.170288 26.754944000000002
14.860574000000002 32.688454 17.793621
11.942765000000001 32.833949000000004 21.115499999999997
14.912172 20.795126000000003 35.71915
15.082463 33.009935 24.013285000000003
14.942421000000001 29.790166 27.149527
11.811435000000001 32.959646 26.971899
14.985292000000001 32.899053 29.621288
14.826314000000002 29.701437 33.013124
12.063616000000001 20.895006000000002 32.684526
11.872296 32.975567 32.878809000000004
14.931679 17.929192999999998 33.115739
15.154382 32.705033 35.998471
14.919889000000001 35.640888 14.858155000000002
15.205372 21.152084000000002 29.861289
14.953554 35.960164 21.075707
15.113294000000002 29.790032000000004 21.067642
20.890276999999998 20.973853 30.059061999999997
14.941318 23.809333000000002 21.157024
14.833063000000001 14.82634 23.896698999999998
21.115434999999998 35.678245999999994 20.962487000000003
17.8198 32.849887 15.24023
14.899454 11.825615 26.931880999999997
20.825662 32.743588 18.06919
20.910573999999997 29.733137 21.189048999999997
18.142761999999998 33.045481 20.900081
27.038128999999998 14.751317 12.106495
20.974963000000002 17.789647000000002 33.020696
20.814757 32.938013 23.798636000000002
21.103403999999998 29.793325000000003 26.994918
17.799295 32.921439 26.699593
15.111541 14.829948 12.025584
12.155569000000002 14.906033 20.812274000000002
20.880617 32.709168 29.684297
20.763527000000003 29.817539000000004 32.859845
17.794648000000002 32.909148 33.018141
14.915865 12.203082 20.972
20.823825999999997 35.934853 32.672946
21.056035 32.671496 35.619628
15.21362 14.793418 18.015172
20.935665 35.980366 14.843937
14.987696000000001 11.809871000000001 14.881348000000001
20.720692 35.820280000000004 26.786306000000003
20.755395999999998 32.782244 11.926154
20.792476999999998 27.125749999999996 35.899959
20.817456 30.06933 14.896352
26.737830000000002 11.919231000000002 14.998613
18.075771000000003 21.075797 32.751367
14.866957000000001 15.126828000000001 36.000897
20.710251 20.793819 35.883888
21.066445 26.825490000000002 12.199168
21.011342 23.715424 15.079343
18.137619 27.10852 14.893857
27.125314000000003 15.063836 23.892902
12.226509 15.128691000000002 32.8183
14.886933 12.159213000000001 33.038867
20.737915 26.752764 18.110386
21.105823 24.028379 21.026947
12.151480000000001 15.098254 26.708515
24.057529000000002 14.868978 21.175604999999997
26.732041000000002 11.984968 21.152946999999998
26.974017000000003 15.007523 18.259017
21.063752 26.768853 24.058421000000003
21.101895 23.785032 27.073332
17.795084000000003 26.698743 26.83511
23.841012 15.153924000000002 15.179277
21.017270000000003 26.757525 29.758466
20.886499999999998 23.764226999999998 32.633521
17.778975000000003 27.002378999999998 32.68103
18.102013999999997 26.878608999999997 21.11184
12.156983 14.994604 15.174289
17.928727000000002 10.462273000000001 17.972523000000002
36.818783 11.033579000000001 29.914172999999998
11.022336000000001 23.997546999999997 36.846827
36.924048 36.779338 29.903306
10.647960000000001 18.005797 17.980106
36.820083000000004 10.919914 23.910567
29.941285 10.529607 23.954208
11.011385 36.9711 29.883498000000003
29.851685000000003 29.935540000000003 37.356551
29.887932 37.330609 29.785044
23.849047 36.885931 36.911503
23.966057 29.873468000000003 37.213849
29.850264000000003 29.934904000000003 10.507792
23.974224999999997 29.893777999999998 10.610733000000002
17.895516 23.877806999999997 10.594723
37.236747 23.934815 23.862065
36.79949 29.828691 10.976413
23.993266 23.960912999999998 37.371445
17.901752000000002 10.9243 36.91616
10.555669 29.794771000000004 23.933183
10.488922 23.901842000000002 23.843637
36.944111 23.965339999999998 11.032455
10.633877 23.906027 29.879997000000003
10.936422 10.952726 23.995935000000003
29.829570000000004 36.812774999999995 10.923504000000001
17.931868 17.906529 10.563566000000002
10.623502 17.997151000000002 23.899433000000002
18.02025 18.034639 37.265065
23.884729999999998 10.984401 36.802861
36.910115999999995 23.991881 36.905182
36.94193 29.835248999999997 36.844765
23.868955 10.596593 17.935676
18.019682000000003 29.909223000000004 10.495650000000001
11.013024000000001 36.832186 17.916836000000004
30.13236 30.401799000000004 17.966886000000002
36.187338000000004 35.693039 17.730037000000003
35.809802999999995 36.03176 23.445314000000003
35.789289000000004 29.597580999999998 30.195523
12.108224000000002 24.132522 17.568060000000003
35.869814 11.72695 17.458265
35.777689 30.260311 18.048791
11.880985 17.716705 11.769793000000002
30.164384 35.537085999999995 24.158903000000002
29.499461000000004 35.730482 17.998675
35.736782999999996 17.949086 12.41045
35.558115 17.955607999999998 17.688906000000003
11.766726 11.600103 30.192809000000004
35.977101999999995 18.413013 23.824312999999997
35.698298 17.717511000000002 30.228659
36.111972 17.78864 36.071574
29.394992000000002 30.016894 29.554842999999998
11.730328 17.93298 30.407248000000003
35.626854 24.119450999999998 17.541047
36.169018 23.875166 29.575346000000003
29.991197 30.255442000000002 23.851064
12.343620000000001 11.875202000000002 18.269619
12.287303000000001 23.516636 12.031331000000002
30.331659000000002 35.619018000000004 35.613244
23.697406 12.458392000000002 24.066127
30.113979 24.106437 35.551775
17.834584 24.233766000000003 18.315001000000002
23.603718 29.545825 18.118639
18.244680000000002 23.656188 23.526443999999998
18.162633 23.548665 30.121810000000004
18.231085 24.297213999999997 35.670671
23.865518 23.515377 23.676512000000002
18.244425999999997 29.931839000000004 18.361654
24.402368000000003 24.196136000000003 18.093649
18.097723000000002 29.859057999999997 24.397574
24.425440000000002 23.780510999999997 11.990072000000001
17.635063000000002 29.843283 30.298275000000004
17.903992000000002 29.659986000000004 36.274448
23.684648000000003 17.820078000000002 29.606188000000003
17.713243 35.506983999999996 11.839134000000001
18.24447 36.024094999999996 17.538515000000004
23.626666 17.571762 23.981823
17.537982 35.830236 23.798204
17.598253 35.711144 30.102606
24.051029 18.359202000000003 18.090730999999998
18.423485999999997 36.230146999999995 35.924056
24.079085 11.991705000000001 12.375815000000001
23.698284 18.134166 12.35481
24.121952999999998 12.398067000000001 30.298451999999997
24.015282999999997 29.451023 24.276487000000003
24.251058999999998 30.201751 30.151128
24.049702000000003 24.373956 29.540957
24.069564999999997 36.010589 12.377125000000001
29.921702000000003 24.208129999999997 29.616143
29.438876999999998 23.529471 23.967683
11.997428000000001 30.304861000000002 11.844113
30.094939000000004 24.266150000000003 17.687889
17.82575 17.698546999999998 30.087462000000002
29.444867000000002 24.000388 11.612248000000001
29.598665000000004 18.170861000000002 36.16565
29.541551 17.785313000000002 30.248854
12.242355000000002 29.980199 36.105054
29.573571 18.088694000000004 24.146726
11.850530000000001 36.055966 23.664862999999997
30.042462999999998 18.309308 17.796218000000003
18.090218 11.611059000000001 11.898358
12.117362 29.759740999999998 18.3433
29.518188000000002 12.041965000000001 36.204612
29.537777 18.398606 11.790325000000001
24.255735 35.626358 24.248572000000003
23.675379 35.434132 30.178173
29.572145 11.913616000000001 11.740147
18.324990999999997 17.652444000000003 23.990130999999998
29.939636 11.882591000000001 18.376866
18.302779 11.768666000000001 29.533003
29.784921000000004 12.435252 30.135243000000003
17.747016000000002 17.592126999999998 18.080849
23.565393999999998 36.236062999999994 17.918492
23.470456 10.216479000000001 17.008782000000004
37.770191000000004 23.417704999999998 36.470273999999996
37.057311 24.975749999999998 37.111079
24.942794999999997 10.211267000000001 18.042606
17.658033000000003 18.913162 35.445085999999996
35.56508 22.950006000000002 35.558725
34.970281 24.343890000000002 36.187022
36.166838 24.448864 34.969158
35.279824999999995 35.834393 29.036783999999997
36.262542 34.86949 29.964139000000003
35.169481999999995 35.963088 30.698025
37.398796999999995 36.820142999999995 30.809397000000004
10.254739 18.88984 23.393877000000003
10.239599 17.077199 23.393354000000002
36.505792 23.386118000000003 37.703849
18.944164 17.785029 35.474227
18.599778 24.689256 12.411682
24.299854000000003 12.386781000000001 18.860367000000004
36.357464 24.088698 10.004828
35.178254 23.187942999999997 11.860366
35.274892 24.792597 12.021948
36.216466000000004 23.77756 12.985307
30.089242 37.817956 11.444961000000001
28.916204999999998 36.894897 10.503146000000001
30.67338 36.660157 10.247909000000002
10.244353 24.958607 30.087812
10.225568 23.574244999999998 28.899259
23.302647999999998 10.206482000000001 18.860174999999998
10.247074000000001 23.202903999999997 30.661603
12.371707 24.228119999999997 30.783605
12.388800000000002 24.545164999999997 29.167025000000002
24.459203000000002 12.411787 17.222115000000002
22.974702 12.440150000000001 17.874864000000002
18.628026 18.758268 37.646696
16.936759000000002 18.175174 37.613228
18.329048 16.966636 37.615614
17.378959000000002 17.244261 35.444869000000004
10.231221000000001 18.020833000000003 24.943058999999998
12.401736000000001 22.966081000000003 29.690313000000003
12.373942000000001 17.143406 24.394391
36.355309 37.807226 29.791871999999998
12.385868 17.968595 22.932707999999998
12.939429 24.332279 36.151880999999996
11.718268 24.506493 35.012744
12.247898000000001 22.939223 35.524313
35.433663 24.129447999999996 24.844323000000003
35.491972 24.664377 23.289011000000002
37.661798999999995 24.893555 24.248837
37.606019999999994 23.731250000000003 22.889651999999998
28.851272 30.090947999999997 37.61443
30.160890000000002 28.908552999999998 37.616323
30.604544000000004 30.604435000000002 37.611326
30.808217 29.668018000000004 35.486779
37.610407 23.109872000000003 24.627027
29.640627000000002 30.781275 35.437726
29.214083000000002 29.216188000000002 35.447815999999996
29.118180000000002 35.996837 12.766099
17.02167 24.074677 12.416642000000001
17.266151 23.12585 10.214531000000001
17.63447 24.942709999999998 10.196710000000001
18.284067 22.997645 12.370381
10.814509000000001 24.938598 37.201184
11.376320000000002 23.305988 37.729371
10.062234 23.464115999999997 36.423697
35.476867 23.017988000000003 23.582358999999997
19.028741000000004 23.727764999999998 10.249228
37.541957000000004 36.717081 29.037261
36.408547 9.995913000000002 29.629514999999998
37.602869 11.260942 29.159773
37.311523 10.991854000000002 30.872368
36.250868000000004 12.969357 30.128828
23.067638000000002 24.323543 35.420998
24.720640000000003 24.457428999999998 35.465878999999994
35.073414 11.801892 30.557720000000003
12.393604000000002 18.784745 24.356617999999997
35.34717 12.102299 28.994503
37.860921 11.458794000000001 24.067327
36.684138999999995 10.276661 24.733651000000002
24.860999999999997 23.470247999999998 37.649965
23.119681999999997 23.336246000000003 37.627207
36.860839 10.469223000000001 22.928151
34.89756 11.655448000000002 23.742790999999997
36.013672 12.756211 23.181486
35.813162999999996 12.557652000000001 24.837215
23.844468999999997 24.965831 37.648846999999996
24.001708999999998 22.993595999999997 35.47427
37.406145 22.988553000000003 11.038749000000001
29.04681 12.421231 23.393774
11.780933000000001 12.794856000000001 23.342793
29.837439000000003 12.389541000000001 24.846226
30.570272000000003 37.673083 29.103433000000003
28.882019 37.663967 29.658549999999998
30.16341 37.660845 30.881687
29.257981 35.47048 30.582545000000003
30.841194 35.422649 30.091276999999998
29.568686 35.435547 28.980356999999998
29.036817 29.300337 10.207784
29.802581000000004 30.895032999999998 10.206656
30.8153 29.41572 10.256255000000001
30.707292000000002 30.412588 12.393403000000001
29.960549999999998 28.909437000000004 12.416821
29.035974000000003 30.27968 12.417453
37.753802 29.475264000000003 36.399425
37.040299 30.883319999999998 37.179132
36.494156 29.265846000000003 37.673320999999994
34.906993 30.213002000000003 36.197936
35.650143 28.940013 35.438157
36.084472999999996 30.449168999999998 35.062976
24.711322000000003 29.23776 10.243712
22.921793 29.538764 10.215686
24.134822 30.930019 10.20199
23.226157 30.493346000000003 12.383948
24.804420999999998 30.186884 12.379807000000001
23.751333000000002 28.903139000000003 12.385378000000001
30.704118 12.392051 23.508217000000002
23.143754 30.55861 37.648272999999996
29.963652000000003 10.234845000000002 22.883175
30.758422000000003 10.246663 24.509152
30.800288000000002 35.770626 12.545818
10.225863 30.037029000000004 22.874539
10.203877 28.875878999999998 24.293335
10.249870000000001 30.646386 24.622408
12.430917 29.733759 24.876939
12.409162 30.808628 23.581007
12.389477000000001 29.135689 23.331283
10.203573 24.617227999999997 24.647618
10.228975 24.24628 22.950485999999998
10.19541 22.943512 24.193647
12.377565 23.241183 23.221699
12.413037000000001 23.619892999999998 24.833165
12.425617 24.838 23.665940999999997
17.798856999999998 30.904728 10.179369000000001
18.993254999999998 29.519751 10.225466
17.20025 29.175956 10.231837
18.181058 28.919818 12.37625
17.069632 30.197136 12.36349
18.748801999999998 30.498699000000002 12.415732
36.586828000000004 30.563045000000002 10.22267
37.813149 30.157045000000004 11.472591000000001
36.959756 28.882189000000004 10.552327
36.047956 29.207179000000004 12.755563
34.919258 29.612187 11.623087
35.71284 30.831709000000004 12.470930000000001
28.930355 10.246005 24.396867999999998
23.68249 28.890508000000004 37.656348
24.958146 30.158676 37.638625
24.643022000000002 29.226533000000003 35.425739
17.425993 12.814985 36.080029
17.593358000000002 11.697397 34.907736
10.333488000000001 36.731727 17.077508
10.425590000000001 36.787269 18.930697000000002
11.450151 37.849605000000004 17.917651
12.669239000000001 35.957142 18.815246000000002
12.571382000000002 35.897371 17.126236
11.657097 34.901557000000004 18.037048
23.081612999999997 10.320013000000001 36.629027
24.859513 10.492238 36.823012
23.781224 11.511619000000001 37.845923
24.682639 12.74477 35.980308
22.999446999999996 12.539871000000002 35.826168
24.089398000000003 11.604221 34.89488
18.22638 16.955122000000003 10.243675000000001
17.016294000000002 18.296583 10.208516000000001
18.705523 18.694909000000003 10.246097
17.742662000000003 18.908282 12.441947
18.912751999999998 17.668608 12.374640000000001
17.239642000000003 17.311223 12.416013000000001
10.046066000000001 11.427401000000001 24.330919
10.844565000000001 10.654293000000001 22.904587999999997
11.336285 10.203112 24.591192999999997
12.892081000000001 11.638922 23.595072000000002
12.211287 12.410193000000001 24.901085000000002
18.901839000000002 12.365182 35.610295
18.406442 11.437537 37.747644
18.616248 10.151751 36.485577
16.988951 10.642619000000002 37.01477
24.170824000000003 30.777608999999998 35.449424
22.984209999999997 29.608342999999998 35.469586
24.813211000000003 36.668945 37.491026999999995
24.018675 37.807468 36.383482
22.964399 36.814658 37.435759999999995
23.150622 35.924744999999994 35.209886
23.873176 34.905685 36.209696
24.798507 35.884429000000004 35.300742
11.341368000000001 37.679728000000004 30.510755000000003
10.860721 37.188627000000004 28.840892000000004
10.064539000000002 36.403562 30.194369000000002
11.741107000000001 35.041524 29.231885
37.574369999999995 24.727863999999997 11.181881
12.147829000000002 35.438903 30.850057
10.250145000000002 16.962876 17.849897
10.197260000000002 18.342188999999998 18.930988
10.242569000000001 18.618622000000002 17.190876000000003
12.403366 18.910009000000002 18.073757999999998
12.433557 17.606739 17.122056
12.387409000000002 17.357720999999998 18.749805000000002
18.589616999999997 10.252889000000001 17.161825
18.359887999999998 10.199788 18.945853
16.989176 10.227532 17.846057000000002
17.370039 12.393733000000001 18.733649
17.636421 12.381993000000001 17.099984
18.953057 12.376026000000001 18.116236
12.967626000000001 36.192428 29.547145
29.717558000000004 34.923612999999996 11.633236
35.864503 24.008747999999997 35.882974
17.977025 23.990940000000002 11.961461000000002
17.932937000000003 12.077978000000002 35.784388
35.782450000000004 29.833699000000003 35.77976
12.034745000000001 23.849263999999998 29.849565
23.942335 29.972300000000004 12.052890000000001
29.822181 29.954861 35.854613
11.988241 11.937681000000001 23.939262
17.905147 12.037807 18.004854
17.935670000000002 18.017143 11.972779000000001
12.072965 17.963252 17.913871
23.833544000000003 35.797615 35.79714
11.993583000000001 23.948608 35.888121
12.081459 35.752017 17.997493
35.807606 12.091483 29.8998
17.971147000000002 17.927219 35.912839999999996
12.071751 35.806670000000004 29.965308
35.789683000000004 12.092695 24.000191
24.012403 12.062078000000001 35.812425
23.999679999999998 29.84136 35.786423
12.061824000000001 18.010177 23.85071
35.757101999999996 23.932262 23.890227000000003
29.925215 35.754194 29.921489
29.844667 11.959711 23.897515
24.004415 23.971762 35.802122000000004
11.974565 23.851712 23.976044
23.968120999999996 12.075331 18.016289
29.888602 35.885747 12.088136
29.931153000000002 29.960127999999997 12.049437000000001
35.873482 35.758531 29.899061000000003
35.862977 29.950879 12.027384000000001
35.832534 23.865333 12.071748000000001
11.982395 29.911762000000003 23.881149
18.007097 29.818834000000003 11.976329000000002
14.865936000000001 15.176322 15.080052
33.161474 14.949548000000002 15.057537000000002
20.719168000000003 21.026322 21.120919
32.678667000000004 15.205677000000001 21.00604
21.140563 20.76294 15.083555
32.648179 14.981420000000002 27.127724999999998
20.817870999999997 14.714417000000001 32.787673
32.688314 15.102929000000001 33.002595
26.910353 15.229777 26.919137
21.007313000000003 14.899895 21.219897000000003
33.048893 21.14488 15.060899000000001
21.100969999999997 15.019677 15.325955
32.908051 20.747568 20.769131
32.951184 20.824509 26.704338999999997
33.110307 20.850187 32.86409
14.795007 33.022735 32.693383000000004
15.249241000000001 32.928026 26.742009000000003
32.818336 27.216136 14.89643
14.932194 32.557724 21.016348999999998
33.087585000000004 26.808445999999996 20.772377
14.996868000000001 33.100443 14.889134
32.8543 26.727217000000003 27.071644
21.101993 20.786955 26.661574
14.915172 27.105508 33.017946
20.911516 20.682872000000003 32.692072
20.800454000000002 27.043622999999997 14.836071
26.905138 15.086061 33.064927
27.081166000000003 14.891883000000002 20.868828999999998
26.787905000000002 20.784767000000002 14.803192000000001
27.156143 14.887332 14.842081
26.767007 20.750293 20.722022000000003
26.699371 20.799661999999998 26.915369
26.906180999999997 20.848888000000002 32.555174
21.239192000000003 32.684375 32.947582000000004
26.839059 27.080198000000003 14.838708
20.875086000000003 33.047358 27.013694
26.740747999999996 26.641232000000002 21.091239
20.770868999999998 32.945303 21.047086
26.725558999999997 26.794904000000002 27.078806
20.725842 32.850692 14.778535
26.828555 27.170951000000002 32.65778
21.079023999999997 26.680388 32.973162
27.072316999999998 32.784932 15.141876000000002
21.048381999999997 27.046866 26.747641
27.052612000000003 33.003002 20.713355999999997
20.913584999999998 26.849973 21.280631
27.054813000000003 32.714334 27.070614999999997
26.773699 32.618612 32.917513
32.555043 27.036408 32.86051
20.845098999999998 14.770835 26.851745
14.866638 21.144286 21.048690999999998
32.829921 32.717747 20.73184
15.183791000000001 15.162083 20.965885
15.119679000000001 14.844584000000001 32.740439
32.977373 32.627185000000004 32.628082
14.784359 27.050676000000003 20.72222
14.929768000000001 27.062916 15.252220000000001
15.173637000000001 14.837558000000001 26.772205999999997
15.038400000000001 20.772351 27.041423
33.024034 32.750118 15.142297000000001
14.838316 20.850557000000002 15.153735000000001
14.870432000000001 21.09653 33.052381000000004
14.993776 27.196601 27.089429000000003
32.784368 32.984328 26.692036
