1_train/64_cspbbr3_methylammonium_4_0.30\64_cspbbr3_methylammonium_4_0.30.xyz
1.0
47.836227 0 0
0 47.836227 0
0 0 47.836227
Br C Cs H N Pb 
240 26 86 156 26 64 
Cartesian
23.809523499999997 26.717971499999997 26.7784245
26.7555955 26.818338499999996 24.1518485
35.9683115 20.860840500000002 14.8354385
36.045064499999995 20.816545499999997 21.0507085
23.9691015 26.9447665 20.769923499999997
27.007037500000003 24.147374499999998 21.059639499999996
27.056023500000002 23.881803499999997 26.7506335
35.5871195 14.9851685 32.8249685
26.875212499999996 27.020064499999997 35.6498645
26.9207105 24.166045500000003 32.9092575
23.7754415 27.013817500000002 32.8123835
27.0057305 26.955270499999997 17.8243565
35.9546395 15.033699499999999 27.053188499999997
26.7967515 32.7564945 12.1508215
26.8815005 30.108728499999998 14.8223195
24.0361915 32.9201695 15.1081005
35.5821205 15.068946500000001 20.8954425
35.9113585 14.803660500000001 14.8400515
26.9044295 32.6083305 17.7931825
26.673914500000002 30.0070505 20.888504499999996
24.048734500000002 32.9852585 21.0466665
32.9561995 35.890730500000004 32.7057305
26.821493500000003 26.727290500000002 29.7151615
35.7776425 20.853651499999998 27.086448499999996
35.6151275 26.7587915 15.0343125
35.975799499999994 21.0698085 32.9287105
27.0541635 11.8973725 26.9792335
23.783092500000002 15.1894905 26.7149755
35.9263865 32.6106535 32.9441585
35.8488825 32.7239965 26.6209975
27.0184305 15.1025695 29.9588685
26.914894500000003 12.2508185 32.8681635
23.7750815 15.232452499999999 32.789024500000004
35.6018765 32.7528055 20.9044915
26.707697500000002 14.8686805 35.6544215
35.8252465 32.8756685 14.813373499999999
26.681366499999996 21.0765065 12.0500255
26.841162499999996 18.1310005 14.9118985
23.808623499999996 20.8581815 15.1955305
26.7351015 20.851682500000003 18.003221500000002
26.7884965 17.879118499999997 20.712061499999997
24.0904515 21.1105435 20.9495115
35.87440049999999 26.9181735 32.6679875
26.8268135 21.076972499999997 23.8128935
26.7448135 17.8212265 27.0785105
24.1049085 20.895846499999998 27.009448499999998
35.9415145 26.9972985 26.9745215
35.684693499999995 27.0117635 20.8908135
27.0345315 20.9001845 30.1044385
26.680034499999998 18.056402499999997 33.0290025
23.791284499999996 20.736754499999996 32.8217985
26.9934905 20.939901499999998 35.9903085
27.105363499999996 32.8955115 23.8263515
27.020841499999996 26.785832499999998 12.1886065
26.8336665 24.0191115 14.8333225
24.009828499999998 26.894436499999998 15.1786625
26.769214499999997 29.9243095 26.724759499999998
30.0366735 26.9318345 32.7187795
32.7373445 35.973339499999994 26.764615499999998
32.7317925 17.899426499999997 14.7626505
29.720315499999998 21.1162555 15.1558995
32.6862415 20.7744285 17.855774500000003
32.9963165 17.912999499999998 20.742825500000002
29.968489499999997 20.807779500000002 20.8747715
29.817128500000003 32.6458235 20.8568315
32.822441500000004 17.7588595 27.0581015
30.112683500000003 21.015983499999997 26.8813175
33.0032135 20.805926499999998 29.947660499999998
32.7734835 17.8267205 32.7415225
32.8250095 29.779160500000003 21.1440695
29.8750985 21.073750500000003 32.6928905
32.6226675 20.901774500000002 35.6737725
32.6731265 32.9499025 23.9150245
32.6675605 32.9603775 17.782559499999998
32.6899495 23.777451499999998 15.1628205
30.022676500000003 26.770441499999997 14.896017500000001
29.7635615 32.9651725 14.8814805
32.9808205 26.8280545 18.2076395
32.8907725 24.1642795 21.0709285
29.6937785 27.030511499999996 20.906318499999998
32.6184495 29.8848505 15.086503500000001
32.7127425 32.9096015 12.201857500000001
32.9327975 26.999247500000003 24.0512995
32.6146275 23.7861665 26.9998305
29.9337705 26.780924499999998 27.109879499999998
32.6885615 26.7994635 29.813218499999998
33.0365765 23.9140625 32.6738385
32.7139855 26.8145825 12.2380655
23.762516499999997 32.9942335 26.950241499999997
32.7958975 20.8046655 12.1606565
32.9534155 15.1362965 35.829337499999994
32.6832675 35.6867635 21.039499499999998
26.763783500000002 32.7583085 29.9871335
32.9552285 26.871483499999997 36.0103915
23.911398499999997 32.5801255 32.7991395
32.6573395 35.9095405 15.0646635
26.755660499999998 32.8455265 35.6192055
26.8751325 35.6523275 14.8603905
27.0597565 35.930235499999995 21.0046075
26.7182805 36.0167885 26.9269155
32.7516235 32.8750375 36.0049505
26.850865499999998 35.6032315 32.7922845
32.9841615 15.1788215 11.8475545
32.7887665 12.1807265 15.1137055
32.7940915 29.930803500000003 27.1211385
29.720670499999997 32.7290505 32.6441975
32.9921365 29.851400499999997 32.7199675
32.7475565 15.1678125 17.807520500000003
32.9682665 11.8644945 20.880571500000002
29.780849500000002 15.1522705 20.8383715
33.0481515 33.0495465 29.8448645
32.6947275 14.8310935 23.973153500000002
32.9799975 11.8858705 26.895613499999996
29.801694500000004 14.8302045 26.933052500000002
27.121232499999998 14.991851500000001 23.9304215
33.0017355 14.7514535 29.946572500000002
32.6716725 11.8887975 32.9744645
29.996837499999998 33.0426885 26.763008499999998
30.075996500000002 14.9564935 32.9747795
29.9741315 15.1037905 15.1130665
26.7953025 30.055487499999998 32.9436575
32.7180975 20.805522500000002 23.788259500000002
24.0979355 14.9492075 20.851656499999997
14.7616545 21.1109475 23.957975499999996
15.0123465 35.9197025 32.6561015
20.8186205 14.9606035 11.8691695
21.104778500000002 12.1500085 14.8762185
17.9976345 14.9500335 15.221716500000001
20.958453499999997 15.1918435 17.791003500000002
20.8342625 11.9694575 20.7100625
17.986852499999998 14.8504545 20.7597775
20.9336895 14.7412375 24.076302499999997
20.792302499999998 11.9860805 26.7894375
18.177062499999998 15.1400585 26.799817499999996
12.2621195 20.9101895 21.111827499999997
21.0783725 14.9002835 30.0000285
21.055080500000003 11.9490705 32.6122475
18.0922675 15.0906805 32.7297045
15.0641015 18.1835605 21.005961499999998
20.873982499999997 14.9088805 35.6033795
21.100789499999998 20.776528499999998 11.9083855
20.754706499999998 18.0542425 14.9060725
17.8544215 20.930600499999997 14.801721500000001
14.8470615 21.0072835 17.7956985
20.7254595 21.046077500000003 17.8846335
12.2463745 20.789244500000002 14.9984065
20.877571500000002 18.0254135 20.7843745
17.9298605 20.7823675 21.0512995
15.1189105 23.7956905 20.8903265
14.9813545 20.9465785 12.2745645
21.208009499999996 20.8441775 23.821535499999996
20.7626025 18.0846455 27.0434955
14.917633499999999 17.8709985 26.6945555
17.904208500000003 20.852706499999996 27.061530499999996
14.9808235 36.0298595 26.9898325
14.9288725 35.8722235 21.105500499999998
15.1829725 26.921825499999997 24.047591499999996
14.9847905 26.8033005 18.1319685
14.9176055 24.184560499999996 26.832530499999997
12.1891815 26.9700615 26.985856499999997
14.9041145 26.920941499999998 30.123934499999997
14.8269675 23.823471499999997 33.0367665
11.8745925 27.135023500000003 32.8258835
14.8718115 26.9332755 36.0788805
14.8198775 32.6949035 12.1785775
12.1165725 27.0044375 15.1132895
14.9875795 29.7768595 14.7800375
12.118026500000001 32.7507645 15.1212945
15.1601775 24.0152735 14.9544375
15.1159995 32.7031515 18.107394499999998
15.1244625 26.985262499999997 12.1333525
14.9571785 29.683038500000002 21.076950500000002
12.2528735 32.7527275 21.0529675
14.9245435 33.0015785 23.9950185
15.1840705 30.0073535 26.8557025
14.8305665 20.7891215 35.773518499999994
12.2021425 32.7574745 27.023475499999996
15.0710585 32.8600615 29.670323500000002
14.9815395 30.099984499999998 32.8473275
11.9092605 33.0428165 32.8029145
11.8001965 21.052189499999997 32.6762885
15.1103055 32.9101635 36.0721005
15.0213315 18.214656499999997 32.7438905
14.9768285 35.6256565 15.0704435
15.201166500000001 20.900105500000002 29.678239500000004
12.2235355 21.0268905 26.7845285
14.8811235 15.1985395 35.6962635
15.0276595 18.219254499999998 14.862182500000001
20.901981499999998 17.8116665 32.7123725
17.9246725 32.6396975 15.162067500000001
14.8204715 15.0242495 23.7499745
20.9836915 32.8426235 17.6985965
20.755846499999997 21.054505499999998 29.7151195
18.1495825 32.8757585 20.842341499999996
11.9014895 15.050387500000001 21.1721645
20.990804499999996 32.7337715 24.1632495
20.8827115 29.982445499999997 27.062082500000002
18.0317825 32.7370255 27.052263500000002
15.0137635 11.9687525 20.712979499999996
15.1689055 14.913218500000001 17.8784955
21.0975525 32.8562235 30.0689055
21.066374500000002 29.7878245 33.0222485
18.139511499999998 32.8721145 32.8909205
20.7859135 32.7493405 36.0309945
20.813492500000002 35.9661895 15.1735805
21.115874499999997 35.624652499999996 20.923159499999997
11.8974705 14.8465675 15.0278525
21.170139499999998 35.9615565 26.8453175
21.089211499999998 35.9361325 32.7715825
15.1423295 12.2347345 14.8993125
14.9843375 15.1900355 11.8099235
26.9939385 15.0288295 12.1666645
26.8807775 11.8004855 14.9315745
23.8128855 15.0563855 14.8470875
26.941326500000002 14.7993485 18.157576499999998
27.1543085 11.9810105 20.8208675
21.1511645 29.953422500000002 15.0106635
20.9552755 33.0079345 12.2322035
20.944987499999996 29.774604500000002 20.7838105
14.9350635 12.2076585 27.0952985
17.830659500000003 20.913196499999998 33.0099815
20.8959945 21.1145985 35.6299595
20.9826785 26.702169499999997 11.8367035
20.888980500000002 23.7256675 14.844293500000001
17.9020175 26.9623615 14.7766615
11.8994025 15.2026465 32.9612395
15.1575415 12.1535105 32.9658425
21.019844499999998 26.812242499999996 18.183184500000003
17.847862499999998 26.811319499999996 20.810779500000002
20.9966055 27.0063655 23.715180500000002
20.952208499999998 23.9945145 26.675121499999996
17.9467715 26.9835365 26.7037635
14.9393725 15.0883875 30.1100255
21.0695305 24.080349499999997 21.060886500000002
20.8055745 26.7632915 29.931788500000003
21.1156165 26.7145995 35.784584499999994
17.757012500000002 26.9411805 32.8728645
21.061623499999996 24.003293499999998 32.6827165
12.0906185 27.047036499999997 21.023287500000002
11.9374225 14.983107500000001 27.1342815
36.87886949999999 11.0210355 18.0429205
36.855526499999996 18.035909500000002 10.8950225
36.942207499999995 29.8210525 36.855191500000004
23.8465705 23.9581735 10.5972765
10.9782315 17.9736305 11.0633485
37.2634565 18.0290605 23.9551545
18.003687499999998 11.0480485 10.9320895
17.906282500000003 36.823308499999996 11.0175345
23.9762445 29.807475500000002 10.5376315
17.865838500000002 23.884795500000003 10.5247195
17.9496775 10.503740500000001 23.819683499999996
10.5532535 17.8990005 18.0131655
17.8755475 18.0198095 10.5508835
11.0627965 10.976233500000001 23.936201499999996
10.5902335 18.0161685 29.829730499999997
37.226119499999996 23.836172499999996 29.858948499999997
17.915519500000002 18.023829499999998 37.2873435
23.960862499999998 37.295632499999996 29.964578500000002
36.9002165 17.954071499999998 36.936545499999994
23.850154500000002 36.8670695 36.8230475
10.5774775 23.8717045 29.8066435
29.7898115 17.956053500000003 10.5499305
37.3521965 29.915789500000002 18.0170095
36.8949285 36.9299665 17.9910985
23.9363175 23.850671499999997 37.259469499999994
17.9515805 37.302010499999994 23.9971795
35.8926395 18.3015415 18.4187995
35.89593549999999 12.3786585 23.892835499999997
11.8118095 17.6935875 23.5488275
23.697390499999997 12.3795815 23.7437525
36.1384705 35.757324499999996 30.1959205
30.3883235 30.129765499999998 35.667982499999994
35.6565465 11.5179315 29.905387500000003
11.8779815 23.9325775 17.424150500000003
29.536123500000002 35.926846499999996 12.1470195
30.3313725 29.859953500000003 17.7052475
36.19526449999999 35.6464875 23.629543499999997
30.087070500000003 35.4844075 23.613971499999998
36.014942500000004 30.337149500000002 29.865322499999998
36.0769515 18.0523345 29.498833500000003
36.1563695 29.520582500000003 24.2252785
29.9543375 30.2472895 29.8038685
35.4914515 24.203922499999997 23.5916555
11.8129525 17.5893865 35.4961225
12.1215675 12.2587805 18.272448500000003
12.1362335 23.6560755 12.3298835
29.8858545 36.4035865 29.7322255
30.0857805 29.811975500000003 24.4402305
35.9796805 23.4651475 11.9921205
36.1118345 30.112581499999997 12.0428925
35.8461675 23.8318565 35.328166499999995
30.1018855 36.002760499999994 18.4478025
29.5161905 35.6854125 35.7041785
35.5226875 24.159595500000002 18.005294499999998
12.0383655 30.3310385 24.221239499999996
29.3647695 23.6290025 35.651895499999995
24.046198500000003 30.101457500000002 23.641630499999998
17.9509565 23.542680499999996 17.5807535
23.7710765 29.7243615 18.4871835
17.5282835 23.8611765 24.276666499999997
18.0174455 23.579204499999996 30.0796675
24.017919499999998 23.573179500000002 29.457010500000003
17.7593435 24.222103499999996 35.631266499999995
24.2395585 24.048964499999997 23.7800735
17.763977500000003 29.580529499999997 12.4853825
23.689248499999998 23.725604499999996 17.7425475
17.544895500000003 29.7788435 17.986292499999998
17.9532475 29.4864205 23.726806500000002
24.3061205 29.9339855 30.2098455
23.6427865 17.6514425 35.854103499999994
23.773216499999997 17.8472955 29.480644499999997
17.809900499999998 30.162448500000004 36.22440949999999
24.015018499999996 18.221954500000002 24.278439499999998
17.840501500000002 35.4257285 17.8744065
23.7879225 18.3468285 17.678636500000003
30.389860499999998 29.770703500000003 11.9941675
18.0673825 36.2417355 35.9605425
23.5256605 17.9515955 12.3587465
23.5783495 11.8570895 12.0143845
23.683645499999997 11.6686315 35.8771875
24.050270499999996 12.353621500000001 17.6174045
24.356128499999997 11.8259885 29.9879155
17.8758755 29.883815499999997 30.285428500000002
18.224853500000002 17.5303825 29.7272095
17.935222500000002 35.3891645 29.812034500000003
24.179922499999996 35.2899275 11.9701915
17.6408185 18.243109500000003 24.2443715
29.6603415 23.7121085 29.5805165
12.1113635 24.019318499999997 35.3076145
29.711864499999997 24.323527499999997 24.318397499999996
12.2717105 29.5149075 18.3153795
29.9917675 24.147625499999997 18.2272265
30.3192065 18.0741535 35.9091305
30.037940499999998 18.162687499999997 30.1896335
12.4022105 30.260459500000003 35.619536499999995
30.2753055 18.1677555 23.950073500000002
12.2239165 35.4214535 18.122124499999998
11.6588485 35.7167605 24.225967499999996
29.8511795 24.0503165 12.5122075
11.8180725 35.5417735 29.523135500000002
23.6036115 35.4054275 18.0356125
30.1020775 18.204654499999997 17.692217499999998
17.6309445 18.2248125 17.6849725
29.9896185 11.5601815 12.2565945
30.310185500000003 11.9964875 18.197044499999997
17.8336945 12.2706325 35.451607499999994
24.1608605 36.1119025 23.838908500000002
29.6177895 11.7724685 24.1082075
18.264067500000003 11.820185500000001 29.5654825
30.303948499999997 11.7589525 29.854460500000002
17.932807500000003 12.1235765 18.533812499999996
29.707218500000003 11.9695085 36.208800499999995
17.0631805 17.754518500000003 12.3965295
23.140992499999996 29.2743665 12.4067525
35.4707235 29.904095499999997 18.895843499999998
35.4661585 30.676238499999997 17.5060155
30.0066165 16.907329500000003 10.1968075
28.931718500000002 18.384851499999996 10.1716165
30.716370500000004 18.6073735 10.2234995
30.7483755 17.556653500000003 12.3691255
29.0782185 17.4389395 12.4045245
35.420925499999996 29.0484055 17.485836499999998
37.617949499999995 29.838589499999998 16.8963515
17.117504500000003 37.6520155 24.5670395
18.9062535 37.5974325 24.3344875
17.822278500000003 37.6042305 22.859067500000002
18.7224755 35.4425095 23.315388499999997
29.7295085 18.922357499999997 12.4161495
24.783815499999996 29.562219499999998 12.3910505
24.701255500000002 30.5538435 10.1874045
22.914125499999997 30.2110105 10.1956765
37.5416385 29.060002500000003 36.6091155
37.321091499999994 30.8390665 36.8238255
36.2640615 30.012488500000003 34.874118499999994
35.095220499999996 30.5901505 35.9811815
35.3229585 29.006448499999998 35.764794499999994
37.6013405 24.9906175 29.8050085
37.61506249999999 23.353843499999996 28.9555315
37.723074499999996 18.579904499999998 11.353678500000001
37.1415645 16.957463500000003 10.8259985
36.458721499999996 18.4393965 10.0658215
34.982739499999994 17.435325499999998 11.7577295
35.473767499999994 18.9501675 12.2165925
36.168184499999995 17.595423500000003 12.8720885
37.6491675 23.4205855 30.7908355
24.065017499999996 28.8686845 10.2229365
23.745678499999997 30.7999845 12.3561485
17.061291500000003 35.4607835 23.5625275
18.047593499999998 35.4483685 24.8940335
37.6470135 28.9980075 18.4858885
24.529467500000003 35.4649035 29.160897499999997
23.011979500000002 35.4593045 29.7017945
36.93368649999999 16.9822705 37.2372625
36.5369925 18.6984755 37.6463275
10.2170495 22.943183499999996 29.4758305
10.1844975 24.0884085 30.8706885
10.2433665 24.691717499999996 29.183696500000003
24.241806500000003 35.4596085 30.8081485
12.3679915 24.8112815 30.1575225
12.3795645 23.151253499999996 30.4642665
37.7719395 18.2664865 36.3864035
24.755489499999996 35.8197775 35.2790765
24.0001205 37.8196095 36.395461499999996
22.9765855 36.794616500000004 37.4427715
24.7713435 36.7096075 37.5456115
23.8583765 34.9056515 36.2451415
12.4307415 23.7475595 28.913720499999997
36.3669715 29.732930500000002 37.8377425
24.9823095 37.6139385 30.044169500000002
23.5947855 37.6214145 28.8589105
37.5932475 30.769459500000004 18.4990745
36.7529165 37.4437525 18.8582075
37.8238865 36.3343765 17.976273499999998
36.7030925 37.479091499999996 17.0407005
35.87451849999999 35.2359685 17.163483499999998
34.8913225 36.208012499999995 17.935779500000002
35.8858885 35.2423705 18.8131185
23.237187499999997 37.6152375 30.6269445
35.7191785 18.923795499999997 35.4128675
18.477185499999997 17.0280845 37.6509015
18.550653500000003 18.862294499999997 37.6020945
18.896303500000002 17.954415500000003 35.4284245
17.534727500000002 18.818816499999997 35.416394499999996
17.4507635 17.159153500000002 35.41313649999999
36.029546499999995 17.343306499999997 35.0776975
34.881970499999994 17.665530500000003 36.1916755
16.9520465 18.0259035 37.6116185
35.4687285 24.3294705 29.0258965
12.1887865 18.907360500000003 12.3226585
18.615542499999997 17.2858065 12.4132085
35.6753295 12.4013135 18.9306305
34.9699985 11.6436355 17.606075500000003
36.0822265 12.7976125 17.346104500000003
17.705513500000002 36.208175499999996 12.9702665
17.2852215 35.0708815 11.7669625
10.2004695 16.998161500000002 17.5273375
10.2076435 18.0511355 19.0014575
36.4863125 10.1412865 18.603136499999998
10.2208625 18.826207500000002 17.3202845
12.3534115 17.874947499999998 17.0183215
12.3722345 17.1732035 18.530240499999998
16.9257425 37.2969735 10.9208905
18.238522500000002 36.3797625 10.0031975
18.559960500000003 10.2471175 24.763948499999998
16.904912500000002 10.1772505 24.014551499999996
18.3687125 10.2330165 22.9917235
12.3683425 18.8301625 18.3285165
17.420202500000002 12.3597535 23.142922499999997
37.8051315 11.4207635 18.3758105
18.9204005 35.4092265 12.106417500000001
18.2336685 18.896696499999997 12.3652685
19.0009685 18.2194655 10.1908455
24.505531499999996 24.7964445 37.62762549999999
22.872888500000002 24.0419045 37.6115175
24.341679499999998 22.996236500000002 37.654433499999996
23.358903499999997 23.1588875 35.470198499999995
24.9035005 23.800385499999997 35.4282325
37.0191965 10.6424185 16.9602945
23.492478499999997 24.775358499999996 35.4137075
17.6852065 16.9966775 10.188406500000001
10.3161495 11.1565485 23.0849385
11.441919500000001 9.983382500000001 23.7787085
10.4234355 11.0398035 24.8471605
12.6956285 11.8326635 24.6886785
11.5701845 12.9628505 24.0514795
12.5184635 12.0046145 23.0305465
17.228308499999997 18.6826905 10.2400275
35.4145105 24.467184500000002 30.6547365
18.8912635 12.4146375 23.8134205
18.6552115 37.6492855 11.2496675
18.933809500000002 12.4198505 12.1556105
17.6464425 11.6242955 12.8984065
24.788622500000002 23.3988795 10.2263995
23.9267265 24.979963499999997 10.1977195
37.603258499999995 17.095116500000003 23.3254095
37.6224595 18.887086500000002 23.4134635
37.632262499999996 17.884209499999997 24.9786055
17.337799500000003 12.792583500000001 11.7835085
35.4163305 18.7651215 24.4655925
35.4307405 18.045666500000003 22.9778405
35.4522535 23.002979500000002 29.915876500000003
10.0754935 18.4225445 11.3785375
11.3270535 18.589197499999997 10.1765735
10.8288685 16.8946085 10.6597795
12.8665705 17.574133500000002 11.6349085
11.6947025 17.393421500000002 12.8460505
35.4337865 17.106367499999998 24.310714499999996
17.5543005 12.3910845 24.7609735
18.3372915 11.4481505 10.0169715
18.6337665 10.1937715 11.340602500000001
18.0485525 22.872758499999996 10.2270625
16.9901205 24.3221975 10.2072385
18.825660499999998 24.558369499999998 10.2182495
17.901394500000002 24.8757315 12.4068065
18.860940499999998 23.533482499999998 12.4240965
17.1672815 23.3354455 12.4056555
24.791580500000002 24.3806845 12.3736525
16.9353165 10.6365585 10.8824785
23.1323515 24.4348995 12.4217545
10.2390915 18.378345500000002 28.888796499999998
10.2360985 16.968239500000003 30.0252635
12.3660465 17.391253499999998 29.085797499999998
12.3926965 17.6285925 30.716190500000003
12.3619615 18.8921875 29.759356500000003
23.8847325 22.9854075 12.4135795
22.9891595 23.4650215 10.234925500000001
10.2159555 18.590889500000003 30.729628499999997
23.106641500000002 35.9435005 35.191509499999995
35.7994315 35.8842475 18.0315425
23.873163499999997 35.7968695 35.8717175
12.0062025 12.0781545 23.977681500000003
23.967445499999997 23.8482975 35.8296565
29.9226595 18.009967500000002 12.0625385
35.805989499999995 11.9341205 17.9988035
35.835038499999996 18.0269575 12.0851995
11.9193975 17.959694499999998 18.001630499999997
11.9644675 23.8889535 29.911409499999998
17.908821500000002 11.9745735 23.983698500000003
18.0419955 23.8668135 12.0123525
23.9972905 35.8617675 29.8983645
35.8488805 29.9048315 35.8803925
12.0696175 17.9312415 29.946233499999998
18.043746499999997 18.0302615 35.8083415
17.899828499999998 12.0757495 11.9691765
18.0314435 35.819076499999994 23.874640499999998
35.8935525 17.9798445 23.861115499999997
11.9557735 17.9088835 12.0611355
23.9153155 29.8613595 12.1106545
35.8936825 17.9535485 35.867713499999994
18.0137725 17.9509865 11.9651585
35.8811105 23.880942499999996 29.932252499999997
23.873174499999998 23.959936499999998 11.9464685
35.8135595 29.9168965 18.0549155
17.948643500000003 35.8530495 11.9540835
14.7689115 15.0126355 14.8362075
20.739082500000002 20.7237475 20.979597499999997
32.6979705 15.0191695 14.7250385
21.112379499999996 20.795939499999996 15.168416500000001
32.6961225 14.8239725 20.765845499999998
20.9589055 15.2200725 32.7082015
32.9410705 15.146340499999999 26.7007155
20.771013500000002 15.1175525 27.046626500000002
20.973389499999996 15.1161255 21.2111795
32.8184325 21.1389005 14.7989395
21.0647345 21.1225095 26.652362500000002
21.017629499999998 15.2792225 14.9483605
32.6822085 20.7617725 27.076499499999997
32.6614755 21.0945525 32.9010355
15.0499305 32.9725805 32.6703085
32.9142705 27.0322525 15.1875755
14.7918235 32.8696985 26.983619499999996
32.7514355 26.6054515 20.8657885
15.0808655 32.6860625 21.1192445
33.0606275 26.784310499999997 27.026017500000002
14.8286495 32.9652975 14.7612085
32.8127235 20.836842499999996 20.7537235
26.7372405 32.9134235 32.6980985
21.1820315 21.014337499999996 32.7294145
26.744479499999997 32.6938995 26.7573055
26.7581725 14.8182325 21.1120845
26.6397775 14.8041705 32.9825645
26.847651499999998 15.122564500000001 14.7765875
26.748141500000003 21.2030295 15.0676725
27.025893500000002 21.155885499999997 20.968922499999998
26.6872155 20.9788765 26.757568499999998
21.077831500000002 33.0353145 32.9122525
27.027669500000002 20.9279395 32.5217405
21.130436500000002 32.9891685 27.103111499999997
27.137040499999998 27.012173499999996 15.029571500000001
20.7750355 32.9819575 20.903234499999996
27.0791405 26.9716875 20.7631845
20.9147265 33.0252525 14.8045755
26.901830500000003 26.8098325 27.161145499999996
26.7062515 27.0921205 32.7989205
20.838756500000002 26.6129605 32.8864015
21.131159500000003 27.129374499999997 26.9178895
26.8769195 32.8197175 14.6844225
21.024469500000002 27.1219975 20.864016499999998
26.755869499999996 32.9145205 21.124125499999998
20.7386055 26.873760499999996 14.8423975
33.0537955 26.6179365 32.9525715
15.285664500000001 26.831252499999998 32.6449615
32.7008305 15.272351500000001 32.7653965
26.931273499999996 14.8616055 27.194539499999998
15.1152675 20.763293499999996 21.023272499999997
15.0979345 27.1974205 26.753550499999996
14.797387500000001 26.9883285 15.1958865
32.8050235 32.8311785 15.2231215
15.0990875 14.9056105 33.1515165
32.9770745 32.6807225 32.6344765
15.0564375 14.7561605 26.686834499999996
32.6477905 32.7092485 26.7687735
32.7621315 32.4967165 20.8880695
14.8927985 14.9461445 20.7128535
15.0118775 21.1769685 32.9410865
14.8299285 27.056566500000002 20.9112395
15.2000075 20.996655499999996 14.7707955
14.7909775 20.912755499999996 26.680955499999996
