1_train/93_cspbbr3_methylammonium_4_0.60\93_cspbbr3_methylammonium_4_0.60.xyz
1.0
47.84788 0 0
0 47.84788 0
0 0 47.84788
Br C Cs H N Pb 
240 51 61 306 51 64 
Cartesian
24.022940000000002 33.01465 26.756911
26.841365999999997 26.841350000000002 23.68255
24.057416999999997 26.845954 15.146942
23.960424999999997 21.161647 14.821652
26.70842 32.786643999999995 29.8628
26.984061 17.752135 15.132717
26.752843000000002 29.762926 32.772451000000004
26.739879 33.06669 35.84159
27.087585999999998 29.977688 26.728602
26.707134 20.819352 11.999556
23.823505 26.713794 20.902035
26.902617 23.765217 21.096281
26.793431 35.66479699999999 15.157312
27.031052 35.949189000000004 20.80764
26.837830999999998 14.953737 35.989920999999995
23.793215999999997 15.124004 32.862119
26.799903 35.927182 27.011174999999998
26.936201 35.661888000000005 33.086816999999996
23.912645 32.692026 33.094929
26.914085 21.126848 18.015393
26.805209 32.752241999999995 24.188421
26.822791 17.991822 20.707188
27.123191000000002 23.996610999999998 32.956544
23.7358 26.771953999999997 32.890894
26.794284 20.803264000000002 35.753647
26.719820000000002 27.069951 35.79041699999999
23.955835 21.102245999999997 32.721987
26.611791999999998 17.890435 32.837250999999995
26.944162000000002 21.133727 29.682882
26.930894 33.057585 12.038383999999999
27.133018 26.882931 12.031903
26.709988 29.965833 15.13306
24.00082 32.662261 15.039515999999999
24.068177000000002 20.798733000000002 26.929168999999998
26.711342 18.008699999999997 26.733127999999997
26.873906 21.0032 24.096463
26.743787 27.021518 17.904304
26.684324 29.745782 20.92173
24.108949 27.049004 26.877374
24.107906 32.823473 20.961478
26.940859 24.060309999999998 26.723573
26.973865 24.086713 15.092894
23.767762 21.012302000000002 21.117042
26.806498 26.872566 29.717935
26.987033999999998 33.063062 18.098874
30.076735 14.974366999999999 32.728124
32.734559000000004 12.201346 15.176022
32.849349000000004 35.60283 21.121782999999997
32.96027 36.04536399999999 15.144483
32.695837999999995 32.939554 35.896495
29.727082 32.920837 32.61445
32.741526 29.714084 32.734503000000004
32.712964 33.001836 29.728503
32.722493 35.863451 27.044773
29.967837 32.951874000000004 26.709063
32.828178 33.025549 23.969744000000002
29.761705 32.595549 20.913176
32.679077 29.990306 20.748044
32.898095 32.659773 17.961016
30.121173 32.858822 15.153827
32.960111 29.797273 14.870851
32.691069999999996 29.993913 26.912224
32.759319 32.722368 12.130476999999999
32.854389 35.932615999999996 33.008956999999995
35.816508999999996 15.266224999999999 21.072861999999997
35.848158999999995 32.747528 32.664907
35.975802 32.985186 26.895418
35.61004799999999 32.967207 20.851642000000002
35.73374799999999 32.811088999999996 14.733504
35.830466 26.752969 32.712631
35.977693 26.760228 26.891659
35.78507499999999 15.116276 14.812372
35.897385 26.653271 20.839045000000002
35.917349 21.087828 32.950895
35.793949999999995 20.780133 26.986454
35.671137 20.923025 21.144018
35.861502 21.097901 14.830471
35.93991799999999 14.797272 32.675655
36.077568 14.907297999999999 26.800355
35.711020000000005 26.667807 14.933793
33.095942 14.895346 11.951967999999999
32.709218 26.767754 35.889779000000004
32.837327 24.156781 32.956862
32.900034 21.112603 17.772887
30.140603 20.933992 15.02519
32.6737 17.781964 15.139536
33.045519999999996 21.158434 11.982232
32.753034 14.874875 35.705196
33.049924000000004 12.079756999999999 32.927705
32.759912 17.731662999999998 21.001966
32.768318 15.105408 29.692949
32.668126 12.199656 26.83364
32.625178 14.955881 23.892675999999998
29.714622 14.774562 21.024753999999998
32.835396 11.862778 21.09652
32.723094 14.909641 17.873407
29.730051 15.000864 15.171866999999999
29.846418 14.751897 26.795967
29.907262 26.886998000000002 32.623205999999996
30.036186999999998 20.990308 20.820683
32.917305999999996 18.19071 26.717316
32.848099000000005 26.636346 29.922459
29.748942 26.822003 27.041708
32.831698 24.014067999999998 27.055272
32.982772 26.705914 23.824318
29.829311 26.805426 20.769821
32.949747 23.781344 20.852892999999998
32.696529 20.869113000000002 24.030275999999997
32.645442 26.873234999999998 18.121346
32.692512 23.880841 14.906679
32.880236 20.880249 36.014579999999995
29.926479 21.177142999999997 32.707738
32.753225 17.88422 32.723353
32.676417 20.926792 29.717163
30.01415 21.030106999999997 26.784713999999997
30.042248 26.999255 15.112947
27.028729000000002 11.979723 33.061903
32.897113000000004 26.801427999999998 12.213054999999999
12.18147 32.807209 32.614551
20.902072999999998 14.947405 17.742583
20.767037 12.236293 21.018461
17.879516 15.203956 20.890383
15.196693 20.740081999999997 29.793758999999998
20.925662 15.04917 24.160898
20.804848 11.901402 26.728576
18.100731 15.117535 26.957773
20.706000999999997 14.921863 29.972191
20.785559 12.22322 32.914664
18.065116 14.968772 32.670821000000004
20.831332 15.226414 35.924738000000005
11.928117 20.721821000000002 26.737756
15.025317999999999 17.967413 27.169844
18.044290999999998 14.973949 14.722095
20.977318999999998 20.769155 12.109249
18.129825999999998 20.74531 15.011802
14.829051 20.913985999999998 23.81419
21.135476999999998 20.978368999999997 17.788041
21.112531 17.862142 20.979397
17.851066 20.872533999999998 20.790128
12.042361999999999 20.78739 21.048042
15.147801999999999 18.17228 20.844333
20.778797 20.978277000000002 23.858309000000002
20.951341 18.182261999999998 27.099038
15.130428 20.798892 17.908034
18.054092999999998 20.764591 27.070693000000002
14.917708999999999 23.690481000000002 27.066298999999997
11.821011 20.750794 14.918562
21.012874999999998 17.925152 14.826894
15.004631 18.030388 32.630151999999995
21.007037999999998 12.123166 14.771402
20.993163 15.028769 11.834443
12.202143 27.00718 27.094922
15.099013 26.784699 29.7418
15.170878 24.01243 32.905296
11.854061 26.886526999999997 32.756031
11.752070999999999 26.845116 21.029828
15.038958 26.86077 36.028881
15.127151 24.053193 20.96966
15.06691 32.932306 12.237902
14.992806999999999 30.059478 14.91509
12.160397999999999 32.994609 15.169163
15.158738 26.996959999999998 17.852234
15.046108 33.035467999999995 17.88616
15.017163 30.13216 20.933466
12.024386999999999 26.715126 14.850473
11.882094 32.652181 20.855214999999998
15.059999 33.037099 24.033471000000002
15.191775 23.744664 15.067912
14.921408 29.669083999999998 26.850873
11.923104 32.67154 26.727290999999997
14.77779 32.832504 29.845166
14.903482 29.96349 32.651883999999995
15.189142 26.916034999999997 11.89964
15.005260999999999 32.760439 35.625023999999996
15.040438 36.005516 14.959902
14.759773 35.93271899999999 20.842032999999997
14.92175 35.994049000000004 26.931707
14.896266 20.821952 35.735749
15.197522 35.680403 32.716263999999995
12.003437 20.744894 32.735499000000004
20.912792 20.714938999999998 29.716411
15.164667 18.046022 14.935008999999999
15.114643 26.735395 24.117168
17.818219 20.745141999999998 32.930966999999995
20.911232000000002 30.029017 20.785956
21.180426 18.105156 32.939561
12.207253999999999 15.066063 21.021266999999998
20.822577 32.859217 23.652565
15.163393 11.815033999999999 21.033351999999997
20.819382 29.693328 27.015871
17.806897 32.871707 26.726881
21.045075999999998 33.039418 29.83324
21.098451 29.885507 32.971311
18.071852 32.677287 32.694992
21.076483999999997 33.041055 35.846064999999996
20.759383 35.969601999999995 14.925624
21.086011 35.688671 20.981208
20.824513 35.954069000000004 26.816686999999998
15.208314999999999 14.972729 18.026995
20.853931 35.815202 33.044912
12.136398 15.121926 15.217709
26.930811000000002 14.808619 11.859084
27.094767 12.149845 15.102788
23.820515 15.144161 14.822859
27.017242 14.871720999999999 18.058483
15.194099999999999 11.972312 15.175367999999999
27.019346 11.951775 20.830651
23.767974 14.957818 21.077979
26.929967 14.876377999999999 24.073973
26.767905 12.175324999999999 26.758723
14.845772 14.842856999999999 12.085578
23.733273 14.952986 27.005775
26.919951 14.842901 30.013968
15.147378999999999 14.869575 24.098012999999998
21.127297000000002 32.686144999999996 18.041663
18.01775 32.830167 21.238186
17.795638 32.890141 15.179381
21.222525 20.947061 35.78849099999999
20.919938 26.738668999999998 12.203529
20.715508 23.776841 14.900821
18.013471 27.046893 14.791273
15.115863 21.093881999999997 11.799142999999999
20.857495 26.752263 18.133315
15.129868 15.177247999999999 35.759709
20.775276 23.865385 20.781053
17.841813 26.768966 20.934986
12.198558 14.948377 33.071645000000004
20.836332 27.012542999999997 23.762567999999998
20.794867 24.018035 26.752364
17.813529 27.094914 26.771812
14.960301999999999 11.828335 32.653178999999994
21.1055 26.982108 29.772388
20.823185 29.833516 15.138012
14.820622 12.203402 26.969829
21.098031 32.907837 12.149243
12.133723999999999 15.141957999999999 26.868886999999997
21.042058 24.11921 33.008213
20.79783 26.903961 35.99094699999999
18.126165 26.711153 32.930383
15.036048 14.873842999999999 30.107436
23.902494 10.885072 11.01996
36.925523 10.919827999999999 17.913733
18.014252 11.071603999999999 36.82513899999999
24.0227 36.845675 10.979386
18.068057 29.864926999999998 37.346695
17.999162 23.930094999999998 10.628029
23.96718 23.885704999999998 10.59851
36.789247 17.941874 36.80927199999999
10.905621 36.87356199999999 17.911413
23.993775 17.927554999999998 37.33632899999999
29.802448 37.268354 29.865886
37.240082 23.945451000000002 23.876592
37.37166499999999 23.978621999999998 29.839139
23.915359 23.852472 37.359685
23.852402 10.61093 23.869656
29.849845 23.936086 37.22900799999999
29.797768 11.005493999999999 36.903586000000004
37.392431 29.875034 29.914157
17.972886 10.57359 29.770025999999998
29.944876999999998 10.526271 29.814428
11.042886 36.812124999999995 23.860688999999997
36.906007 36.915499999999994 29.95729
36.934675999999996 29.845723 36.810621999999995
11.047851 17.980649 36.794122
36.945921999999996 36.892937 17.911431999999998
37.256975 17.945543999999998 18.050261
11.054973 10.914439 18.018576
11.018521 18.042147 10.920480999999999
17.991262 37.22310999999999 17.977193
29.945857 17.945968 37.226513
10.52402 23.951658 29.785785
10.967227 36.809922 29.966166
10.541978 29.935914 23.864214
10.615397999999999 29.866024 29.923636
36.813942 18.013745999999998 11.030484999999999
29.88097 23.862061 10.489384
29.824012 37.38790899999999 17.965047
11.028368 10.891562 29.896741
36.973383999999996 10.9962 29.866754
17.886447 23.910276999999997 37.290510999999995
18.049098 10.582044999999999 17.945286
29.929582 29.795022 10.566272999999999
36.912897 36.922388999999995 23.964357
29.895125 36.855442999999994 36.795176999999995
10.497729 18.012068 29.938769
36.80870399999999 23.982294999999997 10.949596999999999
23.926198 10.568445 17.902064
17.917600999999998 36.826537 11.013176999999999
11.022382 11.035663 23.866286
17.888842 37.25377399999999 23.972145
29.956115 29.911 37.245677
29.576679 30.041692 29.632262
35.58741499999999 11.782983999999999 24.116813
30.103841 36.328163 24.009871
30.228627 30.169183 18.132155
36.048467 23.737311000000002 36.087722
36.072237 30.176372 24.317156
36.117321000000004 17.717257 29.917151999999998
12.172540999999999 18.168794 23.609652999999998
11.844745 24.318717 11.729039
36.164411 24.183083999999997 18.024438999999997
36.10627099999999 29.459483 11.886921
29.556207 29.62929 23.824453000000002
29.799734 36.255002000000005 11.64654
11.662256 17.833511 17.871746
24.019004 12.28934 30.278800999999998
29.4192 24.033590999999998 29.937594
23.709312999999998 29.583647 29.487
17.735275 24.23065 18.059319
24.158389 29.512397 23.626471
18.31869 24.061382 23.777133
24.141929 29.708956 17.511153
17.738449 24.227763 29.57857
23.772566 29.835959 12.596624
18.387485 30.111113 12.206661
23.704401999999998 23.626786 29.39049
17.850766999999998 29.490095 18.040201
23.949937000000002 23.515927 23.625228
17.591248999999998 30.044101 23.590833999999997
24.269555999999998 23.568578 18.000379
17.525743 30.054804 30.172152
23.954842 17.571286 29.437749
18.275506 35.687456 29.547755
12.22822 23.629585000000002 23.740781000000002
24.242676 17.742828 24.010195
23.897533 18.232291999999998 18.375134
23.523202 18.017001 11.868972
24.327084 12.35986 36.01637699999999
24.257437 29.700292 36.285416
17.547089 18.033238 29.896275
17.717036 36.093450000000004 35.794045
24.287134 36.15574599999999 23.854080999999997
11.89887 29.414901999999998 11.654913
23.817626 36.06377499999999 17.598446
30.391410999999998 24.105166 24.148545000000002
30.090744 23.708702 18.179266
12.337246 29.515103 36.079915
29.992325 17.560322 29.600155
30.369018 18.020756 23.721438
17.545949 11.999633 12.450175999999999
29.458085999999998 17.72184 17.709683
11.744075 30.068004 18.382047
18.262249 11.798275 24.177792999999998
18.396522 17.818945 11.865898999999999
29.614966 11.725417 23.806186
18.385005 17.772092999999998 18.22353
30.131351 11.709875 17.750363
24.009252999999998 36.201252999999994 35.563345
29.705815 17.625807000000002 12.389929
17.633357 17.829332 24.279467999999998
29.38301 12.320418 11.931761
23.773262 35.489002 30.050273
18.989118 10.184617 29.770785
12.820865 18.52913 11.775148999999999
12.406307 17.030412 12.213797
23.671288 10.193489 22.912737
18.955202 36.904743999999994 10.56573
35.44036199999999 22.973133 24.106227999999998
28.890291 35.51441199999999 35.601274000000004
30.408783 35.033011 36.10777
37.582527 11.239856 29.076369
37.347087 10.959786 30.8879
35.462568000000005 24.289849 23.008149
23.219278 10.187294999999999 24.638803
36.426441999999994 10.021397 29.624009
18.48907 12.383408 30.632827
18.407051 12.376176 29.013699
35.05707699999999 11.81631 30.563827
35.342274 12.048886 28.970246
22.98135 12.383121 23.650495
36.234358 12.975418999999999 30.05568
24.898630999999998 10.209735 24.158934
17.049728 12.411427 29.984486
17.37836 10.185467 29.035049
17.244446 36.561379 10.231513999999999
30.289092 36.142323000000005 34.94357099999999
17.515109 10.240841999999999 30.788618
24.623006999999998 12.373432 23.263161
10.172205 17.330531999999998 11.298487
10.647006 19.041014 10.86069
28.83544 29.837568 10.199558
30.305956 30.782922 10.214137
30.453011 29.01293 10.252119
30.807253 29.912022 12.384421
12.942059 36.249038 23.756153
12.078771 35.33637999999999 24.860001999999998
29.408656999999998 28.993934 12.39753
29.333025 30.682 12.368813
11.839853999999999 35.132206999999994 23.164238
10.048041999999999 36.356815 24.110744999999998
36.723697 30.735138 37.54499299999999
36.759698 28.922103 37.43475599999999
10.989684 37.364878000000004 22.908676
11.217238 37.61886799999999 24.697444
37.811161999999996 29.980985999999998 36.383949
35.938717999999994 29.084603 35.22384699999999
35.833456 30.758573 35.236575
10.192853 29.240221 29.072322
11.383549 17.556649999999998 10.078223999999999
24.205366 12.364113999999999 24.841224999999998
36.68458199999999 23.108909 10.328028999999999
36.821017 24.909093000000002 10.477063
35.972328000000005 35.156758999999994 17.183707
11.664449 18.306693 12.927415
35.808201 35.32799 18.87926
36.63248299999999 37.579747999999995 18.814626
36.844643000000005 37.356954 17.015743999999998
37.871140999999994 36.375024999999994 18.097528
37.849481999999995 23.787865999999998 11.494871
35.930105 24.69285 12.674693
34.899691000000004 29.776234 36.26310099999999
34.84872299999999 36.251611999999994 17.84286
10.18667 29.439738 30.84491
28.899724 10.508008 36.905958
12.374993 30.422399 30.637842
17.622797 30.882148 37.596799000000004
22.95488 17.616848 37.622364000000005
18.298388 35.449155000000005 23.025459
17.292593 29.060067 37.65493599999999
17.057634 30.070982 35.426638
18.31108 28.975559 35.418492
18.618995 30.569099 35.432929
17.23029 37.610449 23.152065
24.113118 18.993832 37.660377999999994
24.685892 17.255829 37.652457999999996
36.605253000000005 10.259565 17.253197999999998
37.801034 11.440059 17.751474
36.91717799999999 10.538412 19.007009
35.985513999999995 12.763674 18.66746
18.990215 29.634428 37.62709699999999
34.941022000000004 11.616135 18.178642
19.011125 37.635952 23.65804
17.676038 37.667170999999996 24.887693000000002
18.633549 36.013723999999996 12.741042
19.029154 10.761016 37.078406
17.451532 11.410772 37.75916099999999
17.456507 10.104185 36.44998199999999
17.034962999999998 12.292952 35.550906999999995
29.140969 12.705345999999999 36.021114999999995
30.790301 12.502062 35.739255
18.458737 11.663618999999999 34.974132
18.457448 12.880445 36.107579
29.657526 11.643224 34.870852
30.664848 10.234703999999999 36.592466
30.113879 11.464278 37.856184
35.789438000000004 12.494584 17.054004
23.170373 18.589262 35.445334
17.070608999999997 35.440630999999996 24.107004
35.429439 28.975157 30.213606
17.739502 37.848006999999996 11.466151
18.166546999999998 34.929941 11.63206
12.375249 30.243431 29.018762
12.377816 28.946669 29.983387
29.268256 37.666168 36.481843
29.08125 23.271157 10.223967
29.739135 24.991924 10.219509
35.45606099999999 24.478205 24.693759
30.869164 37.168938 37.029326999999995
30.828636 23.542382999999997 10.24016
30.620396 24.482899 12.425252
30.009818 22.986808 12.428507999999999
28.978794999999998 24.315354 12.366602
37.636551999999995 23.535327 24.858601
37.61266499999999 24.973336999999997 23.751028
37.594173 23.268582 23.103463
10.079127 11.392723 29.424231
35.479512 30.608705999999998 30.45303
18.617695 35.434276999999994 24.592761
23.726022 17.012228999999998 35.474221
35.43348999999999 29.972958 28.909482999999998
37.61922299999999 30.852739 29.443253
37.611649 29.075548 29.243130999999998
10.196727 30.897624 29.712476
37.609014 29.741604 30.931064
17.046404 35.75926799999999 12.446525
12.250829 12.333385 28.877357
11.732745 12.884831 30.365802
12.933103 11.701155 30.318907
10.789472 10.747539 30.907507
11.34244 10.107561 29.336886
24.820919999999997 18.281394 35.477723
29.457666 36.46597799999999 37.78346499999999
12.409673999999999 12.211672 22.99748
35.856663 35.232073 29.034658
37.830483 18.047691 36.35410399999999
36.787807 17.023082 37.41962699999999
29.595271 35.446168 28.935859
30.834323 35.43081099999999 30.044209
29.215008 35.433814999999996 30.609621
30.174715 37.61296899999999 30.882482
28.829164 37.646867 29.64361
30.592284 37.666512999999995 29.115638999999998
36.733208000000005 18.868526 37.487567999999996
35.44435299999999 24.597300999999998 30.533246
35.42241799999999 23.016259 30.123123
37.61635799999999 23.236556 29.143971999999998
37.59975899999999 23.620813000000002 30.856934
37.61635799999999 24.961243 29.655383999999998
28.983011 23.72195 35.45665199999999
30.192442 24.844703 35.427037
30.554419 23.212931 35.448576
30.910254 24.169427 37.64461899999999
35.417992999999996 24.171763000000002 28.959296
29.559903 22.932384 37.587576999999996
35.884974 18.85316 35.216177
35.963573999999994 17.149375 35.196168
24.350939 12.88167 11.668801
22.941964000000002 12.269916 12.281924
24.437057 11.682182 12.833136
23.400426999999997 10.124305 11.387751999999999
24.940839 10.798013 10.734046
23.393128 11.40259 10.136197
23.350765 23.156246 12.362521
24.897408000000002 23.7786 12.425275
34.886583 17.956525 36.19949
23.596813 24.817390999999997 12.376908
22.921758 24.056504 10.240191
24.298244999999998 22.959647 10.242858
11.730945 35.021371 18.480641
12.252497 35.494412 17.053663999999998
12.878753 36.147437 18.415288999999998
11.383989 37.725483999999994 17.38254
10.823197 37.126699 19.020351
10.115563 36.463065 17.540684
24.586795 24.729929000000002 10.190871
19.037856 23.976133 10.188618
29.192702 24.700948 37.668755000000004
17.977145999999998 22.987987 35.464603999999994
11.667014 12.950217 24.289561
12.774951 11.751793 24.523244000000002
35.852802999999994 23.023266 12.554139
11.426024 10.089177 23.512089999999997
10.190602 11.346847 23.293260999999998
10.599243 10.833563 24.95872
12.370045 18.006792 28.939829
12.407741999999999 18.805863 30.401823
17.101437 10.210904 17.404854
12.431985 17.113649 30.289680999999998
10.201127999999999 17.130983999999998 29.32335
10.202843 18.899376999999998 29.442756
29.435139 29.013882 35.48541399999999
29.373359 30.646577999999998 35.442137
30.789239 29.913967 35.442823000000004
30.30724 30.814849 37.666449
30.445853 29.006581 37.670692
28.814847 29.792393 37.663214999999994
10.245732 17.885002 30.910502
18.764136 24.395993 35.435255
18.92896 10.233485 17.565962
18.739589 12.414928 18.497302
17.11911 24.41342 35.469673
17.119388 23.40639 37.613749
17.977002 24.940424 37.627149
18.86225 23.451251 37.64729
35.504514 35.598349 24.864624
35.034795 36.090858 23.373313999999997
36.18258899999999 34.911452999999995 23.51071
37.19059 37.01786 22.929407
17.848533 10.190047 19.028569
37.732248 36.484053 24.534414
24.767118 12.376061 17.461057
23.087522 12.368287 17.492184
23.955012999999997 12.42626 18.947492
23.024022 10.191597 18.495061
24.81829 10.197217 18.451038999999998
23.923804999999998 10.200909 16.962884
18.04633 12.431618 17.045259
17.127979 12.425851999999999 18.399385
36.39952699999999 37.748226 24.341147
34.84810999999999 36.234588 29.927772
17.553048 23.019242000000002 10.218397
17.003149 23.836645 12.359506999999999
30.414281 18.772119999999997 35.482423
30.280166 17.142964 35.460133
28.898545 18.06501 35.46991799999999
29.29629 17.069288999999998 37.632566
29.388438999999998 18.906698 37.614307999999994
30.904588999999998 17.877712 37.60975499999999
12.383064 23.065972 30.362979
12.372553 23.918015999999998 28.910557
10.430947999999999 11.018091 18.945663
12.374568 24.748523000000002 30.302372
10.202079999999999 23.917313 30.928831
10.187424 23.013502 29.359583999999998
12.140169 35.43505499999999 30.817912
11.77793 35.044982000000005 29.237514
12.963818999999999 36.21536999999999 29.621199
10.917366999999999 37.239885 28.857725
11.239101 37.629289 30.587126
10.044622 36.411698 30.138216
10.189440999999999 24.801643000000002 29.298391
12.397964 29.886143 22.943385
10.324088 11.188659 17.094863
12.543789 12.054392 17.086928999999998
35.970541 35.16740899999999 30.664723
37.860871 36.39751 29.797403
36.751965999999996 37.454688000000004 30.816115
36.71283699999999 37.495588 29.032471
12.85677 17.428277 36.131344999999996
11.630224 17.578392 34.930735999999996
12.386232 18.924789999999998 35.602428
10.132988 18.551790999999998 36.508026
11.441675 10.020246 17.864774
11.401848 18.366254 37.806028
35.428956 18.192634 17.017119
35.480771000000004 17.04644 18.251624
35.461945 18.648245 18.606132
37.638980000000004 17.717596999999998 18.980825
37.66335099999999 18.969210999999998 17.665778
37.611802999999995 17.225959 17.295196
11.639645 12.972000999999999 18.114163
12.730394 11.895878999999999 18.7368
10.668436999999999 16.964033999999998 36.99175199999999
17.358387 24.75903 10.238751
12.386315999999999 30.702021 24.362176
10.19021 29.918657 24.948187
18.107333 35.46910199999999 17.035783
17.14938 37.64988699999999 17.323431
18.931274 37.663335000000004 17.589398
17.842787 37.596861000000004 18.988101
23.367302 24.699454 35.479944
24.864991 24.002115999999997 35.422364
23.515274 23.035349999999998 35.47020499999999
24.481417 23.066329999999997 37.670320000000004
17.059243 35.46549999999999 18.367110999999998
22.849906 23.858378 37.65795299999999
23.238153 35.047917999999996 11.827200999999999
24.862568999999997 35.388346 12.129113
23.662938999999998 36.217308 12.977068
24.676672 37.643862 11.24071
22.898984000000002 37.275733 10.961283
24.147603999999998 36.404202999999995 10.008303999999999
18.483695 23.144819000000002 12.37413
18.406253 24.800386999999997 12.422616999999999
24.406276000000002 24.867064 37.656583
12.424343 29.07359 24.392500000000002
18.775262 35.448791 18.519533
29.973917 10.219232 28.831525
10.177959999999999 28.96316 23.415682999999998
10.226504 30.736606 23.416199
35.68312999999999 17.059193999999998 12.433383
36.04293299999999 18.614883 12.816894999999999
34.894988 18.235060999999998 11.657797
36.920345999999995 18.989372 10.55689
36.539675 17.295845 10.187942
37.817052000000004 17.654733 11.408448
28.940006 10.204369 30.293337
29.728538 35.449816 16.987795
29.108931 35.432885 18.602283
30.029768999999998 37.62585899999999 19.037622
28.870066 37.602231 17.607751999999998
30.719624 37.642201 17.306988
29.100807 12.404710999999999 29.309952
29.765313 12.41012 30.799527
30.729103 12.372615999999999 29.516865
30.719017 10.219428 30.534785
30.762069 35.480557000000005 18.310759
34.906633 24.040589 11.590913
17.976205 12.080219 17.922575
29.947551999999998 11.966171 29.916574
11.998878 12.107854999999999 23.879019
18.0277 35.773589 17.907336
18.050383999999998 35.820319 23.88693
23.964434 11.959366 12.051858
35.803810999999996 29.944712 29.81737
23.951088000000002 23.85106 12.039216999999999
17.922071 29.947295 35.871416999999994
12.059153 11.949136 29.92847
35.81653299999999 12.076093 17.923199
18.007455999999998 23.994746 12.050766
18.035784 11.977888 35.875266999999994
23.857983 23.945531 35.856138
23.971276 35.770538 12.038235
35.761745000000005 17.974603 12.06904
29.879292 23.99195 11.976481
35.846001 35.757538999999994 29.812095
29.932298 29.806934 12.028251
35.883218 29.802179 35.822552
11.967229 18.028448 35.77246099999999
29.958123999999998 29.880153 35.87571
35.878046 35.869215 17.921896
35.752599000000004 18.027959 17.929229
12.01829 11.959111 17.890942
11.977647 18.012954999999998 11.978568
29.89947 18.049912 35.81580199999999
35.82205499999999 23.953148 11.959245
35.804734999999994 12.048373 29.955585
11.976633 23.860197 29.814327
12.071061 17.938067 29.952126
17.9211 11.965914999999999 29.805788
11.980834999999999 35.86982499999999 29.928441
11.982116999999999 29.810397 23.986520000000002
11.965351 29.939394 29.851926
29.923593 11.998286 35.776537000000005
29.793043 35.77171 17.975718999999998
12.075668 35.804394 18.033405
35.84245299999999 35.743943 23.887448
29.941167 35.77266999999999 35.769470999999996
17.91102 35.858610999999996 12.025739
29.855971 35.755482 29.841334
23.879358 12.107942999999999 17.996941
29.951006 23.943026 35.76428799999999
12.042038999999999 35.89417399999999 23.896993
35.875455 17.951574 35.874769
18.046513 23.94754 35.889892
23.959213000000002 17.916256 35.755928
23.973485 11.938138 23.917342
35.89693 23.948691999999998 23.976001
35.834858999999994 23.909546 29.797822
14.815224 15.24175 15.042126
15.208324999999999 33.007086 32.674668
32.803807 26.922606 14.740051
20.596691 26.857149 32.790802
15.192350999999999 32.776849 26.685049
26.746349 32.670073 14.788843
32.7558 26.624861 20.72676
15.31559 32.761801 20.961022
33.058347 26.698556999999997 26.966585
15.163523 33.050321 14.799341
21.166124999999997 32.948054 15.083893999999999
21.128516 21.117861 26.766657
32.70376 26.67437 33.062739
14.821176999999999 27.074273 32.971689
21.138237 32.663667000000004 21.062734
32.559325 32.960315 15.077993
15.120191 27.109607999999998 26.937018
26.835687 26.739315 26.747463
26.660161 32.654264999999995 20.982043
32.604217 32.795208 20.77197
32.591792 20.740008 32.749461
32.750748 20.754407 26.961403999999998
21.101764 21.200323 21.017537
32.636249 15.01203 20.770125
20.956177999999998 21.117041 32.557911000000004
20.986393 21.06212 14.6873
33.096377000000004 15.145413999999999 26.731595000000002
32.702478 14.840125 32.934893
21.153071999999998 14.756896999999999 32.679662
20.712591999999997 26.656806 15.050168
26.725144 15.18248 32.794028
21.218934 14.903402999999999 26.862437
26.792346 32.593182 32.767786
32.893316 20.812818 15.279085
20.928838 15.119470999999999 21.165152
32.653354 21.135763 20.906547999999997
20.954441 26.736949 20.746059
21.074141 14.848499 15.179689999999999
27.123783999999997 32.928736 26.71605
20.964919 26.916361 26.555133
14.739311 27.020931 20.73576
26.780945 26.950947 32.594338
20.813767000000002 32.668942 27.076969000000002
27.232364 20.993793 14.88765
15.076283 15.210456 20.873155
26.672458 15.021204 26.989047
14.821791 14.939402 26.680736999999997
26.636076 21.140064 21.097151999999998
26.827819 14.70482 20.97242
15.093859 14.829671 32.950889000000004
27.030474 14.951232 15.175191
14.854728999999999 21.105397999999997 15.181894999999999
26.843292 20.708011 26.689261
15.264827 21.007334 21.145374999999998
27.190344 21.033575 32.925098
15.138285 20.894347999999997 26.720992
26.737658999999997 26.803469 15.214250999999999
33.041224 15.101780999999999 15.119119999999999
21.071495 33.061293 33.057083
33.006653 32.880291 27.090283
14.879351999999999 20.761937999999997 32.874486000000005
15.136152 26.972342 14.83776
32.935326 32.97627 33.053101
26.73518 27.082581 20.993554999999997
