3_train/194_cspbbr3_MA-BS_3_0.40\194_cspbbr3_MA-BS_3_0.40.xyz
1.0
45.126988 0 0
0 45.126988 0
0 0 45.126988
Br C Cs H N O Pb S 
84 165 33 246 21 72 27 24 
Cartesian
16.613493999999996 13.638493999999998 16.613493999999996
13.638493999999998 16.613493999999996 16.613493999999996
16.613493999999996 16.613493999999996 19.588493999999997
16.613493999999996 13.638493999999998 22.563494
16.613493999999996 16.613493999999996 25.538493999999996
13.638493999999998 16.613493999999996 28.513493999999998
16.613493999999996 22.563494 13.638493999999998
16.613493999999996 19.588493999999997 16.613493999999996
13.638493999999998 22.563494 16.613493999999996
16.613493999999996 22.563494 19.588493999999997
16.613493999999996 19.588493999999997 22.563494
16.613493999999996 22.563494 25.538493999999996
16.613493999999996 19.588493999999997 28.513493999999998
16.613493999999996 22.563494 31.488494
16.613493999999996 25.538493999999996 16.613493999999996
13.638493999999998 28.513493999999998 16.613493999999996
16.613493999999996 28.513493999999998 19.588493999999997
16.613493999999996 25.538493999999996 22.563494
13.638493999999998 28.513493999999998 22.563494
16.613493999999996 28.513493999999998 25.538493999999996
16.613493999999996 25.538493999999996 28.513493999999998
16.613493999999996 28.513493999999998 31.488494
16.613493999999996 31.488494 16.613493999999996
16.613493999999996 31.488494 28.513493999999998
22.563494 16.613493999999996 13.638493999999998
19.588493999999997 16.613493999999996 16.613493999999996
22.563494 16.613493999999996 19.588493999999997
22.563494 13.638493999999998 22.563494
19.588493999999997 16.613493999999996 22.563494
22.563494 16.613493999999996 25.538493999999996
19.588493999999997 16.613493999999996 28.513493999999998
22.563494 16.613493999999996 31.488494
22.563494 19.588493999999997 16.613493999999996
19.588493999999997 22.563494 16.613493999999996
22.563494 22.563494 19.588493999999997
22.563494 19.588493999999997 22.563494
19.588493999999997 22.563494 22.563494
22.563494 22.563494 25.538493999999996
22.563494 19.588493999999997 28.513493999999998
19.588493999999997 22.563494 28.513493999999998
22.563494 28.513493999999998 13.638493999999998
22.563494 25.538493999999996 16.613493999999996
19.588493999999997 28.513493999999998 16.613493999999996
22.563494 28.513493999999998 19.588493999999997
22.563494 25.538493999999996 22.563494
19.588493999999997 28.513493999999998 22.563494
22.563494 28.513493999999998 25.538493999999996
22.563494 25.538493999999996 28.513493999999998
19.588493999999997 28.513493999999998 28.513493999999998
22.563494 28.513493999999998 31.488494
22.563494 31.488494 22.563494
22.563494 31.488494 28.513493999999998
28.513493999999998 16.613493999999996 13.638493999999998
28.513493999999998 13.638493999999998 16.613493999999996
25.538493999999996 16.613493999999996 16.613493999999996
28.513493999999998 16.613493999999996 19.588493999999997
25.538493999999996 16.613493999999996 22.563494
28.513493999999998 16.613493999999996 25.538493999999996
28.513493999999998 13.638493999999998 28.513493999999998
25.538493999999996 16.613493999999996 28.513493999999998
28.513493999999998 16.613493999999996 31.488494
28.513493999999998 22.563494 13.638493999999998
28.513493999999998 19.588493999999997 16.613493999999996
25.538493999999996 22.563494 16.613493999999996
28.513493999999998 22.563494 19.588493999999997
28.513493999999998 19.588493999999997 22.563494
25.538493999999996 22.563494 22.563494
28.513493999999998 22.563494 25.538493999999996
28.513493999999998 19.588493999999997 28.513493999999998
25.538493999999996 22.563494 28.513493999999998
28.513493999999998 25.538493999999996 16.613493999999996
25.538493999999996 28.513493999999998 16.613493999999996
28.513493999999998 28.513493999999998 19.588493999999997
28.513493999999998 25.538493999999996 22.563494
25.538493999999996 28.513493999999998 22.563494
28.513493999999998 28.513493999999998 25.538493999999996
28.513493999999998 25.538493999999996 28.513493999999998
25.538493999999996 28.513493999999998 28.513493999999998
28.513493999999998 31.488494 16.613493999999996
31.488494 16.613493999999996 16.613493999999996
31.488494 16.613493999999996 28.513493999999998
31.488494 22.563494 28.513493999999998
31.488494 28.513493999999998 16.613493999999996
31.488494 28.513493999999998 22.563494
28.293668 22.523222 35.841060999999996
28.513493999999998 22.563494 34.465135
28.932644999999997 21.396963999999997 33.814156
28.915500999999995 20.176429999999996 35.888305
28.491471999999998 21.333828999999998 36.55090799999999
29.139205 20.200687 34.51403499999999
16.393667999999998 16.573221999999998 35.841060999999996
16.613493999999996 16.613493999999996 34.465135
17.032645 15.446963999999998 33.814156
17.015500999999997 14.226429999999997 35.888305
16.591471999999996 15.383828999999999 36.55090799999999
17.239205 14.250686999999997 34.51403499999999
28.293668 28.473221999999996 35.841060999999996
28.513493999999998 28.513493999999998 34.465135
28.932644999999997 27.346963999999996 33.814156
28.915500999999995 26.126429999999996 35.888305
28.491471999999998 27.283828999999997 36.55090799999999
29.139205 26.150686999999998 34.51403499999999
22.343667999999997 22.523222 35.841060999999996
22.563494 22.563494 34.465135
22.982644999999998 21.396963999999997 33.814156
22.965501 20.176429999999996 35.888305
22.541471999999995 21.333828999999998 36.55090799999999
23.189204999999998 20.200687 34.51403499999999
22.78332 22.523222 9.285926999999997
22.563494 22.563494 10.661852999999997
22.144342999999996 21.396963999999997 11.312831999999998
22.161486999999997 20.176429999999996 9.238682999999998
22.585516 21.333828999999998 8.576079999999997
21.937782999999996 20.200687 10.612952999999997
16.833319999999997 28.473221999999996 9.285926999999997
16.613493999999996 28.513493999999998 10.661852999999997
16.194342999999996 27.346963999999996 11.312831999999998
16.211486999999998 26.126429999999996 9.238682999999998
16.635515999999996 27.283828999999997 8.576079999999997
15.987782999999999 26.150686999999998 10.612952999999997
28.733319999999996 28.473221999999996 9.285926999999997
28.513493999999998 28.513493999999998 10.661852999999997
28.094343 27.346963999999996 11.312831999999998
28.111487 26.126429999999996 9.238682999999998
28.535515999999998 27.283828999999997 8.576079999999997
27.887782999999995 26.150686999999998 10.612952999999997
16.833319999999997 16.573221999999998 9.285926999999997
16.613493999999996 16.613493999999996 10.661852999999997
16.194342999999996 15.446963999999998 11.312831999999998
16.211486999999998 14.226429999999997 9.238682999999998
16.635515999999996 15.383828999999999 8.576079999999997
15.987782999999999 14.250686999999997 10.612952999999997
9.285926999999997 16.573221999999998 22.343667999999997
10.661852999999997 16.613493999999996 22.563494
11.312831999999998 15.446963999999998 22.982644999999998
9.238682999999998 14.226429999999997 22.965501
8.576079999999997 15.383828999999999 22.541471999999995
10.612952999999997 14.250686999999997 23.189204999999998
9.285926999999997 28.473221999999996 28.293668
10.661852999999997 28.513493999999998 28.513493999999998
11.312831999999998 27.346963999999996 28.932644999999997
9.238682999999998 26.126429999999996 28.915500999999995
8.576079999999997 27.283828999999997 28.491471999999998
10.612952999999997 26.150686999999998 29.139205
9.285926999999997 22.523222 28.293668
10.661852999999997 22.563494 28.513493999999998
11.312831999999998 21.396963999999997 28.932644999999997
9.238682999999998 20.176429999999996 28.915500999999995
8.576079999999997 21.333828999999998 28.491471999999998
10.612952999999997 20.200687 29.139205
9.285926999999997 22.523222 22.343667999999997
10.661852999999997 22.563494 22.563494
11.312831999999998 21.396963999999997 22.982644999999998
9.238682999999998 20.176429999999996 22.965501
8.576079999999997 21.333828999999998 22.541471999999995
10.612952999999997 20.200687 23.189204999999998
35.841060999999996 22.523222 22.78332
34.465135 22.563494 22.563494
33.814156 21.396963999999997 22.144342999999996
35.888305 20.176429999999996 22.161486999999997
36.55090799999999 21.333828999999998 22.585516
34.51403499999999 20.200687 21.937782999999996
35.841060999999996 22.523222 16.833319999999997
34.465135 22.563494 16.613493999999996
33.814156 21.396963999999997 16.194342999999996
35.888305 20.176429999999996 16.211486999999998
36.55090799999999 21.333828999999998 16.635515999999996
34.51403499999999 20.200687 15.987782999999999
35.841060999999996 28.473221999999996 28.733319999999996
34.465135 28.513493999999998 28.513493999999998
33.814156 27.346963999999996 28.094343
35.888305 26.126429999999996 28.111487
36.55090799999999 27.283828999999997 28.535515999999998
34.51403499999999 26.150686999999998 27.887782999999995
35.841060999999996 16.573221999999998 22.78332
34.465135 16.613493999999996 22.563494
33.814156 15.446963999999998 22.144342999999996
35.888305 14.226429999999997 22.161486999999997
36.55090799999999 15.383828999999999 22.585516
34.51403499999999 14.250686999999997 21.937782999999996
28.293668 9.285926999999997 22.523222
28.513493999999998 10.661852999999997 22.563494
28.932644999999997 11.312831999999998 21.396963999999997
28.915500999999995 9.238682999999998 20.176429999999996
28.491471999999998 8.576079999999997 21.333828999999998
29.139205 10.612952999999997 20.200687
22.343667999999997 9.285926999999997 16.573221999999998
22.563494 10.661852999999997 16.613493999999996
22.982644999999998 11.312831999999998 15.446963999999998
22.965501 9.238682999999998 14.226429999999997
22.541471999999995 8.576079999999997 15.383828999999999
23.189204999999998 10.612952999999997 14.250686999999997
16.393667999999998 9.285926999999997 28.473221999999996
16.613493999999996 10.661852999999997 28.513493999999998
17.032645 11.312831999999998 27.346963999999996
17.015500999999997 9.238682999999998 26.126429999999996
16.591471999999996 8.576079999999997 27.283828999999997
17.239205 10.612952999999997 26.150686999999998
22.343667999999997 9.285926999999997 28.473221999999996
22.563494 10.661852999999997 28.513493999999998
22.982644999999998 11.312831999999998 27.346963999999996
22.965501 9.238682999999998 26.126429999999996
22.541471999999995 8.576079999999997 27.283828999999997
23.189204999999998 10.612952999999997 26.150686999999998
22.343667999999997 35.841060999999996 16.653765999999997
22.563494 34.465135 16.613493999999996
22.982644999999998 33.814156 17.780023999999997
22.965501 35.888305 19.000557999999998
22.541471999999995 36.55090799999999 17.843159
23.189204999999998 34.51403499999999 18.976301
28.293668 35.841060999999996 28.553766
28.513493999999998 34.465135 28.513493999999998
28.932644999999997 33.814156 29.680024
28.915500999999995 35.888305 30.900557999999997
28.491471999999998 36.55090799999999 29.743159
29.139205 34.51403499999999 30.876300999999998
28.293668 35.841060999999996 22.603765999999997
28.513493999999998 34.465135 22.563494
28.932644999999997 33.814156 23.730023999999997
28.915500999999995 35.888305 24.950557999999997
28.491471999999998 36.55090799999999 23.793159
29.139205 34.51403499999999 24.926301
16.393667999999998 35.841060999999996 22.603765999999997
16.613493999999996 34.465135 22.563494
17.032645 33.814156 23.730023999999997
17.015500999999997 35.888305 24.950557999999997
16.591471999999996 36.55090799999999 23.793159
17.239205 34.51403499999999 24.926301
12.595043999999998 12.595043999999998 25.538493999999996
12.162833 19.588493999999997 25.538493999999996
12.595043999999998 19.588493999999997 32.531943999999996
12.595043999999998 25.538493999999996 12.595043999999998
12.595043999999998 25.538493999999996 32.531943999999996
19.588493999999997 12.162833 25.538493999999996
19.588493999999997 12.595043999999998 32.531943999999996
19.588493999999997 19.588493999999997 12.162833
19.588493999999997 32.964155 25.538493999999996
25.538493999999996 12.595043999999998 12.595043999999998
25.538493999999996 12.162833 25.538493999999996
25.538493999999996 19.588493999999997 32.964155
25.538493999999996 25.538493999999996 12.162833
25.538493999999996 32.964155 19.588493999999997
32.531943999999996 12.595043999999998 19.588493999999997
32.531943999999996 19.588493999999997 12.595043999999998
32.964155 19.588493999999997 19.588493999999997
32.531943999999996 19.588493999999997 32.531943999999996
32.964155 25.538493999999996 25.538493999999996
32.531943999999996 25.538493999999996 32.531943999999996
32.531943999999996 32.531943999999996 25.538493999999996
13.638493999999998 13.638493999999998 19.588493999999997
13.638493999999998 19.588493999999997 13.638493999999998
13.638493999999998 19.588493999999997 19.588493999999997
13.638493999999998 25.538493999999996 19.588493999999997
13.638493999999998 25.538493999999996 25.538493999999996
13.638493999999998 31.488494 19.588493999999997
13.638493999999998 31.488494 25.538493999999996
19.588493999999997 13.638493999999998 13.638493999999998
19.588493999999997 13.638493999999998 19.588493999999997
19.588493999999997 19.588493999999997 19.588493999999997
19.588493999999997 19.588493999999997 25.538493999999996
19.588493999999997 19.588493999999997 31.488494
19.588493999999997 25.538493999999996 13.638493999999998
19.588493999999997 25.538493999999996 19.588493999999997
19.588493999999997 25.538493999999996 25.538493999999996
19.588493999999997 25.538493999999996 31.488494
19.588493999999997 31.488494 31.488494
25.538493999999996 13.638493999999998 19.588493999999997
25.538493999999996 13.638493999999998 31.488494
25.538493999999996 19.588493999999997 13.638493999999998
25.538493999999996 19.588493999999997 19.588493999999997
25.538493999999996 19.588493999999997 25.538493999999996
25.538493999999996 25.538493999999996 19.588493999999997
25.538493999999996 25.538493999999996 25.538493999999996
25.538493999999996 25.538493999999996 31.488494
25.538493999999996 31.488494 13.638493999999998
25.538493999999996 31.488494 25.538493999999996
25.538493999999996 31.488494 31.488494
31.488494 13.638493999999998 25.538493999999996
31.488494 19.588493999999997 25.538493999999996
31.488494 25.538493999999996 13.638493999999998
31.488494 25.538493999999996 19.588493999999997
31.488494 31.488494 19.588493999999997
29.069331 19.250926999999997 36.444435
28.310402999999997 21.307726 37.626988
27.960382999999997 23.422251 36.361108
28.352234999999997 23.478447 33.893596
29.462436 19.306575 33.979346
17.169331 13.300926999999998 36.444435
16.410403 15.357725999999998 37.626988
16.060382999999998 17.472251 36.361108
16.452234999999998 17.528447 33.893596
17.562435999999998 13.356574999999998 33.979346
29.069331 25.200926999999997 36.444435
28.310402999999997 27.257725999999998 37.626988
27.960382999999997 29.372251 36.361108
28.352234999999997 29.428447 33.893596
29.462436 25.256574999999998 33.979346
23.119331 19.250926999999997 36.444435
22.360402999999998 21.307726 37.626988
22.010382999999997 23.422251 36.361108
22.402234999999997 23.478447 33.893596
23.512435999999997 19.306575 33.979346
22.007657 19.250926999999997 8.682552999999999
22.766584999999996 21.307726 7.499999999999998
23.116604999999996 23.422251 8.76588
22.724752999999996 23.478447 11.233391999999998
21.614551999999996 19.306575 11.147641999999998
16.057657 25.200926999999997 8.682552999999999
16.816584999999996 27.257725999999998 7.499999999999998
17.166604999999997 29.372251 8.76588
16.774752999999997 29.428447 11.233391999999998
15.664551999999997 25.256574999999998 11.147641999999998
27.957656999999998 25.200926999999997 8.682552999999999
28.716585 27.257725999999998 7.499999999999998
29.066605 29.372251 8.76588
28.674753 29.428447 11.233391999999998
27.564551999999996 25.256574999999998 11.147641999999998
16.057657 13.300926999999998 8.682552999999999
16.816584999999996 15.357725999999998 7.499999999999998
17.166604999999997 17.472251 8.76588
16.774752999999997 17.528447 11.233391999999998
15.664551999999997 13.356574999999998 11.147641999999998
8.682552999999999 13.300926999999998 23.119331
7.499999999999998 15.357725999999998 22.360402999999998
8.76588 17.472251 22.010382999999997
11.233391999999998 17.528447 22.402234999999997
11.147641999999998 13.356574999999998 23.512435999999997
8.682552999999999 25.200926999999997 29.069331
7.499999999999998 27.257725999999998 28.310402999999997
8.76588 29.372251 27.960382999999997
11.233391999999998 29.428447 28.352234999999997
11.147641999999998 25.256574999999998 29.462436
8.682552999999999 19.250926999999997 29.069331
7.499999999999998 21.307726 28.310402999999997
8.76588 23.422251 27.960382999999997
11.233391999999998 23.478447 28.352234999999997
11.147641999999998 19.306575 29.462436
8.682552999999999 19.250926999999997 23.119331
7.499999999999998 21.307726 22.360402999999998
8.76588 23.422251 22.010382999999997
11.233391999999998 23.478447 22.402234999999997
11.147641999999998 19.306575 23.512435999999997
36.444435 19.250926999999997 22.007657
37.626988 21.307726 22.766584999999996
36.361108 23.422251 23.116604999999996
33.893596 23.478447 22.724752999999996
33.979346 19.306575 21.614551999999996
36.444435 19.250926999999997 16.057657
37.626988 21.307726 16.816584999999996
36.361108 23.422251 17.166604999999997
33.893596 23.478447 16.774752999999997
33.979346 19.306575 15.664551999999997
36.444435 25.200926999999997 27.957656999999998
37.626988 27.257725999999998 28.716585
36.361108 29.372251 29.066605
33.893596 29.428447 28.674753
33.979346 25.256574999999998 27.564551999999996
36.444435 13.300926999999998 22.007657
37.626988 15.357725999999998 22.766584999999996
36.361108 17.472251 23.116604999999996
33.893596 17.528447 22.724752999999996
33.979346 13.356574999999998 21.614551999999996
29.069331 8.682552999999999 19.250926999999997
28.310402999999997 7.499999999999998 21.307726
27.960382999999997 8.76588 23.422251
28.352234999999997 11.233391999999998 23.478447
29.462436 11.147641999999998 19.306575
23.119331 8.682552999999999 13.300926999999998
22.360402999999998 7.499999999999998 15.357725999999998
22.010382999999997 8.76588 17.472251
22.402234999999997 11.233391999999998 17.528447
23.512435999999997 11.147641999999998 13.356574999999998
17.169331 8.682552999999999 25.200926999999997
16.410403 7.499999999999998 27.257725999999998
16.060382999999998 8.76588 29.372251
16.452234999999998 11.233391999999998 29.428447
17.562435999999998 11.147641999999998 25.256574999999998
23.119331 8.682552999999999 25.200926999999997
22.360402999999998 7.499999999999998 27.257725999999998
22.010382999999997 8.76588 29.372251
22.402234999999997 11.233391999999998 29.428447
23.512435999999997 11.147641999999998 25.256574999999998
23.119331 36.444435 19.926060999999997
22.360402999999998 37.626988 17.869262
22.010382999999997 36.361108 15.754736999999999
22.402234999999997 33.893596 15.698540999999999
23.512435999999997 33.979346 19.870413
29.069331 36.444435 31.826061
28.310402999999997 37.626988 29.769261999999998
27.960382999999997 36.361108 27.654736999999997
28.352234999999997 33.893596 27.598540999999997
29.462436 33.979346 31.770412999999998
29.069331 36.444435 25.876060999999996
28.310402999999997 37.626988 23.819262
27.960382999999997 36.361108 21.704736999999998
28.352234999999997 33.893596 21.648540999999998
29.462436 33.979346 25.820413
17.169331 36.444435 25.876060999999996
16.410403 37.626988 23.819262
16.060382999999998 36.361108 21.704736999999998
16.452234999999998 33.893596 21.648540999999998
17.562435999999998 33.979346 25.820413
12.814554999999999 11.903297999999998 26.353925999999998
11.631763999999997 13.086088999999998 25.688806999999997
12.630459999999998 12.087391999999998 24.572748999999998
13.483566999999997 14.323385999999998 24.786987
14.573633999999998 13.233319999999999 25.399964999999998
13.653229999999997 14.153723999999999 26.42853
11.828911999999999 20.204438999999997 26.375593999999996
11.828911999999999 20.005471 24.586519999999997
11.828911999999999 18.555571999999998 25.653368999999998
14.013236 19.020834999999998 24.767018999999998
14.013236 19.204206 26.415839
14.013236 20.540440999999998 25.432624999999998
12.998706999999998 20.099852 33.407842
11.725894999999998 20.116383 32.13503
12.352177999999999 18.549246999999998 32.761313
13.313851999999997 19.117223 30.633886999999998
14.486881999999998 19.101988999999996 31.806917
13.909695999999997 20.546269 31.229729999999996
13.046270999999997 25.906245 11.671581999999997
12.240454999999997 24.512796999999996 12.477397999999997
11.790053999999998 26.19644 12.927798999999997
13.270016999999998 25.199572999999997 14.536936999999998
14.012660999999998 26.483780999999997 13.794292999999998
14.427752999999997 24.932128 13.379200999999998
11.688608999999998 25.112495 32.097744
12.954954999999998 24.930525999999997 33.36409
12.433214999999997 26.572461 32.842349999999996
14.521243999999998 25.931096999999998 31.841278999999997
13.354173999999997 26.098799999999997 30.674207999999997
13.835011999999999 24.585585 31.155046999999996
19.836848999999997 11.828911999999999 26.547673999999997
18.590341 11.828911999999999 25.248984999999998
20.338292999999997 11.828911999999999 24.818823
19.359609 14.013236 24.608428
20.508397 14.013236 25.805306999999996
18.897475999999997 14.013236 26.201746999999997
20.623662999999997 12.424313999999999 32.833449
18.990826999999996 12.960141999999998 33.369277
19.150993 11.692323999999997 32.101459
18.634476999999997 13.843214999999997 31.163249999999998
20.139307 13.349393999999997 30.669427999999996
19.991697 14.517820999999998 31.837854999999998
20.626732999999998 19.541759999999996 11.828911999999999
19.028902 18.712719 11.828911999999999
19.109847 20.511003 11.828911999999999
18.631646999999997 19.631565 14.013236
20.104217999999996 20.395612 14.013236
20.029617 18.738304999999997 14.013236
19.120658 33.298075999999995 24.610455999999996
19.018707 33.298075999999995 26.407670999999997
20.626115999999996 33.298075999999995 25.597354999999997
20.019654 31.113751999999998 26.393777999999998
20.113611999999996 31.113751999999998 24.737455999999998
18.632216 31.113751999999998 25.484247999999997
24.551529 12.128681999999998 12.589170999999997
25.749985 13.078438999999998 11.639413999999999
26.313966999999998 11.869658999999999 12.848193999999998
26.448086 14.115670999999999 13.691281999999998
25.343581999999998 13.240369999999999 14.566582999999998
24.823814 14.354388999999998 13.452564999999998
26.285594999999997 11.828911999999999 26.260966
24.539264999999997 11.828911999999999 25.824265999999998
25.790623 11.828911999999999 24.53025
24.849963 14.013236 24.87266
26.459388999999998 14.013236 25.275125
25.30613 14.013236 26.467696999999998
24.893352999999998 18.773681999999997 33.298075999999995
26.566712 19.437191 33.298075999999995
25.155416999999996 20.554607999999998 33.298075999999995
26.133059 20.339429 31.113751999999998
24.590882999999998 19.727935 31.113751999999998
25.891539999999996 18.698117999999997 31.113751999999998
25.986815999999997 24.600872999999996 11.828911999999999
24.502329999999997 25.619045999999997 11.828911999999999
26.126336 26.395561999999998 11.828911999999999
25.125317999999996 26.40261 14.013236
26.493427999999998 25.464257 14.013236
24.996734999999997 24.748614999999997 14.013236
25.664619 33.298075999999995 20.620102999999997
26.368830999999997 33.298075999999995 18.963462
24.582031999999998 33.298075999999995 19.181917
25.422255999999997 31.113751999999998 18.637757999999998
24.773251 31.113751999999998 20.164527
26.419974999999997 31.113751999999998 19.963196999999997
32.17702799999999 11.767892999999997 18.970850999999996
33.441806 13.032670999999997 19.17345
32.685351 12.276214999999997 20.621181
31.768210999999997 14.448175999999998 20.157718
30.602584999999998 13.282549999999997 19.970999999999997
31.299737999999998 13.979703999999998 18.636764
33.254487999999995 20.367534 12.845352999999998
33.00191099999999 18.603226 12.592775999999997
32.047786 19.794722999999998 11.638650999999998
30.775218 18.870527 13.455182999999998
31.007994999999998 20.496522999999996 13.687959999999997
31.887320999999996 19.398432 14.567286999999999
33.298075999999995 19.616667 20.627402999999997
33.298075999999995 18.674685999999998 19.093438
33.298075999999995 20.474128999999998 19.044641999999996
31.113751999999998 19.56253 18.63103
31.113751999999998 20.430663999999997 20.044741
31.113751999999998 18.772287999999996 20.089710999999998
32.736149 18.550183999999998 32.799974
33.41985 20.068564 32.116273
32.148185 20.146734 33.387938
31.252921999999998 20.545406 31.194100999999996
30.622818999999996 19.146057999999996 31.824202999999997
31.794793 19.074018 30.65223
33.298075999999995 24.512362 25.703349999999997
33.298075999999995 25.90879 24.567408999999998
33.298075999999995 26.194329999999997 26.344721999999997
31.113751999999998 26.484182999999998 25.386561999999998
31.113751999999998 25.197226999999998 26.433450999999998
31.113751999999998 24.934072999999998 24.795468999999997
33.292698 26.266256 32.243425
32.060081999999994 25.817159 33.476040999999995
32.951404999999994 24.532066999999998 32.584717999999995
30.740004 24.867783999999997 31.707019
31.875988999999997 25.281674999999996 30.571032999999996
31.054540999999997 26.466022 31.392481999999998
32.766575 32.769549 24.499205
32.132373 33.40375 26.059958999999996
33.405237 32.130887 26.056316999999996
31.224881999999997 31.222140999999997 26.496307999999996
31.809365 30.637658 25.057909
30.636287 31.810734999999998 25.061266
13.638493999999998 13.638493999999998 25.538493999999996
13.638493999999998 19.588493999999997 25.538493999999996
13.638493999999998 19.588493999999997 31.488494
13.638493999999998 25.538493999999996 13.638493999999998
13.638493999999998 25.538493999999996 31.488494
19.588493999999997 13.638493999999998 25.538493999999996
19.588493999999997 13.638493999999998 31.488494
19.588493999999997 19.588493999999997 13.638493999999998
19.588493999999997 31.488494 25.538493999999996
25.538493999999996 13.638493999999998 13.638493999999998
25.538493999999996 13.638493999999998 25.538493999999996
25.538493999999996 19.588493999999997 31.488494
25.538493999999996 25.538493999999996 13.638493999999998
25.538493999999996 31.488494 19.588493999999997
31.488494 13.638493999999998 19.588493999999997
31.488494 19.588493999999997 13.638493999999998
31.488494 19.588493999999997 19.588493999999997
31.488494 19.588493999999997 31.488494
31.488494 25.538493999999996 25.538493999999996
31.488494 25.538493999999996 31.488494
31.488494 31.488494 25.538493999999996
28.513493999999998 22.563494 31.488494
28.860422999999997 20.135341999999998 31.515456999999998
30.696619 21.707552999999997 31.885531999999998
16.613493999999996 16.613493999999996 31.488494
16.960423 14.185341999999999 31.515456999999998
18.796619 15.757552999999998 31.885531999999998
28.513493999999998 28.513493999999998 31.488494
28.860422999999997 26.085341999999997 31.515456999999998
30.696619 27.657552999999997 31.885531999999998
22.563494 22.563494 31.488494
22.910422999999998 20.135341999999998 31.515456999999998
24.746619 21.707552999999997 31.885531999999998
22.563494 22.563494 13.638493999999998
22.216565 20.135341999999998 13.611530999999998
20.380368999999998 21.707552999999997 13.241455999999998
16.613493999999996 28.513493999999998 13.638493999999998
16.266565 26.085341999999997 13.611530999999998
14.430368999999997 27.657552999999997 13.241455999999998
28.513493999999998 28.513493999999998 13.638493999999998
28.166565 26.085341999999997 13.611530999999998
26.330368999999997 27.657552999999997 13.241455999999998
16.613493999999996 16.613493999999996 13.638493999999998
16.266565 14.185341999999999 13.611530999999998
14.430368999999997 15.757552999999998 13.241455999999998
13.638493999999998 16.613493999999996 22.563494
13.611530999999998 14.185341999999999 22.910422999999998
13.241455999999998 15.757552999999998 24.746619
13.638493999999998 28.513493999999998 28.513493999999998
13.611530999999998 26.085341999999997 28.860422999999997
13.241455999999998 27.657552999999997 30.696619
13.638493999999998 22.563494 28.513493999999998
13.611530999999998 20.135341999999998 28.860422999999997
13.241455999999998 21.707552999999997 30.696619
13.638493999999998 22.563494 22.563494
13.611530999999998 20.135341999999998 22.910422999999998
13.241455999999998 21.707552999999997 24.746619
31.488494 22.563494 22.563494
31.515456999999998 20.135341999999998 22.216565
31.885531999999998 21.707552999999997 20.380368999999998
31.488494 22.563494 16.613493999999996
31.515456999999998 20.135341999999998 16.266565
31.885531999999998 21.707552999999997 14.430368999999997
31.488494 28.513493999999998 28.513493999999998
31.515456999999998 26.085341999999997 28.166565
31.885531999999998 27.657552999999997 26.330368999999997
31.488494 16.613493999999996 22.563494
31.515456999999998 14.185341999999999 22.216565
31.885531999999998 15.757552999999998 20.380368999999998
28.513493999999998 13.638493999999998 22.563494
28.860422999999997 13.611530999999998 20.135341999999998
30.696619 13.241455999999998 21.707552999999997
22.563494 13.638493999999998 16.613493999999996
22.910422999999998 13.611530999999998 14.185341999999999
24.746619 13.241455999999998 15.757552999999998
16.613493999999996 13.638493999999998 28.513493999999998
16.960423 13.611530999999998 26.085341999999997
18.796619 13.241455999999998 27.657552999999997