3_train/228_cspbbr3_MA-BzO_4_0.60\228_cspbbr3_MA-BzO_4_0.60.xyz
1.0
49.788652 0 0
0 49.788652 0
0 0 49.788652
Br C Cs H N O Pb 
180 471 61 606 51 120 64 
Cartesian
15.969325999999999 12.994326 15.969325999999999
12.994326 15.969325999999999 15.969325999999999
15.969325999999999 15.969325999999999 18.944325999999997
12.994326 15.969325999999999 21.919325999999998
15.969325999999999 15.969325999999999 24.894326
15.969325999999999 15.969325999999999 30.844326000000002
15.969325999999999 12.994326 33.819326
15.969325999999999 15.969325999999999 36.794326
15.969325999999999 21.919325999999998 12.994326
15.969325999999999 18.944325999999997 15.969325999999999
15.969325999999999 21.919325999999998 18.944325999999997
15.969325999999999 18.944325999999997 21.919325999999998
15.969325999999999 21.919325999999998 24.894326
15.969325999999999 18.944325999999997 27.869326
12.994326 21.919325999999998 27.869326
15.969325999999999 21.919325999999998 30.844326000000002
15.969325999999999 18.944325999999997 33.819326
15.969325999999999 27.869326 12.994326
15.969325999999999 24.894326 15.969325999999999
15.969325999999999 27.869326 18.944325999999997
15.969325999999999 24.894326 21.919325999999998
12.994326 27.869326 21.919325999999998
15.969325999999999 27.869326 24.894326
15.969325999999999 24.894326 27.869326
15.969325999999999 27.869326 30.844326000000002
15.969325999999999 24.894326 33.819326
15.969325999999999 30.844326000000002 15.969325999999999
12.994326 33.819326 15.969325999999999
15.969325999999999 33.819326 18.944325999999997
15.969325999999999 30.844326000000002 21.919325999999998
12.994326 33.819326 21.919325999999998
15.969325999999999 33.819326 24.894326
15.969325999999999 30.844326000000002 27.869326
15.969325999999999 33.819326 30.844326000000002
15.969325999999999 30.844326000000002 33.819326
15.969325999999999 33.819326 36.794326
15.969325999999999 36.794326 15.969325999999999
15.969325999999999 36.794326 21.919325999999998
21.919325999999998 15.969325999999999 12.994326
18.944325999999997 15.969325999999999 15.969325999999999
21.919325999999998 15.969325999999999 18.944325999999997
21.919325999999998 12.994326 21.919325999999998
18.944325999999997 15.969325999999999 21.919325999999998
21.919325999999998 15.969325999999999 24.894326
21.919325999999998 12.994326 27.869326
18.944325999999997 15.969325999999999 27.869326
21.919325999999998 15.969325999999999 30.844326000000002
18.944325999999997 15.969325999999999 33.819326
21.919325999999998 21.919325999999998 12.994326
21.919325999999998 18.944325999999997 15.969325999999999
18.944325999999997 21.919325999999998 15.969325999999999
21.919325999999998 21.919325999999998 18.944325999999997
21.919325999999998 18.944325999999997 21.919325999999998
18.944325999999997 21.919325999999998 21.919325999999998
21.919325999999998 21.919325999999998 24.894326
21.919325999999998 18.944325999999997 27.869326
18.944325999999997 21.919325999999998 27.869326
21.919325999999998 21.919325999999998 30.844326000000002
21.919325999999998 18.944325999999997 33.819326
18.944325999999997 21.919325999999998 33.819326
21.919325999999998 21.919325999999998 36.794326
21.919325999999998 24.894326 15.969325999999999
18.944325999999997 27.869326 15.969325999999999
21.919325999999998 27.869326 18.944325999999997
21.919325999999998 24.894326 21.919325999999998
18.944325999999997 27.869326 21.919325999999998
21.919325999999998 27.869326 24.894326
21.919325999999998 24.894326 27.869326
18.944325999999997 27.869326 27.869326
21.919325999999998 27.869326 30.844326000000002
21.919325999999998 24.894326 33.819326
18.944325999999997 27.869326 33.819326
21.919325999999998 33.819326 12.994326
21.919325999999998 30.844326000000002 15.969325999999999
18.944325999999997 33.819326 15.969325999999999
21.919325999999998 33.819326 18.944325999999997
21.919325999999998 30.844326000000002 21.919325999999998
18.944325999999997 33.819326 21.919325999999998
21.919325999999998 33.819326 24.894326
21.919325999999998 30.844326000000002 27.869326
18.944325999999997 33.819326 27.869326
21.919325999999998 33.819326 30.844326000000002
21.919325999999998 30.844326000000002 33.819326
18.944325999999997 33.819326 33.819326
21.919325999999998 33.819326 36.794326
21.919325999999998 36.794326 21.919325999999998
21.919325999999998 36.794326 27.869326
27.869326 12.994326 15.969325999999999
24.894326 15.969325999999999 15.969325999999999
27.869326 15.969325999999999 18.944325999999997
24.894326 15.969325999999999 21.919325999999998
27.869326 15.969325999999999 24.894326
24.894326 15.969325999999999 27.869326
27.869326 15.969325999999999 30.844326000000002
24.894326 15.969325999999999 33.819326
27.869326 15.969325999999999 36.794326
27.869326 18.944325999999997 15.969325999999999
24.894326 21.919325999999998 15.969325999999999
27.869326 21.919325999999998 18.944325999999997
27.869326 18.944325999999997 21.919325999999998
24.894326 21.919325999999998 21.919325999999998
27.869326 21.919325999999998 24.894326
27.869326 18.944325999999997 27.869326
24.894326 21.919325999999998 27.869326
27.869326 21.919325999999998 30.844326000000002
27.869326 18.944325999999997 33.819326
24.894326 21.919325999999998 33.819326
27.869326 21.919325999999998 36.794326
27.869326 24.894326 15.969325999999999
24.894326 27.869326 15.969325999999999
27.869326 27.869326 18.944325999999997
27.869326 24.894326 21.919325999999998
24.894326 27.869326 21.919325999999998
27.869326 27.869326 24.894326
27.869326 24.894326 27.869326
24.894326 27.869326 27.869326
27.869326 27.869326 30.844326000000002
27.869326 24.894326 33.819326
24.894326 27.869326 33.819326
27.869326 33.819326 12.994326
27.869326 30.844326000000002 15.969325999999999
24.894326 33.819326 15.969325999999999
27.869326 33.819326 18.944325999999997
27.869326 30.844326000000002 21.919325999999998
24.894326 33.819326 21.919325999999998
27.869326 33.819326 24.894326
27.869326 30.844326000000002 27.869326
24.894326 33.819326 27.869326
27.869326 33.819326 30.844326000000002
27.869326 30.844326000000002 33.819326
24.894326 33.819326 33.819326
30.844326000000002 15.969325999999999 15.969325999999999
33.819326 15.969325999999999 18.944325999999997
33.819326 12.994326 21.919325999999998
30.844326000000002 15.969325999999999 21.919325999999998
33.819326 15.969325999999999 24.894326
30.844326000000002 15.969325999999999 27.869326
33.819326 15.969325999999999 30.844326000000002
30.844326000000002 15.969325999999999 33.819326
33.819326 18.944325999999997 15.969325999999999
30.844326000000002 21.919325999999998 15.969325999999999
33.819326 21.919325999999998 18.944325999999997
33.819326 18.944325999999997 21.919325999999998
30.844326000000002 21.919325999999998 21.919325999999998
33.819326 21.919325999999998 24.894326
33.819326 18.944325999999997 27.869326
30.844326000000002 21.919325999999998 27.869326
33.819326 21.919325999999998 30.844326000000002
33.819326 18.944325999999997 33.819326
30.844326000000002 21.919325999999998 33.819326
33.819326 24.894326 15.969325999999999
30.844326000000002 27.869326 15.969325999999999
33.819326 27.869326 18.944325999999997
33.819326 24.894326 21.919325999999998
30.844326000000002 27.869326 21.919325999999998
33.819326 27.869326 24.894326
33.819326 24.894326 27.869326
30.844326000000002 27.869326 27.869326
33.819326 27.869326 30.844326000000002
33.819326 24.894326 33.819326
30.844326000000002 27.869326 33.819326
33.819326 30.844326000000002 15.969325999999999
30.844326000000002 33.819326 15.969325999999999
33.819326 33.819326 18.944325999999997
33.819326 30.844326000000002 21.919325999999998
30.844326000000002 33.819326 21.919325999999998
33.819326 33.819326 24.894326
33.819326 30.844326000000002 27.869326
30.844326000000002 33.819326 27.869326
33.819326 33.819326 30.844326000000002
33.819326 30.844326000000002 33.819326
30.844326000000002 33.819326 33.819326
33.819326 36.794326 27.869326
33.819326 36.794326 33.819326
36.794326 21.919325999999998 21.919325999999998
36.794326 21.919325999999998 33.819326
36.794326 27.869326 21.919325999999998
36.794326 27.869326 33.819326
36.794326 33.819326 27.869326
36.794326 33.819326 33.819326
34.438767 26.843960000000003 40.504175000000004
34.456559999999996 26.830762999999997 39.105752
33.819326 27.869326 38.428695000000005
33.172684 28.90321 40.492055
33.799924 27.874254999999998 41.196705
33.819326 27.869326 36.794326
33.175344 28.911138 39.094039
22.498458 28.917986 40.504175000000004
22.501009000000003 28.939991 39.105752
21.919325999999998 27.869326 38.428695000000005
21.346395 26.792845 40.492055
21.924742000000002 27.850054 41.196705
21.919325999999998 27.869326 36.794326
21.338198 26.791192000000002 39.094039
34.473649 32.815861 40.504175000000004
34.491886 32.803283 39.105752
33.819326 33.819326 38.428695000000005
33.137524 34.830369 40.492055
33.799766 33.823586 41.196705
33.819326 33.819326 36.794326
33.139911 34.838384 39.094039
15.498617999999999 23.020923000000003 40.504175000000004
15.482835 23.036468 39.105752
15.969325999999999 21.919325999999998 38.428695000000005
16.465786 20.805507999999996 40.492055
15.987853 21.911744 41.196705
15.969325999999999 21.919325999999998 36.794326
16.462047 20.798028000000002 39.094039
28.68797 28.743913999999997 40.504175000000004
28.695839999999997 28.764622000000003 39.105752
27.869326 27.869326 38.428695000000005
27.04987 26.966245 40.492055
27.86985 27.849314 41.196705
27.869326 27.869326 36.794326
27.041518000000003 26.966654 39.094039
15.966624 29.067272000000003 40.504175000000004
15.958172 29.087749000000002 39.105752
15.969325999999999 27.869326 38.428695000000005
15.990953999999999 26.650066000000002 40.492055
15.983416 27.855106 41.196705
15.969325999999999 27.869326 36.794326
15.984589999999999 26.644641999999997 39.094039
33.043031 15.056939999999999 40.504175000000004
33.036151 15.035883 39.105752
33.819326 15.969325999999999 38.428695000000005
34.595082 16.910210999999997 40.492055
33.817855 15.989289999999999 41.196705
33.819326 15.969325999999999 36.794326
34.603445 16.910199 39.094039
21.329000999999998 14.926926 40.504175000000004
21.326214999999998 14.904948999999998 39.105752
21.919325999999998 15.969325999999999 38.428695000000005
22.503748 17.039611999999998 40.492055
21.914116 15.988655 41.196705
21.919325999999998 15.969325999999999 36.794326
22.511963 17.041176999999998 39.094039
34.168481 23.065263 40.504175000000004
34.166413999999996 23.08732 39.105752
33.819326 21.919325999999998 38.428695000000005
33.482006 20.747456999999997 40.492055
33.82862 21.901595999999998 41.196705
33.819326 21.919325999999998 36.794326
33.474329 20.744141 39.094039
26.863120000000002 33.169225 40.504175000000004
26.850465999999997 33.151041 39.105752
27.869326 33.819326 38.428695000000005
28.883225000000003 34.496874 40.492055
27.873668000000002 33.838868 41.196705
27.869326 33.819326 36.794326
28.891229000000003 34.494454 39.094039
34.346492 14.893604 9.284476999999999
34.347963 14.8715 10.6829
33.819326 15.969325999999999 11.359957
33.299714 17.072533 9.296596999999998
33.825677999999996 15.98831 8.591947
33.819326 15.969325999999999 12.994326
33.291607 17.074585 10.694612999999999
27.190779999999997 14.982078999999999 9.284476999999999
27.172243 14.969949 10.6829
27.869326 15.969325999999999 11.359957
28.575527 16.963479999999997 9.296596999999998
27.888984 15.973107999999998 8.591947
27.869326 15.969325999999999 12.994326
28.573335999999998 16.97155 10.694612999999999
33.955233 29.059540999999996 9.284476999999999
33.96591 29.078950999999996 10.6829
33.819326 27.869326 11.359957
33.662239 26.660035 9.296596999999998
33.803742 27.856761 8.591947
33.819326 27.869326 12.994326
33.667961 26.653936 10.694612999999999
33.058299 20.994166999999997 9.284476999999999
33.038787 20.983677999999998 10.6829
33.819326 21.919325999999998 11.359957
34.608499 22.848986000000004 9.296596999999998
33.839236 21.921402 8.591947
33.819326 21.919325999999998 12.994326
34.607012 22.857214999999997 10.694612999999999
17.035989999999998 16.514587 9.284476999999999
17.058065999999997 16.516430999999997 10.6829
15.969325999999999 15.969325999999999 11.359957
14.875053 15.431154 9.296596999999998
15.950237999999999 15.975356 8.591947
15.969325999999999 15.969325999999999 12.994326
14.873139 15.423014 10.694612999999999
28.693157 21.049622 9.284476999999999
28.70115 21.028962 10.6829
27.869326 21.919325999999998 11.359957
27.044514 22.817517000000002 9.296596999999998
27.869731 21.93934 8.591947
27.869326 21.919325999999998 12.994326
27.036164 22.817059 10.694612999999999
20.724168999999996 27.95106 9.284476999999999
20.704293999999997 27.960844 10.6829
21.919325999999998 27.869326 11.359957
23.134501999999998 27.767301000000003 9.296596999999998
21.932585000000003 27.854329 8.591947
21.919325999999998 27.869326 12.994326
23.140334000000003 27.773294 10.694612999999999
33.996746 32.634588 9.284476999999999
33.991468 32.613073 10.6829
33.819326 33.819326 11.359957
33.657413 35.027981 9.296596999999998
33.831118 33.835502999999996 8.591947
33.819326 33.819326 12.994326
33.650306 35.032387 10.694612999999999
28.029027 26.682070000000003 9.284476999999999
28.023428000000003 26.660635999999997 10.6829
27.869326 27.869326 11.359957
27.725488 29.080264999999997 9.296596999999998
27.881358 27.885325 8.591947
27.869326 27.869326 12.994326
27.718446999999998 29.084775999999998 10.694612999999999
16.055017 32.624446 9.284476999999999
16.048099 32.603401 10.6829
15.969325999999999 33.819326 11.359957
15.900937999999998 35.036858 9.296596999999998
15.982327999999999 33.834547 8.591947
15.969325999999999 33.819326 12.994326
15.89419 35.041798 10.694612999999999
9.284476999999999 27.992967 17.160877
10.6829 28.003444000000002 17.180396000000002
11.359957 27.869326 15.969325999999999
9.296596999999998 27.724702999999998 14.758481
8.591947 27.853872000000003 15.956601
12.994326 27.869326 15.969325999999999
10.694612999999999 27.730486999999997 14.752441999999999
9.284476999999999 22.973889999999997 34.387634999999996
10.6829 22.995921000000003 34.389959
11.359957 21.919325999999998 33.819326
9.296596999999998 20.837004999999998 33.257504
8.591947 21.900111000000003 33.82494
12.994326 21.919325999999998 33.819326
10.694612999999999 20.835268 33.249324
9.284476999999999 29.065951 33.875639
10.6829 29.086819 33.868206
11.359957 27.869326 33.819326
9.296596999999998 26.650481 33.780867
8.591947 27.854429000000003 33.832698
12.994326 27.869326 33.819326
10.694612999999999 26.645377000000003 33.774243
9.284476999999999 20.754303 22.198256
10.6829 20.736327 22.211202999999998
11.359957 21.919325999999998 21.919325999999998
9.296596999999998 23.100723000000002 21.617064
8.591947 21.929913 21.902336
12.994326 21.919325999999998 21.919325999999998
10.694612999999999 23.107469000000002 21.622006
9.284476999999999 32.809349 34.463552
10.6829 32.796589 34.481661
11.359957 33.819326 33.819326
9.296596999999998 34.837156 33.147698999999996
8.591947 33.823782 33.79981
12.994326 33.819326 33.819326
10.694612999999999 34.845147 33.150166
9.284476999999999 15.148676 26.99662
10.6829 15.128511999999999 26.987447000000003
11.359957 15.969325999999999 27.869326
9.296596999999998 16.818359 28.744658
8.591947 15.989329999999999 27.870078
12.994326 15.969325999999999 27.869326
10.694612999999999 16.817419 28.752966999999998
9.284476999999999 16.835282 34.647095
10.6829 16.855905999999997 34.655181999999996
11.359957 15.969325999999999 33.819326
9.296596999999998 15.074886999999999 32.990446
8.591947 15.949309999999999 33.81964
12.994326 15.969325999999999 33.819326
10.694612999999999 15.075382999999999 32.982099
9.284476999999999 21.493595 14.849578
10.6829 21.478454 14.833407
11.359957 21.919325999999998 15.969325999999999
9.296596999999998 22.370292999999997 17.102327
8.591947 21.937531 15.977651
12.994326 21.919325999999998 15.969325999999999
10.694612999999999 22.366255000000002 17.109650000000002
9.284476999999999 27.236119000000002 26.852404
10.6829 27.21815 26.839447999999997
11.359957 27.869326 27.869326
9.296596999999998 28.529846999999997 28.894399
8.591947 27.888793 27.873993
12.994326 27.869326 27.869326
10.694612999999999 28.527293 28.902361999999997
9.284476999999999 33.202186 26.842574
10.6829 33.184422 26.829337000000002
11.359957 33.819326 27.869326
9.296596999999998 34.463649 28.904657
8.591947 33.838717 27.874299
12.994326 33.819326 27.869326
10.694612999999999 34.460969999999996 28.912579
40.504175000000004 16.928528999999997 33.101683
39.105752 16.949976 33.096136
38.428695000000005 15.969325999999999 33.819326
40.492055 14.981713 34.534646
41.196705 15.949492999999999 33.816607
36.794326 15.969325999999999 33.819326
39.094039 14.981202 34.542992999999996
40.504175000000004 32.794072 22.538952000000002
39.105752 32.772183 22.542360000000002
38.428695000000005 33.819326 21.919325999999998
40.492055 34.872622 21.30481
41.196705 33.838795 21.923986
36.794326 33.819326 21.919325999999998
39.094039 34.873954 21.296554999999998
40.504175000000004 20.82895 28.365471999999997
39.105752 20.806812 28.36631
38.428695000000005 21.919325999999998 27.869326
40.492055 23.03696 27.381518
41.196705 21.938119999999998 27.876219
36.794326 21.919325999999998 27.869326
39.094039 23.039243 27.373472999999997
40.504175000000004 21.174250999999998 15.031272
39.105752 21.168086 15.009993999999999
38.428695000000005 21.919325999999998 15.969325999999999
40.492055 22.662900999999998 16.935845
41.196705 21.917181999999997 15.989229
36.794326 21.919325999999998 15.969325999999999
39.094039 22.671259 16.936115
40.504175000000004 27.164184 15.000896
39.105752 27.158915 14.979379
38.428695000000005 27.869326 15.969325999999999
40.492055 28.571776999999997 16.966133
41.196705 27.866349999999997 15.989122
36.794326 27.869326 15.969325999999999
39.094039 28.580117 16.966752999999997
40.504175000000004 27.390953000000003 26.771036000000002
39.105752 27.390475000000002 26.748888
38.428695000000005 27.869326 27.869326
40.492055 28.338918999999997 28.994734
41.196705 27.862129000000003 27.888005999999997
36.794326 27.869326 27.869326
39.094039 28.346926000000003 28.997147999999996
40.504175000000004 16.457152999999998 28.96345
39.105752 16.457822 28.985593
38.428695000000005 15.969325999999999 27.869326
40.492055 15.490044999999999 26.748009000000003
41.196705 15.976362 27.850585000000002
36.794326 15.969325999999999 27.869326
39.094039 15.482017999999998 26.745665000000002
40.504175000000004 17.096398999999998 15.563384999999998
39.105752 17.118530999999997 15.564347999999999
38.428695000000005 15.969325999999999 15.969325999999999
40.492055 14.815762999999999 16.364742999999997
41.196705 15.951153999999999 15.960928999999998
36.794326 15.969325999999999 15.969325999999999
39.094039 14.812833999999999 16.372574999999998
40.504175000000004 34.947514999999996 16.372155999999997
39.105752 34.963991 16.386964
38.428695000000005 33.819326 15.969325999999999
40.492055 32.677372999999996 15.541535999999999
41.196705 33.810631 15.951293999999999
36.794326 33.819326 15.969325999999999
39.094039 32.670133 15.545722
40.504175000000004 14.820822 21.578708
39.105752 14.803562 21.564822
38.428695000000005 15.969325999999999 21.919325999999998
40.492055 17.132937 22.284115
41.196705 15.978992 21.936856
36.794326 15.969325999999999 21.919325999999998
39.094039 17.139936999999996 22.279539999999997
27.793523 9.284476999999999 20.723778
27.800615 10.6829 20.702790999999998
27.869326 11.359957 21.919325999999998
27.927639999999997 9.296596999999998 23.137382000000002
27.856198 8.591947 21.934438999999998
27.869326 12.994326 21.919325999999998
27.934345999999998 10.694612999999999 23.142378
20.975488 9.284476999999999 33.081590999999996
20.964515999999996 10.6829 33.062346
21.919325999999998 11.359957 33.819326
22.868364 9.296596999999998 34.585086
21.921897 8.591947 33.839179
21.919325999999998 12.994326 33.819326
22.876553 10.694612999999999 34.583394
27.403080000000003 9.284476999999999 26.765833
27.402845999999997 10.6829 26.743681000000002
27.869326 11.359957 27.869326
28.326493999999997 9.296596999999998 28.999839
27.861922999999997 8.591947 27.887925000000003
27.869326 12.994326 27.869326
28.334473000000003 10.694612999999999 29.002339999999997
14.777603999999998 9.284476999999999 27.747337
14.758071 10.6829 27.736888
15.969325999999999 11.359957 27.869326
17.180371 9.296596999999998 28.01227
15.982071999999999 8.591947 27.884762000000002
15.969325999999999 12.994326 27.869326
17.186402 10.694612999999999 28.006476999999997
32.701915 9.284476999999999 15.537498999999999
32.685826999999996 10.6829 15.522269999999999
33.819326 11.359957 15.969325999999999
34.949852 9.296596999999998 16.42646
33.827552 8.591947 15.987575999999999
33.819326 12.994326 15.969325999999999
34.957197 10.694612999999999 16.422463
17.096463999999997 9.284476999999999 22.325085
17.112902 10.6829 22.339937
15.969325999999999 11.359957 21.919325999999998
14.828487999999998 9.296596999999998 21.48857
15.960678 8.591947 21.901272
15.969325999999999 12.994326 21.919325999999998
14.821238 10.694612999999999 21.492738
32.721156 9.284476999999999 34.297973999999996
32.699008 10.6829 34.298458
33.819326 11.359957 33.819326
34.944617 9.296596999999998 33.34945
33.838008 8.591947 33.826519
33.819326 12.994326 33.819326
34.947027999999996 10.694612999999999 33.341443
34.121976 9.284476999999999 29.028413999999998
34.11902 10.6829 29.050368999999996
33.819326 11.359957 27.869326
33.529547 9.296596999999998 26.684804999999997
33.829327 8.591947 27.851985
33.819326 12.994326 27.869326
33.52201 10.694612999999999 26.681182
28.235436999999997 9.284476999999999 34.959959
28.233697 10.6829 34.982044
27.869326 11.359957 33.819326
27.514664000000003 9.296596999999998 32.652588
27.878355999999997 8.591947 33.80146
27.869326 12.994326 33.819326
27.506939000000003 10.694612999999999 32.649386
20.776124 9.284476999999999 15.611317
20.759076 10.6829 15.59717
21.919325999999998 11.359957 15.969325999999999
23.077267 9.296596999999998 16.351733
21.928725 8.591947 15.987001
21.919325999999998 12.994326 15.969325999999999
23.084335000000003 10.694612999999999 16.347264
34.996832 40.504175000000004 16.189692
35.018525 39.105752 16.185200000000002
33.819326 38.428695000000005 15.969325999999999
32.617354999999996 40.492055 15.763587999999999
33.802731 41.196705 15.980521999999999
33.819326 36.794326 15.969325999999999
32.613211 39.094039 15.756324999999999
23.038784 40.504175000000004 34.245818
23.06093 39.105752 34.24526
21.919325999999998 38.428695000000005 33.819326
20.77319 40.492055 33.402873
21.901003000000003 41.196705 33.827389
21.919325999999998 36.794326 33.819326
20.770404 39.094039 33.394988
21.415052 40.504175000000004 14.882684999999999
21.398798999999997 39.105752 14.867631
21.919325999999998 38.428695000000005 15.969325999999999
22.449714 40.492055 17.067393
21.938077 41.196705 15.976335999999998
21.919325999999998 36.794326 15.969325999999999
22.446207 39.094039 17.074984
16.58233 40.504175000000004 28.898553
16.600040999999997 39.105752 28.911861000000002
15.969325999999999 38.428695000000005 27.869326
15.329174 40.492055 26.831411000000003
15.949955 41.196705 27.864275
15.969325999999999 36.794326 27.869326
15.331883999999999 39.094039 26.823500000000003
34.501061 40.504175000000004 20.934278999999997
34.505814 39.105752 20.912641
33.819326 38.428695000000005 21.919325999999998
33.14096 40.492055 22.932678000000003
33.822775 41.196705 21.939045
33.819326 36.794326 21.919325999999998
33.132638 39.094039 22.933497000000003
16.973118999999997 40.504175000000004 33.165506
16.985706 39.105752 33.147276
15.969325999999999 38.428695000000005 33.819326
14.957941 40.492055 34.500621
15.965057 41.196705 33.838884
15.969325999999999 36.794326 33.819326
14.949928 39.094039 34.49823
29.064234999999996 40.504175000000004 15.884037999999999
29.084080999999998 39.105752 15.874194
27.869326 38.428695000000005 15.969325999999999
26.654459000000003 40.492055 16.074965
27.856111 41.196705 15.984363
27.869326 36.794326 15.969325999999999
26.648609 39.094039 16.06899
26.793736000000003 40.504175000000004 33.291892
26.771631999999997 39.105752 33.290414999999996
27.869326 38.428695000000005 33.819326
28.972403 40.492055 34.339213
27.888311 41.196705 33.812979
27.869326 36.794326 33.819326
28.974452999999997 39.094039 34.347319999999996
26.987726000000002 40.504175000000004 22.730414000000003
26.978333999999997 39.105752 22.750476999999997
27.869326 38.428695000000005 21.919325999999998
28.753861 40.492055 21.079884999999997
27.870296000000003 41.196705 21.899330999999997
27.869326 36.794326 21.919325999999998
28.762158999999997 39.094039 21.080914999999997
27.234845 40.504175000000004 28.885453
27.231119 39.105752 28.907291
27.869326 38.428695000000005 27.869326
28.499105 40.492055 26.825085
27.86495 41.196705 27.849792
27.869326 36.794326 27.869326
28.507379999999998 39.094039 26.823873
30.844326000000002 18.944325999999997 11.518664999999999
18.944325999999997 18.944325999999997 38.269987
37.837776000000005 37.837776000000005 24.894326
24.894326 11.518664999999999 18.944325999999997
37.837776000000005 30.844326000000002 11.950876
37.837776000000005 24.894326 37.837776000000005
18.944325999999997 24.894326 38.269987
11.518664999999999 30.844326000000002 18.944325999999997
30.844326000000002 11.950876 37.837776000000005
37.837776000000005 11.950876 18.944325999999997
11.950876 18.944325999999997 37.837776000000005
37.837776000000005 30.844326000000002 37.837776000000005
18.944325999999997 11.950876 11.950876
24.894326 11.518664999999999 30.844326000000002
30.844326000000002 37.837776000000005 37.837776000000005
24.894326 38.269987 18.944325999999997
30.844326000000002 37.837776000000005 11.950876
18.944325999999997 38.269987 30.844326000000002
18.944325999999997 11.518664999999999 24.894326
24.894326 38.269987 30.844326000000002
18.944325999999997 38.269987 18.944325999999997
24.894326 18.944325999999997 11.518664999999999
38.269987 18.944325999999997 30.844326000000002
11.518664999999999 24.894326 24.894326
37.837776000000005 37.837776000000005 30.844326000000002
30.844326000000002 11.950876 11.950876
30.844326000000002 24.894326 11.518664999999999
30.844326000000002 38.269987 30.844326000000002
30.844326000000002 30.844326000000002 11.518664999999999
24.894326 30.844326000000002 38.269987
24.894326 37.837776000000005 37.837776000000005
37.837776000000005 37.837776000000005 18.944325999999997
38.269987 18.944325999999997 24.894326
18.944325999999997 11.518664999999999 18.944325999999997
24.894326 38.269987 24.894326
11.518664999999999 30.844326000000002 30.844326000000002
11.950876 30.844326000000002 11.950876
38.269987 30.844326000000002 24.894326
38.269987 30.844326000000002 30.844326000000002
38.269987 18.944325999999997 18.944325999999997
24.894326 11.950876 37.837776000000005
11.518664999999999 30.844326000000002 24.894326
11.950876 18.944325999999997 11.950876
11.950876 24.894326 37.837776000000005
18.944325999999997 24.894326 11.518664999999999
38.269987 24.894326 30.844326000000002
11.950876 11.950876 30.844326000000002
24.894326 18.944325999999997 38.269987
11.950876 37.837776000000005 30.844326000000002
37.837776000000005 11.950876 30.844326000000002
37.837776000000005 24.894326 11.950876
12.994326 12.994326 18.944325999999997
12.994326 18.944325999999997 18.944325999999997
12.994326 18.944325999999997 24.894326
12.994326 18.944325999999997 30.844326000000002
12.994326 24.894326 18.944325999999997
12.994326 24.894326 30.844326000000002
12.994326 30.844326000000002 36.794326
12.994326 36.794326 18.944325999999997
12.994326 36.794326 24.894326
18.944325999999997 12.994326 30.844326000000002
18.944325999999997 12.994326 36.794326
18.944325999999997 18.944325999999997 12.994326
18.944325999999997 18.944325999999997 18.944325999999997
18.944325999999997 18.944325999999997 24.894326
18.944325999999997 18.944325999999997 30.844326000000002
18.944325999999997 24.894326 18.944325999999997
18.944325999999997 24.894326 24.894326
18.944325999999997 24.894326 30.844326000000002
18.944325999999997 30.844326000000002 18.944325999999997
18.944325999999997 30.844326000000002 24.894326
18.944325999999997 30.844326000000002 30.844326000000002
18.944325999999997 30.844326000000002 36.794326
18.944325999999997 36.794326 24.894326
18.944325999999997 36.794326 36.794326
24.894326 12.994326 12.994326
24.894326 12.994326 24.894326
24.894326 18.944325999999997 18.944325999999997
24.894326 18.944325999999997 24.894326
24.894326 18.944325999999997 30.844326000000002
24.894326 24.894326 12.994326
24.894326 24.894326 18.944325999999997
24.894326 24.894326 24.894326
24.894326 24.894326 30.844326000000002
24.894326 24.894326 36.794326
24.894326 30.844326000000002 12.994326
24.894326 30.844326000000002 18.944325999999997
24.894326 30.844326000000002 24.894326
24.894326 30.844326000000002 30.844326000000002
24.894326 36.794326 12.994326
30.844326000000002 12.994326 18.944325999999997
30.844326000000002 12.994326 24.894326
30.844326000000002 12.994326 30.844326000000002
30.844326000000002 18.944325999999997 18.944325999999997
30.844326000000002 18.944325999999997 24.894326
30.844326000000002 18.944325999999997 30.844326000000002
30.844326000000002 18.944325999999997 36.794326
30.844326000000002 24.894326 18.944325999999997
30.844326000000002 24.894326 24.894326