3_train/241_cspbbr3_MA-DBS_3_0.20\241_cspbbr3_MA-DBS_3_0.20.xyz
1.0
70.75849 0 0
0 70.75849 0
0 0 70.75849
Br C Cs H N O Pb S 
96 227 43 414 11 36 27 12 
Cartesian
29.429245 29.429245 26.454245
29.429245 26.454245 29.429245
26.454245 29.429245 29.429245
29.429245 29.429245 32.404245
29.429245 26.454245 35.379245
26.454245 29.429245 35.379245
29.429245 29.429245 38.354245
29.429245 26.454245 41.329245
29.429245 29.429245 44.304245
29.429245 35.379245 26.454245
29.429245 32.404245 29.429245
26.454245 35.379245 29.429245
29.429245 35.379245 32.404245
29.429245 32.404245 35.379245
26.454245 35.379245 35.379245
29.429245 35.379245 38.354245
29.429245 32.404245 41.329245
26.454245 35.379245 41.329245
29.429245 35.379245 44.304245
29.429245 41.329245 26.454245
29.429245 38.354245 29.429245
26.454245 41.329245 29.429245
29.429245 41.329245 32.404245
29.429245 38.354245 35.379245
26.454245 41.329245 35.379245
29.429245 41.329245 38.354245
29.429245 38.354245 41.329245
29.429245 41.329245 44.304245
29.429245 44.304245 29.429245
29.429245 44.304245 35.379245
35.379245 29.429245 26.454245
35.379245 26.454245 29.429245
32.404245 29.429245 29.429245
35.379245 29.429245 32.404245
32.404245 29.429245 35.379245
35.379245 29.429245 38.354245
32.404245 29.429245 41.329245
35.379245 29.429245 44.304245
35.379245 35.379245 26.454245
35.379245 32.404245 29.429245
32.404245 35.379245 29.429245
35.379245 35.379245 32.404245
35.379245 32.404245 35.379245
32.404245 35.379245 35.379245
35.379245 35.379245 38.354245
35.379245 32.404245 41.329245
32.404245 35.379245 41.329245
35.379245 35.379245 44.304245
35.379245 41.329245 26.454245
35.379245 38.354245 29.429245
32.404245 41.329245 29.429245
35.379245 41.329245 32.404245
35.379245 38.354245 35.379245
32.404245 41.329245 35.379245
35.379245 41.329245 38.354245
35.379245 38.354245 41.329245
32.404245 41.329245 41.329245
35.379245 44.304245 35.379245
35.379245 44.304245 41.329245
41.329245 26.454245 29.429245
38.354245 29.429245 29.429245
41.329245 29.429245 32.404245
41.329245 26.454245 35.379245
38.354245 29.429245 35.379245
41.329245 29.429245 38.354245
41.329245 26.454245 41.329245
38.354245 29.429245 41.329245
41.329245 29.429245 44.304245
41.329245 32.404245 29.429245
38.354245 35.379245 29.429245
41.329245 35.379245 32.404245
41.329245 32.404245 35.379245
38.354245 35.379245 35.379245
41.329245 35.379245 38.354245
41.329245 32.404245 41.329245
38.354245 35.379245 41.329245
41.329245 35.379245 44.304245
41.329245 41.329245 26.454245
41.329245 38.354245 29.429245
38.354245 41.329245 29.429245
41.329245 41.329245 32.404245
41.329245 38.354245 35.379245
38.354245 41.329245 35.379245
41.329245 41.329245 38.354245
41.329245 38.354245 41.329245
38.354245 41.329245 41.329245
41.329245 44.304245 29.429245
41.329245 44.304245 35.379245
41.329245 44.304245 41.329245
44.304245 29.429245 29.429245
44.304245 29.429245 35.379245
44.304245 29.429245 41.329245
44.304245 35.379245 41.329245
44.304245 41.329245 29.429245
44.304245 41.329245 35.379245
44.304245 41.329245 41.329245
46.914055000000005 40.159591 56.051744
45.592914 40.708394 55.483425
47.013082 40.542712 57.539773
45.493790000000004 40.387438 53.980749
48.36576 40.077402 58.109010999999995
44.205089 41.019102000000004 53.423172
48.467983000000004 40.511513 59.582458
44.091139999999996 40.735696000000004 51.914291
49.841255000000004 40.103684 60.146342
42.818743999999995 41.412978 51.374158
49.94583 40.562018 61.613032
42.684394 41.111908 49.870318999999995
51.327715999999995 40.177507 62.173149
43.736982 40.237558 49.164547999999996
41.492668 41.676446 49.074794
43.573031 39.890328 47.673107
41.329245 41.329245 47.583577000000005
42.35103 40.408315 46.891931
40.964055 40.159591 56.051744
39.642914000000005 40.708394 55.483425
41.063082 40.542712 57.539773
39.54379 40.387438 53.980749
42.41576 40.077402 58.109010999999995
38.255089 41.019102000000004 53.423172
42.517983 40.511513 59.582458
38.14114 40.735696000000004 51.914291
43.891255 40.103684 60.146342
36.868744 41.412978 51.374158
43.99583 40.562018 61.613032
36.734394 41.111908 49.870318999999995
45.377716 40.177507 62.173149
37.786982 40.237558 49.164547999999996
35.542668 41.676446 49.074794
37.623031 39.890328 47.673107
35.379245 41.329245 47.583577000000005
36.40103 40.408315 46.891931
35.744435 34.209591 14.706746
37.065576 34.758394 15.275065
35.645408 34.592712 13.218717
37.164699999999996 34.437438 16.777741
34.29273 34.127402000000004 12.649479
38.453401 35.069102 17.335318
34.190507 34.561513 11.176032000000001
38.56735 34.785696 18.844199
32.817235 34.153684 10.612148
39.839746 35.462978 19.384332
32.71266 34.612018 9.145458000000001
39.974096 35.161908 20.888171
31.330773999999998 34.227507 8.585341
38.921508 34.287558000000004 21.593942
41.165822 35.726446 21.683696
39.085459 33.940328 23.085383
41.329245 35.379245 23.174913
40.30746 34.458315 23.866559000000002
35.744435 28.259591 14.706746
37.065576 28.808394 15.275065
35.645408 28.642712 13.218717
37.164699999999996 28.487438 16.777741
34.29273 28.177402 12.649479
38.453401 29.119101999999998 17.335318
34.190507 28.611513000000002 11.176032000000001
38.56735 28.835696 18.844199
32.817235 28.203684000000003 10.612148
39.839746 29.512978 19.384332
32.71266 28.662018 9.145458000000001
39.974096 29.211908 20.888171
31.330773999999998 28.277507 8.585341
38.921508 28.337558 21.593942
41.165822 29.776446 21.683696
39.085459 27.990327999999998 23.085383
41.329245 29.429245 23.174913
40.30746 28.508315 23.866559000000002
14.706746 28.259591 46.914055000000005
15.275065 28.808394 45.592914
13.218717 28.642712 47.013082
16.777741 28.487438 45.493790000000004
12.649479 28.177402 48.36576
17.335318 29.119101999999998 44.205089
11.176032000000001 28.611513000000002 48.467983000000004
18.844199 28.835696 44.091139999999996
10.612148 28.203684000000003 49.841255000000004
19.384332 29.512978 42.818743999999995
9.145458000000001 28.662018 49.94583
20.888171 29.211908 42.684394
8.585341 28.277507 51.327715999999995
21.593942 28.337558 43.736982
21.683696 29.776446 41.492668
23.085383 27.990327999999998 43.573031
23.174913 29.429245 41.329245
23.866559000000002 28.508315 42.35103
14.706746 40.159591 46.914055000000005
15.275065 40.708394 45.592914
13.218717 40.542712 47.013082
16.777741 40.387438 45.493790000000004
12.649479 40.077402 48.36576
17.335318 41.019102000000004 44.205089
11.176032000000001 40.511513 48.467983000000004
18.844199 40.735696000000004 44.091139999999996
10.612148 40.103684 49.841255000000004
19.384332 41.412978 42.818743999999995
9.145458000000001 40.562018 49.94583
20.888171 41.111908 42.684394
8.585341 40.177507 51.327715999999995
21.593942 40.237558 43.736982
21.683696 41.676446 41.492668
23.085383 39.890328 43.573031
23.174913 41.329245 41.329245
23.866559000000002 40.408315 42.35103
56.051744 34.209591 29.794435
55.483425 34.758394 31.115576
57.539773 34.592712 29.695408
53.980749 34.437438 31.2147
58.109010999999995 34.127402000000004 28.34273
53.423172 35.069102 32.503401
59.582458 34.561513 28.240507
51.914291 34.785696 32.61735
60.146342 34.153684 26.867235
51.374158 35.462978 33.889746
61.613032 34.612018 26.76266
49.870318999999995 35.161908 34.024096
62.173149 34.227507 25.380774000000002
49.164547999999996 34.287558000000004 32.971508
49.074794 35.726446 35.215822
47.673107 33.940328 33.135459
47.583577000000005 35.379245 35.379245
46.891931 34.458315 34.35746
56.051744 34.209591 23.844435
55.483425 34.758394 25.165576
57.539773 34.592712 23.745408
53.980749 34.437438 25.2647
58.109010999999995 34.127402000000004 22.39273
53.423172 35.069102 26.553401
59.582458 34.561513 22.290506999999998
51.914291 34.785696 26.66735
60.146342 34.153684 20.917234999999998
51.374158 35.462978 27.939746
61.613032 34.612018 20.81266
49.870318999999995 35.161908 28.074096
62.173149 34.227507 19.430774
49.164547999999996 34.287558000000004 27.021508
49.074794 35.726446 29.265822
47.673107 33.940328 27.185459
47.583577000000005 35.379245 29.429245
46.891931 34.458315 28.40746
40.964055 14.706746 34.209591
39.642914000000005 15.275065 34.758394
41.063082 13.218717 34.592712
39.54379 16.777741 34.437438
42.41576 12.649479 34.127402000000004
38.255089 17.335318 35.069102
42.517983 11.176032000000001 34.561513
38.14114 18.844199 34.785696
43.891255 10.612148 34.153684
36.868744 19.384332 35.462978
43.99583 9.145458000000001 34.612018
36.734394 20.888171 35.161908
45.377716 8.585341 34.227507
37.786982 21.593942 34.287558000000004
35.542668 21.683696 35.726446
37.623031 23.085383 33.940328
35.379245 23.174913 35.379245
36.40103 23.866559000000002 34.458315
40.964055 14.706746 40.159591
39.642914000000005 15.275065 40.708394
41.063082 13.218717 40.542712
39.54379 16.777741 40.387438
42.41576 12.649479 40.077402
38.255089 17.335318 41.019102000000004
42.517983 11.176032000000001 40.511513
38.14114 18.844199 40.735696000000004
43.891255 10.612148 40.103684
36.868744 19.384332 41.412978
43.99583 9.145458000000001 40.562018
36.734394 20.888171 41.111908
45.377716 8.585341 40.177507
37.786982 21.593942 40.237558
35.542668 21.683696 41.676446
37.623031 23.085383 39.890328
35.379245 23.174913 41.329245
36.40103 23.866559000000002 40.408315
40.964055 56.051744 30.598899
39.642914000000005 55.483425 30.050096
41.063082 57.539773 30.215778
39.54379 53.980749 30.371052
42.41576 58.109010999999995 30.681088
38.255089 53.423172 29.739387999999998
42.517983 59.582458 30.246977
38.14114 51.914291 30.022794
43.891255 60.146342 30.654806
36.868744 51.374158 29.345512
43.99583 61.613032 30.196472
36.734394 49.870318999999995 29.646582000000002
45.377716 62.173149 30.580983
37.786982 49.164547999999996 30.520932000000002
35.542668 49.074794 29.082044
37.623031 47.673107 30.868161999999998
35.379245 47.583577000000005 29.429245
36.40103 46.891931 30.350175
35.014055 56.051744 42.498899
33.692914 55.483425 41.950096
35.113082 57.539773 42.115778
33.59379 53.980749 42.271052
36.46576 58.109010999999995 42.581088
32.305089 53.423172 41.639388
36.567983 59.582458 42.146977
32.191140000000004 51.914291 41.922793999999996
37.941255 60.146342 42.554806
30.918744 51.374158 41.245512
38.04583 61.613032 42.096472
30.784394 49.870318999999995 41.546582
39.427716000000004 62.173149 42.480983
31.836982 49.164547999999996 42.420932
29.592668 49.074794 40.982044
31.673031 47.673107 42.768162000000004
29.429245 47.583577000000005 41.329245
30.45103 46.891931 42.250175
25.410795 38.354245 45.347695
32.404245 45.347695 45.347695
38.354245 25.410795 25.410795
38.354245 24.978584 32.404245
38.354245 24.978584 38.354245
38.354245 32.404245 24.978584
38.354245 38.354245 45.779906
38.354245 45.779906 32.404245
45.347695 32.404245 25.410795
45.779906 32.404245 32.404245
45.347695 38.354245 45.347695
26.454245 26.454245 32.404245
26.454245 32.404245 26.454245
26.454245 32.404245 32.404245
26.454245 32.404245 38.354245
26.454245 32.404245 44.304245
26.454245 38.354245 26.454245
26.454245 38.354245 32.404245
26.454245 38.354245 38.354245
26.454245 44.304245 32.404245
26.454245 44.304245 38.354245
32.404245 26.454245 26.454245
32.404245 26.454245 32.404245
32.404245 26.454245 38.354245
32.404245 26.454245 44.304245
32.404245 32.404245 26.454245
32.404245 32.404245 32.404245
32.404245 32.404245 38.354245
32.404245 32.404245 44.304245
32.404245 38.354245 26.454245
32.404245 38.354245 32.404245
32.404245 38.354245 38.354245
32.404245 38.354245 44.304245
32.404245 44.304245 26.454245
32.404245 44.304245 32.404245
32.404245 44.304245 38.354245
38.354245 26.454245 44.304245
38.354245 32.404245 32.404245
38.354245 32.404245 38.354245
38.354245 32.404245 44.304245
38.354245 38.354245 26.454245
38.354245 38.354245 32.404245
38.354245 38.354245 38.354245
38.354245 44.304245 26.454245
38.354245 44.304245 38.354245
38.354245 44.304245 44.304245
44.304245 26.454245 32.404245
44.304245 26.454245 38.354245
44.304245 32.404245 38.354245
44.304245 32.404245 44.304245
44.304245 38.354245 26.454245
44.304245 38.354245 32.404245
44.304245 38.354245 38.354245
44.304245 44.304245 32.404245
46.951672 39.02606 55.937461
47.784095 40.628916000000004 55.483858999999995
44.709535 40.247398000000004 56.037373
45.577883 41.839778 55.621428
46.941782 41.676302 57.637259
46.159634 40.058840000000004 58.120339
45.474492999999995 39.258106 53.825777
46.393493 40.831641 53.439698
49.20834 40.56437 57.515403
48.452270999999996 38.943318 58.031164000000004
44.23852 42.146115 53.591375
43.300422 40.582169 53.96188
47.639921 40.013773 60.187551
48.358312999999995 41.644142 59.649431
45.000708 41.160476 51.374131000000006
44.035342 39.610686 51.738425
50.663106 40.604759 59.535539
49.959994 38.971426 60.08789
42.889443 42.538891 51.537638
41.907087000000004 41.004865 51.923761
49.819039000000004 41.693887000000004 61.664408
49.129484000000005 40.059072 62.229631
51.457999 39.04627 62.118147
52.140813 40.684855 61.555859
51.40614 40.517438999999996 63.25849
44.632261 39.840869 49.748295
40.728224 42.345934 49.591529
44.350278 39.240938 47.149811
40.447333 41.746546 46.993834
41.001672 39.02606 55.937461
41.834095 40.628916000000004 55.483858999999995
38.759535 40.247398000000004 56.037373
39.627883 41.839778 55.621428
40.991782 41.676302 57.637259
40.209634 40.058840000000004 58.120339
39.524493 39.258106 53.825777
40.443493000000004 40.831641 53.439698
43.258340000000004 40.56437 57.515403
42.502271 38.943318 58.031164000000004
38.28852 42.146115 53.591375
37.350422 40.582169 53.96188
41.689921 40.013773 60.187551
42.408313 41.644142 59.649431
39.050708 41.160476 51.374131000000006
38.085342 39.610686 51.738425
44.713105999999996 40.604759 59.535539
44.009994 38.971426 60.08789
36.939443 42.538891 51.537638
35.957087 41.004865 51.923761
43.869039 41.693887000000004 61.664408
43.179484 40.059072 62.229631
45.507999 39.04627 62.118147
46.190813 40.684855 61.555859
45.456140000000005 40.517438999999996 63.25849
38.682261 39.840869 49.748295
34.778224 42.345934 49.591529
38.400278 39.240938 47.149811
34.497333 41.746546 46.993834
35.706818 33.07606 14.821029000000001
34.874395 34.678916 15.274631
37.948955 34.297398 14.721117
37.080607 35.889778 15.137062
35.716708 35.726302000000004 13.121231
36.498856 34.10884 12.638151
37.183997 33.308106 16.932713
36.264997 34.881641 17.318792000000002
33.45015 34.61437 13.243087000000001
34.206219000000004 32.993318 12.727326
38.41997 36.196115 17.167115000000003
39.358068 34.632169000000005 16.79661
35.018569 34.063773 10.570939000000001
34.300177000000005 35.694142 11.109059
37.657782 35.210476 19.384359
38.623148 33.660686 19.020065000000002
31.995384 34.654759 11.222951
32.698496 33.021426 10.6706
39.769047 36.588891000000004 19.220852
40.751402999999996 35.054865 18.834729
32.839451 35.743887 9.094082
33.529005999999995 34.109072 8.528859
31.200491 33.096270000000004 8.640343000000001
30.517677 34.734854999999996 9.202631
31.25235 34.567439 7.5
38.026229 33.890869 21.010195
41.930266 36.395934 21.166961
38.308212 33.290938 23.608679000000002
42.211157 35.796546 23.764656000000002
35.706818 27.126060000000003 14.821029000000001
34.874395 28.728915999999998 15.274631
37.948955 28.347398 14.721117
37.080607 29.939778 15.137062
35.716708 29.776302 13.121231
36.498856 28.158839999999998 12.638151
37.183997 27.358106 16.932713
36.264997 28.931641 17.318792000000002
33.45015 28.664369999999998 13.243087000000001
34.206219000000004 27.043318 12.727326
38.41997 30.246115 17.167115000000003
39.358068 28.682169000000002 16.79661
35.018569 28.113773000000002 10.570939000000001
34.300177000000005 29.744142 11.109059
37.657782 29.260476 19.384359
38.623148 27.710686000000003 19.020065000000002
31.995384 28.704759 11.222951
32.698496 27.071426000000002 10.6706
39.769047 30.638891 19.220852
40.751402999999996 29.104865 18.834729
32.839451 29.793886999999998 9.094082
33.529005999999995 28.159072000000002 8.528859
31.200491 27.14627 8.640343000000001
30.517677 28.784855 9.202631
31.25235 28.617439 7.5
38.026229 27.940869 21.010195
41.930266 30.445934 21.166961
38.308212 27.340938 23.608679000000002
42.211157 29.846546 23.764656000000002
14.821029000000001 27.126060000000003 46.951672
15.274631 28.728915999999998 47.784095
14.721117 28.347398 44.709535
15.137062 29.939778 45.577883
13.121231 29.776302 46.941782
12.638151 28.158839999999998 46.159634
16.932713 27.358106 45.474492999999995
17.318792000000002 28.931641 46.393493
13.243087000000001 28.664369999999998 49.20834
12.727326 27.043318 48.452270999999996
17.167115000000003 30.246115 44.23852
16.79661 28.682169000000002 43.300422
10.570939000000001 28.113773000000002 47.639921
11.109059 29.744142 48.358312999999995
19.384359 29.260476 45.000708
19.020065000000002 27.710686000000003 44.035342
11.222951 28.704759 50.663106
10.6706 27.071426000000002 49.959994
19.220852 30.638891 42.889443
18.834729 29.104865 41.907087000000004
9.094082 29.793886999999998 49.819039000000004
8.528859 28.159072000000002 49.129484000000005
8.640343000000001 27.14627 51.457999
9.202631 28.784855 52.140813
7.5 28.617439 51.40614
21.010195 27.940869 44.632261
21.166961 30.445934 40.728224
23.608679000000002 27.340938 44.350278
23.764656000000002 29.846546 40.447333
14.821029000000001 39.02606 46.951672
15.274631 40.628916000000004 47.784095
14.721117 40.247398000000004 44.709535
15.137062 41.839778 45.577883
13.121231 41.676302 46.941782
12.638151 40.058840000000004 46.159634
16.932713 39.258106 45.474492999999995
17.318792000000002 40.831641 46.393493
13.243087000000001 40.56437 49.20834
12.727326 38.943318 48.452270999999996
17.167115000000003 42.146115 44.23852
16.79661 40.582169 43.300422
10.570939000000001 40.013773 47.639921
11.109059 41.644142 48.358312999999995
19.384359 41.160476 45.000708
19.020065000000002 39.610686 44.035342
11.222951 40.604759 50.663106
10.6706 38.971426 49.959994
19.220852 42.538891 42.889443
18.834729 41.004865 41.907087000000004
9.094082 41.693887000000004 49.819039000000004
8.528859 40.059072 49.129484000000005
8.640343000000001 39.04627 51.457999
9.202631 40.684855 52.140813
7.5 40.517438999999996 51.40614
21.010195 39.840869 44.632261
21.166961 42.345934 40.728224
23.608679000000002 39.240938 44.350278
23.764656000000002 41.746546 40.447333
55.937461 33.07606 29.756818000000003
55.483858999999995 34.678916 28.924395
56.037373 34.297398 31.998955000000002
55.621428 35.889778 31.130607
57.637259 35.726302000000004 29.766708
58.120339 34.10884 30.548856
53.825777 33.308106 31.233997000000002
53.439698 34.881641 30.314996999999998
57.515403 34.61437 27.500149999999998
58.031164000000004 32.993318 28.256219
53.591375 36.196115 32.46997
53.96188 34.632169000000005 33.408068
60.187551 34.063773 29.068569
59.649431 35.694142 28.350177000000002
51.374131000000006 35.210476 31.707782
51.738425 33.660686 32.673148
59.535539 34.654759 26.045384
60.08789 33.021426 26.748496
51.537638 36.588891000000004 33.819047
51.923761 35.054865 34.801403
61.664408 35.743887 26.889451
62.229631 34.109072 27.579006
62.118147 33.096270000000004 25.250491
61.555859 34.734854999999996 24.567677
63.25849 34.567439 25.30235
49.748295 33.890869 32.076229
49.591529 36.395934 35.980266
47.149811 33.290938 32.358212
46.993834 35.796546 36.261157
55.937461 33.07606 23.806818
55.483858999999995 34.678916 22.974395
56.037373 34.297398 26.048955
55.621428 35.889778 25.180607000000002
57.637259 35.726302000000004 23.816708
58.120339 34.10884 24.598856
53.825777 33.308106 25.283997
53.439698 34.881641 24.364997000000002
57.515403 34.61437 21.550150000000002
58.031164000000004 32.993318 22.306219
53.591375 36.196115 26.51997
53.96188 34.632169000000005 27.458068
60.187551 34.063773 23.118569
59.649431 35.694142 22.400177
51.374131000000006 35.210476 25.757782
51.738425 33.660686 26.723148000000002
59.535539 34.654759 20.095384
60.08789 33.021426 20.798496
51.537638 36.588891000000004 27.869047000000002
51.923761 35.054865 28.851403
61.664408 35.743887 20.939451
62.229631 34.109072 21.629006
62.118147 33.096270000000004 19.300491
61.555859 34.734854999999996 18.617677
63.25849 34.567439 19.35235
49.748295 33.890869 26.126229000000002
49.591529 36.395934 30.030266
47.149811 33.290938 26.408212
46.993834 35.796546 30.311157
41.001672 14.821029000000001 33.07606
41.834095 15.274631 34.678916
38.759535 14.721117 34.297398
39.627883 15.137062 35.889778
40.991782 13.121231 35.726302000000004
40.209634 12.638151 34.10884
39.524493 16.932713 33.308106
40.443493000000004 17.318792000000002 34.881641
43.258340000000004 13.243087000000001 34.61437
42.502271 12.727326 32.993318
38.28852 17.167115000000003 36.196115
37.350422 16.79661 34.632169000000005
41.689921 10.570939000000001 34.063773
42.408313 11.109059 35.694142
39.050708 19.384359 35.210476
38.085342 19.020065000000002 33.660686
44.713105999999996 11.222951 34.654759
44.009994 10.6706 33.021426
36.939443 19.220852 36.588891000000004
35.957087 18.834729 35.054865
43.869039 9.094082 35.743887
43.179484 8.528859 34.109072
45.507999 8.640343000000001 33.096270000000004
46.190813 9.202631 34.734854999999996
45.456140000000005 7.5 34.567439
38.682261 21.010195 33.890869
34.778224 21.166961 36.395934
38.400278 23.608679000000002 33.290938
34.497333 23.764656000000002 35.796546
41.001672 14.821029000000001 39.02606
41.834095 15.274631 40.628916000000004
38.759535 14.721117 40.247398000000004
39.627883 15.137062 41.839778
40.991782 13.121231 41.676302
40.209634 12.638151 40.058840000000004
39.524493 16.932713 39.258106
40.443493000000004 17.318792000000002 40.831641
43.258340000000004 13.243087000000001 40.56437
42.502271 12.727326 38.943318
38.28852 17.167115000000003 42.146115
37.350422 16.79661 40.582169
41.689921 10.570939000000001 40.013773
42.408313 11.109059 41.644142
39.050708 19.384359 41.160476
38.085342 19.020065000000002 39.610686
44.713105999999996 11.222951 40.604759
44.009994 10.6706 38.971426
36.939443 19.220852 42.538891
35.957087 18.834729 41.004865
43.869039 9.094082 41.693887000000004
43.179484 8.528859 40.059072
45.507999 8.640343000000001 39.04627
46.190813 9.202631 40.684855
45.456140000000005 7.5 40.517438999999996
38.682261 21.010195 39.840869
34.778224 21.166961 42.345934
38.400278 23.608679000000002 39.240938
34.497333 23.764656000000002 41.746546
41.001672 55.937461 31.73243
41.834095 55.483858999999995 30.129573999999998
38.759535 56.037373 30.511092
39.627883 55.621428 28.918712
40.991782 57.637259 29.082188000000002
40.209634 58.120339 30.69965
39.524493 53.825777 31.500384
40.443493000000004 53.439698 29.926849
43.258340000000004 57.515403 30.194119999999998
42.502271 58.031164000000004 31.815172
38.28852 53.591375 28.612375
37.350422 53.96188 30.176321
41.689921 60.187551 30.744717
42.408313 59.649431 29.114348
39.050708 51.374131000000006 29.598014
38.085342 51.738425 31.147804
44.713105999999996 59.535539 30.153731
44.009994 60.08789 31.787064
36.939443 51.537638 28.219599000000002
35.957087 51.923761 29.753625
43.869039 61.664408 29.064602999999998
43.179484 62.229631 30.699418
45.507999 62.118147 31.712220000000002
46.190813 61.555859 30.073635
45.456140000000005 63.25849 30.241051
38.682261 49.748295 30.917621
34.778224 49.591529 28.412556000000002
38.400278 47.149811 31.517552000000002
34.497333 46.993834 29.011944
35.051671999999996 55.937461 43.63243
35.884095 55.483858999999995 42.029574
32.809535 56.037373 42.411092
33.677883 55.621428 40.818712
35.041782 57.637259 40.982188
34.259634 58.120339 42.59965
33.574493000000004 53.825777 43.400384
34.493493 53.439698 41.826849
37.30834 57.515403 42.094120000000004
36.552271000000005 58.031164000000004 43.715171999999995
32.33852 53.591375 40.512375
31.400422 53.96188 42.076321
35.739921 60.187551 42.644717
36.458313000000004 59.649431 41.014348
33.100708 51.374131000000006 41.498014
32.135342 51.738425 43.047804
38.763106 59.535539 42.053731
38.059994 60.08789 43.687064
30.989443 51.537638 40.119599
30.007087 51.923761 41.653625
37.919039 61.664408 40.964603
37.229484 62.229631 42.599418
39.557999 62.118147 43.61222
40.240813 61.555859 41.973635
39.50614 63.25849 42.141051000000004
32.732261 49.748295 42.817621
28.828224 49.591529 40.312556
32.450278 47.149811 43.417552
28.547333000000002 46.993834 40.911944
24.688969 37.574309 45.098104
25.895143 38.149344 46.304278
24.93992 39.339081 45.349055
27.166859000000002 39.073038 44.486892999999995
26.055243 38.543082 43.375278
26.935581 37.446615 44.255616
31.71735 45.032315 46.135310000000004
33.423137 45.438925999999995 45.728699
32.072248 46.280197 44.887428
33.037290999999996 44.547526000000005 43.530999
31.465229 44.17279 43.905733999999995
32.710215 43.397470999999996 44.681054
37.66735 25.726175 24.62318
39.373137 25.319564 25.029791
38.022248 24.478293 25.871062000000002
38.987291 26.210964 27.227491
37.415229 26.5857 26.852756
38.660215 27.361019 26.077436
37.66735 24.644663 31.624309
39.373137 24.644663 32.199343999999996
38.022248 24.644663 33.389081000000004
38.987291 26.828987 33.123038
37.415229 26.828987 32.593081999999995
38.660215 26.828987 31.496615
37.66735 24.644663 37.574309
39.373137 24.644663 38.149344
38.022248 24.644663 39.339081
38.987291 26.828987 39.073038
37.415229 26.828987 38.543082
38.660215 26.828987 37.446615
39.04114 31.624309 24.644663
37.335353 32.199343999999996 24.644663
38.686242 33.389081000000004 24.644663
37.721199 33.123038 26.828987
39.293261 32.593081999999995 26.828987
38.048275000000004 31.496615 26.828987
37.66735 37.574309 46.113827
39.373137 38.149344 46.113827
38.022248 39.339081 46.113827
38.987291 39.073038 43.929503
37.415229 38.543082 43.929503
38.660215 37.446615 43.929503
37.66735 46.113827 33.184181
39.373137 46.113827 32.609145999999996
38.022248 46.113827 31.419409
38.987291 43.929503 31.685452
37.415229 43.929503 32.215408
38.660215 43.929503 33.311875
46.069521 31.624309 25.660386
44.863347000000005 32.199343999999996 24.454212
45.81857 33.389081000000004 25.409435000000002
43.591631 33.123038 26.271597
44.703247000000005 32.593081999999995 27.383212
43.822908999999996 31.496615 26.502874
46.113827 31.624309 33.091139999999996
46.113827 32.199343999999996 31.385353000000002
46.113827 33.389081000000004 32.736242000000004
43.929503 33.123038 31.771199
43.929503 32.593081999999995 33.343261
43.929503 31.496615 32.098275
45.098104 37.574309 46.069521
46.304278 38.149344 44.863347000000005
45.349055 39.339081 45.81857
44.486892999999995 39.073038 43.591631
43.375278 38.543082 44.703247000000005
44.255616 37.446615 43.822908999999996
26.454245 38.354245 44.304245
32.404245 44.304245 44.304245
38.354245 26.454245 26.454245
38.354245 26.454245 32.404245
38.354245 26.454245 38.354245
38.354245 32.404245 26.454245
38.354245 38.354245 44.304245
38.354245 44.304245 32.404245
44.304245 32.404245 26.454245
44.304245 32.404245 32.404245
44.304245 38.354245 44.304245
41.174054 38.513239999999996 45.001851
41.329245 41.329245 44.304245
43.750333 39.719223 44.407923
35.224054 38.513239999999996 45.001851
35.379245 41.329245 44.304245
37.800333 39.719223 44.407923
41.484436 32.56324 25.756639
41.329245 35.379245 26.454245
38.908157 33.769223 26.350566999999998
41.484436 26.61324 25.756639
41.329245 29.429245 26.454245
38.908157 27.819223 26.350566999999998
25.756639 26.61324 41.174054
26.454245 29.429245 41.329245
26.350566999999998 27.819223 43.750333
25.756639 38.513239999999996 41.174054
26.454245 41.329245 41.329245
26.350566999999998 39.719223 43.750333
45.001851 32.56324 35.534436
44.304245 35.379245 35.379245
44.407923 33.769223 32.958157
45.001851 32.56324 29.584436
44.304245 35.379245 29.429245
44.407923 33.769223 27.008157
35.224054 25.756639 32.56324
35.379245 26.454245 35.379245
37.800333 26.350566999999998 33.769223
35.224054 25.756639 38.513239999999996
35.379245 26.454245 41.329245
37.800333 26.350566999999998 39.719223
35.224054 45.001851 32.24525
35.379245 44.304245 29.429245
37.800333 44.407923 31.039267000000002
29.274054 45.001851 44.145250000000004
29.429245 44.304245 41.329245
31.850333 44.407923 42.939267
29.429245 29.429245 29.429245
29.429245 29.429245 35.379245
29.429245 29.429245 41.329245
29.429245 35.379245 29.429245
29.429245 35.379245 35.379245
29.429245 35.379245 41.329245
29.429245 41.329245 29.429245
29.429245 41.329245 35.379245
29.429245 41.329245 41.329245
35.379245 29.429245 29.429245
35.379245 29.429245 35.379245
35.379245 29.429245 41.329245
35.379245 35.379245 29.429245
35.379245 35.379245 35.379245
35.379245 35.379245 41.329245
35.379245 41.329245 29.429245
35.379245 41.329245 35.379245
35.379245 41.329245 41.329245
41.329245 29.429245 29.429245
41.329245 29.429245 35.379245
41.329245 29.429245 41.329245
41.329245 35.379245 29.429245
41.329245 35.379245 35.379245
41.329245 35.379245 41.329245
41.329245 41.329245 29.429245
41.329245 41.329245 35.379245
41.329245 41.329245 41.329245
42.152787000000004 39.992948 45.141975
36.202787 39.992948 45.141975
40.505703 34.042947999999996 25.616515
40.505703 28.092948 25.616515
25.616515 28.092948 42.152787000000004
25.616515 39.992948 42.152787000000004
45.141975 34.042947999999996 34.555703
45.141975 34.042947999999996 28.605703
36.202787 25.616515 34.042947999999996
36.202787 25.616515 39.992948
36.202787 45.141975 30.765542