141_cspbbr3_4\141_cspbbr3_4.xyz
1.0
44.798430999999994 0 0
0 44.798430999999994 0
0 0 44.798430999999994
Br Cs Pb 
240 112 64 
Cartesian
25.236087499999996 31.3131715 22.567331499999998
25.475803499999998 25.6508125 34.24735449999999
25.5705745 28.1872795 31.1954225
25.2114375 31.343749499999998 10.635810499999998
25.510744499999998 28.216391499999997 19.3216665
25.4364565 28.1780305 25.2535035
25.5880285 31.499425499999997 16.427651499999996
22.1574435 31.464145499999997 25.3511915
25.2844385 28.180185499999997 13.628302499999998
22.4678895 31.1818925 13.622317499999998
25.3326615 31.364689499999997 28.520248499999997
22.2829445 31.244227499999997 19.295379499999996
25.314376499999998 25.173956499999996 16.452609499999998
25.4181745 22.561547499999996 31.257481499999997
25.222770499999996 16.4984075 19.329758499999997
25.526993499999996 19.2843545 16.584638499999997
22.369575499999996 19.1967285 13.641418499999999
25.554117499999997 16.368283499999997 13.485348499999999
25.324716499999997 19.2875625 10.328123499999998
22.2492095 13.589965499999998 31.3101505
22.449972499999998 19.2068905 19.5100415
25.5969045 10.606699499999998 31.4146425
22.294057499999997 13.272048499999999 25.261562499999997
25.5706415 10.375089499999998 25.3282995
25.347139499999997 13.489586499999998 22.2083115
22.234623499999998 13.370558499999998 19.354152499999998
25.5960885 10.490247499999999 19.4505415
25.2342925 13.426695499999997 16.5659645
25.453897499999997 13.317163499999998 28.270897499999997
22.1472865 25.2389115 31.3424125
25.479411499999998 19.235805499999998 22.253935499999997
22.2275195 19.2492375 25.4473125
25.210230499999998 25.439192499999997 28.5243285
22.4986005 25.307674499999997 25.1254465
25.4683845 22.475236499999998 25.5206295
25.138006499999996 25.514593499999997 22.3058415
22.511416499999996 25.507644499999998 19.5262095
25.3148415 22.3647755 19.1445235
25.585738499999998 16.423267499999998 25.494435499999998
22.5049335 31.343528499999998 31.1214165
25.471340499999997 22.458771499999997 13.288597499999998
25.619438499999998 25.239624499999998 10.519861499999998
25.286767499999996 19.275631499999996 34.2166425
22.193377499999997 19.6046265 31.2710135
25.538771499999996 16.564528499999998 31.2797785
25.5089775 19.536170499999997 28.444760499999997
22.3450725 25.4672865 13.649110499999999
25.4238625 31.4687645 34.16966849999999
31.484031499999997 10.337421499999998 25.4476305
25.4631235 34.163256499999996 19.6017285
31.4359325 34.1931965 13.597793499999998
31.435301499999998 31.463153499999997 34.4138605
28.191110499999997 31.1232315 31.4144075
31.5165665 28.340313499999997 31.1511465
31.524837499999997 31.169371499999997 28.2689155
28.355876499999997 31.1990335 25.244172499999998
31.183520499999997 28.600709499999997 25.305466499999998
31.3639175 31.5386255 22.336042499999998
28.5059555 31.503050499999997 19.241471499999996
31.4777305 28.2024965 19.606075499999996
31.5189815 31.4763155 16.3318315
28.378884499999998 31.109532499999997 13.649459499999999
31.489918499999998 28.2471525 13.593480499999998
31.4956985 31.2098065 10.656191499999998
31.4990195 25.594357499999997 34.34023749999999
31.0975115 34.1525975 19.4965825
28.377290499999997 25.1876715 31.184478499999997
31.1672175 34.4409195 25.4013755
34.2143015 13.719078499999998 13.3311155
34.4189225 31.328746499999998 31.484201499999998
34.1418135 31.190751499999998 25.573576499999998
34.1781545 31.414090499999997 19.5608035
34.1895945 31.402406499999998 13.299611499999997
34.3227965 25.1165085 31.3937435
34.339223499999996 25.365894499999996 25.594100499999996
34.380312499999995 25.1861715 19.3699035
34.2747975 25.201986499999997 13.659753499999997
34.0534665 19.483056499999996 31.395504499999998
34.4511055 19.510946499999996 25.244770499999998
34.2885405 19.625170499999996 19.3485195
34.523841499999996 19.6117395 13.497380499999998
34.4316805 13.650325499999997 31.207102499999998
34.458921499999995 13.282891499999998 25.2202925
34.1628445 13.512821499999998 19.296259499999998
31.1520725 34.1457225 31.3376265
31.3994975 22.1635255 31.407766499999997
31.2475055 25.524676499999998 28.147608499999997
28.242827499999997 25.417751499999998 25.6309835
31.259620499999997 19.5855885 10.609476499999998
31.3198355 13.458100499999999 34.497713499999996
28.359664499999997 13.643130499999998 31.4672855
31.165871499999998 10.346326499999998 31.145532499999998
31.197818499999997 13.355940499999999 28.284393499999997
28.392082499999997 13.672722499999999 25.3677955
31.423014499999997 13.522787499999998 22.5502215
28.373544499999998 13.238456499999998 19.250209499999997
31.286695499999997 10.417334499999999 19.631756499999998
31.288403499999998 13.536427499999999 16.6160005
28.342819499999997 13.678651499999997 13.692698499999999
31.1131605 10.348532499999997 13.462113499999997
31.262883499999997 13.219292499999998 10.440207499999998
25.355227499999998 34.1485525 31.0995295
25.560635499999997 34.4737355 25.2379235
31.440208499999997 16.1807545 13.504209499999998
28.4563845 19.592209499999996 13.319719499999998
31.5394945 19.3880505 16.4272165
31.237943499999997 16.3413495 19.272085499999996
31.4881145 22.595797499999996 25.410509499999996
31.207063499999997 25.603612499999997 22.3650205
28.372265499999997 25.5680645 19.624874499999997
31.4213925 22.2187225 19.4718595
31.2275465 25.2305335 16.628879499999996
28.1753595 25.520644499999996 13.6294075
31.1529845 22.6328885 13.506262499999998
25.5155565 34.3565585 13.359120499999998
31.1894255 25.355130499999998 10.638732499999998
28.2615585 19.231494499999997 31.5153215
31.2787135 16.6608235 31.138381499999998
31.440057499999998 19.6172945 28.2384365
28.4927465 19.5711485 25.355192499999998
31.5344035 16.4873755 25.472554499999998
31.1197445 19.299403499999997 22.5514395
28.4864425 19.425377499999996 19.2957155
31.3349755 19.550363499999996 34.0488285
22.527223499999998 13.583839499999998 13.390137499999998
25.4443435 13.226073499999998 34.4318295
25.489650499999996 13.527628499999999 10.358805499999999
13.543398499999999 19.353877499999996 22.195164499999997
13.341768499999999 34.4556425 31.520738499999997
19.438909499999998 13.602309499999999 10.248538499999999
19.461394499999997 10.258650499999998 13.584092499999999
16.5784055 13.613688499999999 13.516399499999999
19.397820499999998 13.532652499999998 16.732545499999997
19.2891525 10.360955499999998 19.2853985
16.3709435 13.478358499999999 19.6117675
10.667130499999999 19.3979475 19.6462085
13.6339005 16.4142765 19.5616755
19.620472499999998 13.316666499999998 22.375330499999997
19.6301155 10.543099499999999 25.3693655
16.393015499999997 13.316780499999998 25.243885499999998
13.365241499999998 19.2529585 16.3592025
13.303671499999998 34.372899499999995 25.220490499999997
19.310894499999996 13.604051499999999 28.4482775
10.365418499999999 19.5759295 13.352335499999999
16.484640499999998 13.441498499999998 31.095847499999998
13.655885499999998 16.233174499999997 13.502396499999998
19.348887499999996 13.279560499999999 34.1959525
13.659408499999998 19.245830499999997 10.350750499999998
19.318926499999996 19.4982965 10.645827499999998
19.3209675 16.5611425 13.291233499999999
16.625776499999997 19.5761835 13.321360499999997
10.7148455 25.364937499999996 19.3968555
19.5740415 19.5320945 16.5414575
19.6004425 16.590568499999996 19.5834475
16.4432805 19.270244499999997 19.315209499999998
13.539730499999997 13.307667499999997 34.1055515
19.360862499999996 19.534428499999997 22.130653499999998
19.647426499999998 10.435604499999998 31.3821755
19.465735499999997 16.7295095 25.283682499999998
13.561705499999999 16.320409499999997 25.498847499999997
13.295711499999998 34.1778815 19.5947005
13.671125499999999 25.569489499999996 16.4383785
13.614650499999998 25.4996235 22.2609335
13.297397499999999 22.359609499999998 25.2739445
10.311780499999998 25.3946745 25.316249499999998
13.524286499999999 25.089186499999997 28.383484499999998
13.516663499999998 22.5390165 31.4558945
10.351827499999999 25.340495499999996 31.159780499999997
10.4396955 25.5056755 13.250890499999999
13.352734499999999 25.4877415 34.118520499999995
13.289173499999999 22.4444095 13.602130499999998
13.326184499999998 31.390064499999998 10.276639499999998
13.616808499999998 28.5248425 13.330497499999998
13.3249395 25.193831499999998 10.561158499999998
10.619787499999997 31.1466325 13.513255499999998
25.444455499999997 10.708277499999998 13.627587499999999
13.307874499999999 19.3279875 34.22678749999999
13.350979499999998 28.357511499999998 19.5653345
10.549612499999999 31.477755499999997 19.3238695
13.626130499999999 31.4368365 22.588837499999997
13.320740499999998 28.4308485 25.2656615
10.408250499999998 31.2621415 25.5801335
10.400597499999998 19.253986499999996 31.320572499999997
13.476167499999999 16.556358499999998 31.562364499999997
13.444787499999999 31.2098415 28.4866805
13.671884499999997 28.3002395 31.2671785
10.355612499999998 31.4308925 31.1595095
13.492338499999999 19.262469499999998 28.163440499999997
13.492928499999998 31.1884065 34.5376115
13.609084499999998 34.3687835 13.244317499999998
10.406155499999999 19.320201499999996 25.533167499999998
13.336865499999998 31.251171499999998 16.585153499999997
16.5417505 19.2116585 25.5182705
13.366707499999999 22.520338499999998 19.3212995
19.2304155 28.282030499999998 13.431847499999998
16.1781395 25.315129499999998 25.3456465
19.328812499999998 31.152875499999997 28.3340595
13.335859499999998 10.503733499999997 25.5136005
19.2919385 25.523562499999997 28.1944405
19.2761675 22.3982995 31.0661705
16.2761335 25.2187365 31.140627499999997
10.357076499999998 13.522493499999998 13.603615499999998
13.421826499999998 13.293115499999999 22.5137395
19.2753955 31.4816175 34.2243745
19.3972645 25.4898225 34.4397765
19.289362499999996 31.3547335 10.628609499999998
10.612918499999997 13.625289499999997 31.297900499999997
16.612180499999997 31.405136499999998 31.367593499999998
16.345878499999998 31.3022465 13.747257499999998
19.251603499999998 31.242769499999998 16.3742365
19.2794965 28.2017055 19.473477499999998
10.649324499999999 13.227638499999998 19.4090635
13.412500499999998 13.316047499999998 16.6111075
16.5868325 31.478387499999997 19.5163585
19.443968499999997 31.589443499999998 22.2899855
19.3878915 28.4068735 25.6652865
13.619361499999998 10.656495499999998 19.2724015
16.5039685 31.1389295 25.5121125
19.350801499999996 22.392646499999998 25.149015499999997
19.6212475 25.2287745 22.474659499999998
19.513023499999996 34.1005415 13.311655499999999
19.654011499999996 22.495472499999998 13.497762499999999
19.173066499999997 19.4964895 28.3573395
19.230613499999997 16.5082965 31.372435499999998
16.543117499999997 19.200822499999997 31.1677935
13.298259499999999 10.481581499999999 31.5381155
19.446853499999996 19.317846499999998 34.4824755
13.492794499999999 13.625358499999997 28.5091875
13.488560499999998 13.401790499999999 10.675427499999998
19.295587499999996 25.5084055 10.371078499999998
19.386559499999997 34.3280765 19.200484499999998
16.6717925 25.4661545 13.589694499999998
19.522445499999996 34.1482375 31.1713995
19.598235499999998 28.3615425 31.153248499999997
10.352463499999999 13.353684499999998 25.338790499999998
19.4069345 34.3471695 25.114911499999998
19.3286735 25.2088385 16.559236499999997
13.375178499999999 10.542884499999998 13.698538499999998
16.414744499999998 25.2099555 19.552282499999997
19.606768499999998 22.4653445 19.5550005
11.004306499999998 22.397664499999998 10.395688499999999
10.440937499999999 16.9999175 34.0817635
34.388245500000004 28.229719499999998 22.874486499999996
34.3106335 34.066264499999996 15.953146499999999
28.007226499999998 28.4877045 16.826429499999996
34.1430775 27.812143499999998 34.2900255
33.9493905 22.5962265 34.3324365
34.8414165 28.410621499999998 10.482447499999997
34.4560445 27.9797415 16.032946499999998
33.909913499999995 28.4798305 28.5052925
28.5200595 22.6514465 34.021416499999994
10.088126499999998 22.621266499999997 16.730526499999996
10.517069499999998 10.322441499999998 16.8220505
28.071879499999998 28.7969735 10.529345499999998
34.635507499999996 10.027987499999998 22.565070499999997
33.8599185 22.113304499999998 22.4195585
34.0150515 10.406415499999998 16.848681499999998
34.2363285 10.810698499999999 28.1163615
10.939113499999998 16.4924945 10.697183499999998
28.110224499999998 33.9552435 28.7115175
34.1320265 16.7573455 10.736413499999998
10.336279499999998 10.756693499999999 27.987481499999998
28.558041499999998 34.6863835 22.806382499999998
28.247569499999997 34.071212499999994 16.9158935
34.5754485 16.7117655 16.4583735
27.8581385 34.0461925 10.693496499999998
33.9650985 22.759747499999996 28.193651499999998
10.768630499999999 16.950455499999997 16.425925499999998
34.4519155 16.1143055 22.276697499999997
34.1238605 16.1635165 27.9354585
10.843719499999999 16.3463975 22.0580935
34.2258735 16.4453325 33.929703499999995
28.7201685 28.679701499999997 28.512030499999998
34.6212035 22.161680499999996 10.416386499999998
10.972021499999999 10.850410499999999 22.403169499999997
34.0877255 22.0739405 16.230448499999998
10.320161499999998 16.7725315 28.2647035
27.879989499999997 28.4553405 22.6778375
28.294731499999997 27.884493499999998 34.131342499999995
28.5423005 34.331050499999996 34.83502549999999
28.727002499999998 10.674882499999999 33.9373905
10.820142499999998 22.299344499999997 27.9559945
16.920982499999997 28.5740755 10.653227499999998
22.9189515 16.4743945 34.524263499999996
16.726556499999997 22.1775235 34.52202449999999
22.7579845 22.6769735 10.470742499999998
16.8056555 22.5153625 28.682643499999998
22.5214695 22.6570465 16.713190499999996
22.3497125 16.011579499999996 28.5414455
16.191359499999997 22.858005499999997 22.2970725
16.424849499999997 22.2477625 16.7880635
22.4161395 22.0280505 28.0212655
16.7228115 22.1261475 10.036594499999998
22.6955065 22.059917499999997 33.9347375
22.747519499999996 28.5943035 10.819133499999998
16.643260499999997 16.5839115 28.8548235
22.746439499999997 22.428430499999997 22.6386105
22.0427885 28.4516185 16.1590925
16.3655415 27.926467499999998 16.7811645
16.2707095 28.4832035 22.7267925
21.974875499999996 10.674124499999998 16.693423499999998
22.6825475 10.804610499999999 10.351721499999998
16.523646499999998 34.0829735 34.7014565
16.1835825 34.0055305 28.380864499999998
22.652440499999997 10.621230499999998 22.084248499999998
16.569289499999996 34.48604649999999 22.7315345
22.452523499999998 16.110735499999997 22.648737499999996
22.135113499999996 10.590955499999998 28.6423575
16.293846499999997 28.6687385 34.1331565
22.810542499999997 10.750171499999999 34.6360435
34.6158125 34.548247499999995 22.822760499999998
22.716412499999997 16.8366485 10.705670499999998
16.3909505 28.422858499999997 27.9907655
21.993621499999996 16.4834265 16.774381499999997
16.0881445 34.6339125 10.377666499999998
28.6370275 22.7503945 28.0433165
16.9497535 16.6079585 22.481111499999997
16.3155595 16.568256499999997 16.954685499999997
10.446470499999998 34.6931885 16.830761499999998
10.584939499999999 27.9337855 34.4501555
27.945824499999997 16.2749575 16.2817725
10.401706499999998 28.6562815 28.144941499999998
28.7005295 16.720207499999997 22.2138015
10.410476499999998 28.248167499999997 21.826088499999997
27.821309499999998 16.316543499999998 10.250771499999999
28.251997499999998 16.7677785 28.016599499999998
28.932899499999998 16.519598499999997 34.4006415
28.709804499999997 22.6268205 10.693253499999999
10.573914499999999 28.045508499999997 10.867583499999999
28.557671499999998 22.706067499999996 16.2703895
10.9074605 22.574853499999996 34.693690499999995
28.650740499999998 22.6484085 22.408246499999997
10.642872499999998 28.837600499999997 16.156905499999997
22.253398499999996 28.733495499999997 22.8315605
10.869084499999998 34.2891695 21.959616499999996
28.8798955 10.565972499999999 28.276884499999998
21.8724725 28.559167499999997 28.3187605
16.0655875 16.7487365 10.711909499999999
22.8238835 28.029815499999998 34.5399015
22.4358055 33.9582055 10.294942499999998
16.2328045 10.711767499999999 34.615318499999994
22.2753175 34.7021635 16.7330775
10.465384499999999 33.900136499999995 27.9364565
22.4354305 34.6598335 22.6625165
22.598580499999997 34.5189655 34.6108615
28.241797499999997 10.818011499999999 10.129625499999998
16.693609499999997 10.444726499999998 28.6598455
28.013678499999997 10.359817499999998 16.323959499999997
16.867529499999996 10.215025499999998 22.3929095
16.4861835 10.436478499999998 16.971264499999997
22.1815425 34.3870705 28.6629665
33.9169815 34.2674915 28.0845305
13.674973499999998 13.230423499999999 13.631780499999998
13.463978499999998 31.6192845 25.370560499999996
31.342764499999998 13.362045499999999 31.5187045
19.487607499999996 31.0511305 13.464285499999999
31.6096105 31.3818065 19.2837185
19.236681499999996 19.5727405 25.407630499999996
13.298549499999998 25.370177499999997 13.616918499999999
31.3650305 31.5901835 13.299823499999999
25.273306499999997 25.5017215 13.167680499999998
25.5311005 31.4585685 19.2939425
13.280545499999999 25.3001965 19.5047695
31.5365945 19.6432835 13.493639499999999
19.1817595 25.6030145 31.2894275
31.2766925 25.5540845 31.491171499999997
13.329711499999998 25.363198499999996 25.124387499999997
25.2395905 25.254240499999998 19.2222225
19.611734499999997 19.592065499999997 31.1417425
31.1992935 25.242335499999996 25.148279499999997
31.4762155 19.583507499999996 25.6022945
31.203780499999997 19.616352499999998 31.197483499999997
25.2638355 25.4425325 31.1395995
13.612154499999999 31.3906155 19.1113705
13.640438499999998 31.2002125 31.4285085
19.330898499999996 25.1661985 19.6613585
13.461253499999998 19.7543175 31.3270405
31.331397499999998 25.211070499999998 13.727391499999998
13.695729499999999 31.403571499999998 13.402270499999998
25.410188499999997 25.2115455 25.2195075
31.3270035 25.641730499999998 19.2592505
31.1801495 19.501416499999998 19.102453499999996
19.1782035 25.1925705 25.2837155
13.603217499999998 25.571681499999997 31.5962765
25.454705499999996 31.1376095 13.749517499999998
31.4697385 31.507584499999997 25.2872775
25.374221499999997 19.598660499999998 31.1604425
25.317490499999998 19.602610499999997 13.280675499999997
25.4326825 13.196720499999998 19.498557499999997
19.4032585 19.190101499999997 13.360894499999999
19.481837499999997 13.261276499999997 31.1271775
13.322203499999999 13.249094499999998 19.4187485
25.390348499999998 13.168509499999999 25.181952499999998
31.060512499999998 13.700466499999997 13.388708499999998
25.2016015 31.135620499999998 31.4003755
13.359951499999998 13.519754499999998 25.109267499999998
25.4129225 13.277218499999998 31.5146965
19.3394825 13.647070499999998 25.158520499999998
31.2202295 13.237504499999998 19.2308085
13.694546499999998 13.602766499999998 31.4992605
19.2450725 13.646505499999998 13.302017499999998
19.457702499999996 19.2154985 19.2195155
19.2436345 31.1179675 31.2497415
19.386885499999998 25.1644675 13.654581499999999
19.3082325 31.212572499999997 19.5987875
13.371052499999998 19.2462645 13.229287499999998
25.5531935 19.321839499999996 19.2915535
19.355980499999998 13.660812499999999 19.120769499999998
19.5630155 31.5782465 25.5511575
13.316426499999999 19.5719215 25.1898665
31.5724475 13.374400499999998 25.6024235
13.461144499999998 19.559616499999997 19.193951499999997
31.135540499999998 31.1993865 31.4585615
25.3017455 13.279947499999999 13.283558499999998
25.5506515 19.2494785 25.5579935
25.1295865 31.248177499999997 25.5594715
