153_cspbbr3_5\153_cspbbr3_5.xyz
1.0
50.835266000000004 0 0
0 50.835266000000004 0
0 0 50.835266000000004
Br Cs Pb 
450 200 125 
Cartesian
40.350692 13.706627000000001 19.534022
31.250594999999997 13.362438000000001 28.231468
28.346333 13.673174000000001 19.669172000000003
28.324150000000003 19.567887 13.653507
31.181414000000004 16.297489 13.586374000000001
31.326093999999998 19.540801000000002 10.275113000000001
40.51497200000001 13.394204 37.234163
31.202353000000002 10.726326 31.270200000000003
31.288812 13.682587 40.186058
28.250366999999997 13.503509 25.295952
31.089750000000002 13.461031 22.494776
28.208682000000003 13.386778000000001 37.333586000000004
31.553765 10.723318 25.466245999999998
40.098736 13.374086 25.565170000000002
40.273673 13.619532000000001 31.534354
31.423443 13.387693 34.460963
28.521600999999997 13.685509 31.52303
31.612561 10.41496 37.432853
37.490153 40.317477000000004 31.500282
31.499462 19.486425000000004 16.626723
28.464214 25.660212 19.506719000000004
37.436865000000004 37.180379 34.516829
31.227524000000003 22.576155 19.527625
31.259166999999998 25.305460000000004 16.601758000000004
37.301144 34.528937000000006 37.319433000000004
28.525622 25.660364 13.411379
31.398149000000004 22.639114 13.695726
31.227272 25.250512 10.573446
34.25022500000001 37.11575 37.171066
31.563415 19.609234999999998 40.402225
28.256694000000003 19.605024999999998 37.28249400000001
31.244313 16.368199 37.45602
40.34311 13.303614000000001 13.559776000000001
37.291928000000006 37.440468 40.117478
37.413732 40.102243 13.698921
28.582914000000002 19.601391 31.256396000000002
31.522796 16.443713000000002 31.594169
37.301833 40.094819 19.303513000000002
31.338754 19.493352 28.207349999999998
28.557665 19.428116000000003 25.53125
31.202373 16.636401 25.23776
37.210243 40.439264 25.428052
31.258419000000004 19.344356000000005 22.597355
28.237444000000004 19.372339000000004 19.577244
31.235419 16.51887 19.342652
37.322379000000005 40.125176 37.22948400000001
31.290424 19.303385 34.369342
31.371183000000002 10.714716000000001 19.603856
34.498771 25.404445000000003 31.226235000000003
40.471650000000004 19.355974000000003 13.708682000000001
25.628619 34.295319 13.356889
25.279109 37.16705700000001 10.381437
40.535409 31.293208999999997 19.442767000000003
25.422324000000003 31.614687000000004 40.356209
22.266277000000002 31.297051000000003 37.415
25.307965000000003 31.476466000000002 34.484147
40.264814 31.661548000000003 25.418371999999998
22.444656000000002 31.170719 31.218232
25.215389000000002 28.320943 31.224943000000003
25.548839 31.558484 28.510204
40.183107 31.226726 31.578237
40.382778 31.241443000000004 37.200036000000004
22.417265999999998 31.532231000000003 25.302847
40.357653000000006 31.371243 13.740741
25.536696 28.439042999999998 25.270098000000004
40.293511 37.222372 13.321456
22.305733000000004 31.318934 19.355145999999998
25.512550000000005 28.441519 19.233919
25.490951000000003 31.608855 16.394633
40.17860700000001 37.129313 19.471725
40.278328 37.426233 25.600279999999998
22.502539 31.196963000000004 13.70184
25.409785 28.506593000000002 13.345873000000001
25.239667000000004 31.185990000000004 10.503998000000001
40.35141 37.501466 31.168744000000004
40.330783000000004 37.144129 37.505067000000004
25.302471000000004 25.437817000000003 40.12055900000001
22.594761 25.436929 37.492566000000004
25.444200000000002 31.633834999999998 22.500647999999998
31.339755000000004 13.378695 16.348750000000003
22.56933 37.217411000000006 13.61023
25.61403 37.264598 16.467669
28.473942 13.660673000000001 13.609545
40.109552 19.644539 19.606206
31.279744 10.392557 13.689456
31.530214 13.444638 10.475761
40.273032 19.632679000000003 25.629992
25.489777000000004 40.426318 37.55576
40.468645 19.303546000000004 31.481217
25.402337000000003 40.406277 31.222458000000003
25.582796000000002 40.47426600000001 25.251564000000002
25.596407 40.119955 19.571021000000002
25.356583999999998 40.507252 13.511597
25.382148 37.104497 40.329666
22.549804 37.372532 37.099306000000006
40.140655 25.362187 37.436422
25.598132 34.148860000000006 37.223727000000004
40.39852200000001 19.625700000000002 37.471869000000005
22.595249000000003 37.290462 31.218536999999998
40.159752000000005 25.420210000000004 13.699081000000001
25.536392 34.237924 31.596432
25.570496 37.546578000000004 28.467284999999997
40.402247 25.282017000000003 19.542179000000004
22.448227000000003 37.411467 25.578106
40.014976 25.374279 25.330055
25.531220000000005 34.101704000000005 25.350659
25.616705000000003 37.300834 22.643785
22.537828000000005 37.209415 19.346721000000002
40.377763 25.626367000000002 31.195974999999997
25.433813999999998 34.171549000000006 19.336849
25.341916000000005 37.565538000000004 34.216872
31.280555 25.616673 22.485148000000002
31.505205000000004 25.565477 34.488051000000006
28.209201 25.275764000000002 25.585431
37.236134 19.556362 16.338494
37.109565 28.357388999999998 19.384142000000004
34.487069 19.465076000000003 13.627253000000001
37.402276 16.632469999999998 13.63059
37.476338000000005 19.354257000000004 10.449288000000001
34.241769 31.163524000000002 19.662253
37.215093 13.631357 40.18447
34.166874 13.377081 37.426750000000006
37.14582600000001 10.692931 37.343941
37.54251 13.642157000000001 34.458312
34.451913 13.623453 31.207937
37.138626 31.528584000000002 22.548282999999998
37.292739000000005 16.302053 19.267741
37.443429 10.405708 31.283904
37.477043 28.481119 25.379744000000002
34.281699 13.490268 25.628086000000003
34.157153 31.486733 25.444168000000005
37.218686 10.414086000000001 25.237735999999998
37.535544 13.388755 22.332394
34.144585 13.64317 19.493975
37.582587000000004 31.323408999999998 28.410207
37.215666000000006 10.704344 19.384268
37.24366 13.546461 16.288414000000003
37.573446 28.451909 31.448691000000004
34.126099 13.593053 13.567915000000001
37.43398 10.465036 13.373028
37.216874 13.734579 28.341865
34.090665 19.574518000000005 19.560824000000004
37.109926 31.172508 16.510158
37.317664 19.52568 22.15757
37.171473 22.610123 31.520679
37.27634 25.319504000000002 34.136761
37.206763 25.384609000000005 28.202506
34.218569 25.572869000000004 25.546782999999998
37.198725 22.337815 25.575915000000002
37.18081 25.306022 22.481002000000004
37.339332000000006 22.406170000000003 37.50546000000001
34.192291000000004 25.445662 37.193208000000006
34.133855000000004 25.524026 19.567656
37.491829 22.551715 19.674064
37.471819 25.611119000000002 16.648387
37.187295 25.574465000000004 40.291423
34.38365700000001 25.356214 13.758497
37.228911000000004 22.588957999999998 13.597140000000001
37.469157 25.197202000000004 10.668565000000001
37.376301000000005 31.545603999999997 10.618439
37.284603 19.608454000000002 40.549082000000006
34.53255600000001 19.548917000000003 37.27662
37.366381 16.364416 37.4838
37.166585000000005 19.320143 34.192702000000004
37.274961 28.253804000000002 13.389689
34.141859000000004 31.224986 13.587984
34.235670000000006 19.494843000000003 31.583683
37.192293 16.447450000000003 31.557249
37.552647 19.481261000000003 28.412534
34.495328 19.599411000000003 25.204532
37.09752 16.575639000000002 25.372099
37.160941 13.614259 10.382939
31.416227 22.239207 25.473050999999998
34.314468 31.535780000000003 31.233198
31.160944 40.173616 31.392446999999997
28.341715999999998 31.235024000000003 31.602832999999997
31.465162999999997 28.331833000000003 31.519437000000003
31.634306000000002 31.415450999999997 28.304812
37.218869000000005 34.232313 19.357602
34.195983000000005 37.508782000000004 19.372927000000004
28.270877 31.497521 25.446113000000004
31.456349000000003 28.576633 25.437466
31.308702000000004 31.609676 22.506374
37.42036 37.215915 22.636743000000003
28.416696 31.159568 19.626658
31.508380000000002 28.281954 19.332603
31.520969 31.385821 16.670467000000002
37.54765 37.403715 16.55119
28.635123999999998 31.362445 13.662318
37.152753 34.54304 25.537976
31.547852 31.372808 10.657217000000001
34.135483 37.44394500000001 25.552525000000003
31.515791999999998 25.536747 40.280411
28.282378 25.279716999999998 37.446922
31.364870000000003 22.216532 37.473424
37.182824000000004 37.142129000000004 28.576031999999998
28.26191 25.22878 31.272661
37.147035 34.182987000000004 31.444615
31.310654999999997 22.224154 31.198571
31.203125 25.310677 28.589660000000002
34.235237000000005 37.525587 31.545361
31.278972000000003 28.458928 13.281249
31.581894 31.467658 34.30721500000001
31.321620000000003 28.393158 37.540113
28.566426 31.304540000000003 37.302062
31.256396000000002 40.229456000000006 25.186202
31.467599 40.351485000000004 19.639499999999998
31.562196 40.349326 13.626766
37.346648 31.251677 34.531235
31.193628000000004 37.446361 40.100640000000006
28.145189000000002 37.433254 37.294767
31.565292 34.241224 37.348105000000004
31.33357 37.296338 34.12234
37.43515 28.627467000000003 37.224847000000004
28.289369 37.400662000000004 31.242722999999998
25.312060000000002 22.353538999999998 37.101279
31.262897000000002 37.185569 28.515739000000004
34.197127 31.472951000000002 37.286867
37.277619 31.426737000000003 40.121254
28.314822 37.217666 25.548043
31.199641 34.380598 25.223373000000002
31.168888000000003 37.413547 22.635415000000002
37.09191500000001 37.224721 10.708742
28.214724000000004 37.230175 19.552986000000004
31.205058 34.497375 19.589773
31.405372 37.516221 16.383558
28.207673 37.364877 13.317931
37.423836 34.204637 13.612757
31.390211 34.459884 13.327112000000001
31.164641000000003 37.340953000000006 10.324407
34.315846 37.418311 13.67151
31.369937999999998 31.518374 40.478452
31.198470999999998 40.245972 37.202832
31.508654999999997 34.447829000000006 31.284743
25.252335000000002 28.501331 37.491544
19.5058 16.275955000000003 13.455960000000001
13.44985 19.652644000000002 40.232129
16.664102 25.210723 19.586188
19.299611 22.55796 19.309012000000003
19.574396 25.391869 16.649323000000003
13.708998 25.494339000000004 10.544853
13.516004 22.680242 13.540206
16.460428999999998 25.343398999999998 13.685986
19.583683999999998 22.404047 13.326432
19.603853 25.253363 10.614839
10.508493 25.638299000000004 13.582433
19.601504 19.616808 40.158861
16.706406 19.526718000000002 37.48337300000001
19.603271 16.366988 37.527361000000006
13.578432000000001 25.430871000000003 16.323022
19.730089 19.59234 34.35813
13.317178 22.484479 19.555255000000002
16.316454 19.279702 31.228755999999997
19.566985000000003 16.315063000000002 31.482979999999998
19.597847 19.341458000000003 28.532798999999997
10.55124 25.237282999999998 19.546818000000002
16.529916999999998 19.485961000000003 25.139167
19.499646 16.542925000000004 25.223604
19.585979000000002 19.317367000000004 22.607692
13.682962 25.297944 22.656954
16.567707 19.689819 19.384451
19.494984000000002 16.702370000000002 19.288095
13.572863 22.246389 25.514766
19.338962000000002 25.659565 22.413483
19.473886999999998 22.600421000000004 25.506467
16.618648 25.269555000000004 25.440753
10.590451 19.593971000000003 37.156983000000004
19.523502999999998 31.223726 34.466587
13.488375 19.579304 22.606557000000002
16.303052 31.303863999999997 31.209054000000002
19.412319000000004 28.129956999999997 31.345545
19.574644 31.269886999999997 28.141664
13.702081 16.325547 25.330494
16.418969 31.460479999999997 25.647254000000004
19.549407000000002 28.20823 25.559873000000003
19.311441000000002 31.256482 22.611534
10.385299 31.507759 37.499423
16.264361 31.352767999999998 19.622252000000003
19.570864 28.257061999999998 19.339851000000003
19.589304 31.237122 16.618354000000004
19.321296000000004 19.322081000000004 16.637714000000003
13.641213 19.311017 28.190919
13.58202 16.340542 31.450573
19.259123000000002 28.496086 13.541958
19.356594 31.257564000000002 10.644156
10.407618000000001 19.227102000000002 31.312947
19.629127000000004 25.434331999999998 40.149236
16.564228999999997 25.330916000000002 37.543576
19.366175 22.557493 37.163630000000005
19.660902 25.586712 34.313286
13.710834 19.390661 34.504332
13.332242 16.642602000000004 37.183402
16.595488000000003 25.363453 31.559934
19.446668000000003 22.634213000000003 31.192075000000003
19.667369 25.522032000000003 28.389384
16.339627 31.245294 13.697969
19.678746000000004 28.405023 37.467717
10.425479000000001 25.274355 25.286989
25.649726 25.253875 34.311952
13.450339000000001 28.500208999999998 19.607428
13.735240000000001 40.41532900000001 13.412185000000001
10.44749 31.595602 19.344321
13.328783 37.204411 40.342114
10.720484 37.430876000000005 37.202736
13.489236 34.470898 37.120543000000005
13.504325 31.48751 22.666543000000004
13.49424 37.18281 34.54652600000001
10.252286 37.271503 31.365947
13.554528 34.150773 31.547674
13.716001 28.301947 25.431573
13.64673 37.468883 28.478578
10.531041 37.425624000000006 25.250898
13.452957 34.464152000000006 25.254778
10.566806 31.428264 25.151927999999998
13.363568 37.513878 22.481267000000003
13.486137000000001 31.351554 28.140923
10.686967000000001 37.114081000000006 19.338335
13.66082 34.4752 19.573246000000005
13.367347 37.499387000000006 16.340573
13.525892 28.271571 31.132202
10.625542000000001 37.489459000000004 13.381971
13.72711 34.484584000000005 13.470996000000001
13.390163 37.144966000000004 10.483143
10.367817 31.488588 31.339332
13.52919 31.223747000000003 40.510791000000005
13.363384 31.207084000000002 34.373319
13.372415 40.402979 19.456856000000002
13.61063 31.549017 16.293275
13.468626 40.143268 25.235847
13.623115 40.498034 31.443795
13.536991 25.277299 28.530139
19.606848 19.322682 10.645979
13.573681 22.626997000000003 31.575527
19.289340000000003 13.508359 40.463914
10.404898000000001 25.295377000000002 31.411631
16.426203 13.390706 37.539153000000006
19.485013000000002 10.665227 37.551158
19.445626000000004 13.402467 34.166228000000004
13.399140000000001 25.43858 34.535801
16.35252 13.553037 31.215001
19.511825 10.734652 31.273625000000003
19.678156 13.667496 28.265940999999998
13.355736 22.361257000000002 37.136387000000006
16.495238999999998 19.611453000000004 13.355009
10.527819000000001 25.218429 37.536062
19.311295 10.403641 25.608186000000003
19.295614 13.656845 22.341942000000003
16.567248 13.407916 19.667312000000003
19.480808000000003 10.440114000000001 19.282058
19.379608000000005 13.695974000000001 16.517091999999998
13.678762 25.193409000000003 40.256251
16.699151 13.388165 13.388141000000001
19.492638 10.474169 13.275658
19.317863000000003 13.648876 10.514883000000001
13.617031 31.218491999999998 10.425367
13.547392 40.323704 37.086563000000005
13.450362 28.502015999999998 13.690796
10.749077 31.208896000000003 13.530122
16.353333 13.441701 25.505845
16.310845 31.223295 37.411796
10.350553 19.255305 25.346709000000004
13.529149 28.581387 37.503398
25.641772000000003 13.692556 28.349367
13.407548 13.372404000000001 28.423817999999997
13.709892 10.517992 31.571194
22.574765 13.690368000000001 25.454757999999998
25.422391000000005 10.349563 25.265435000000004
25.423733 13.591135 22.607915
10.554619 13.767585 31.458092
25.614332000000005 19.465517 40.204211
22.336895 13.690923 19.496379000000005
22.645157000000005 19.348292999999998 37.32421300000001
25.506506 10.63106 19.268824000000002
25.688178 25.347708000000004 10.437317
22.481865 13.558832 13.742253
25.467995000000002 10.401674 13.70125
10.400302 13.475096 13.675897
25.340299 13.609185 10.679123
25.383026 16.421660000000003 25.599961
22.321801 25.376989000000002 13.263683
13.655441 13.572092 34.470621
19.514695000000003 40.300609 37.052339
25.292523000000003 13.676727000000001 16.494704
25.251556 10.643761 31.23431
25.189011 16.410808000000003 37.350431
13.494257 13.739204 16.521523000000002
10.698979 13.575815 19.252127
22.280670999999998 19.501052 25.264288
22.437562 19.383255 19.222821000000003
25.463454 16.573622 19.277242
25.253474000000004 19.55278 16.34764
13.66596 10.355696 19.467617000000004
25.336281 19.348173000000003 28.275813999999997
22.28819 19.598734 13.685438
25.185207 16.557392 13.61273
25.234563 19.356353 10.431802000000001
13.565357 13.365299 22.543765999999998
25.433540999999998 16.692728000000002 31.553916
25.576743999999998 13.646983 40.351459
22.282375000000002 19.656421 31.296117000000002
13.552758 10.707642 25.237612
22.386257 13.770078 37.323064
25.256555 10.496526000000001 37.542840000000005
25.658172999999998 13.369993000000001 34.37193
10.411774000000001 13.485551000000001 25.559997000000003
22.479301 13.554569 31.543415000000003
25.263701000000005 19.397244 34.424828
13.524671 10.693876 37.190544
19.61322 40.202222 31.278573
25.337773 22.188037 13.646844
25.131142000000004 25.420745000000004 16.471704000000003
10.393778000000001 19.339565999999998 13.390892000000001
19.427548 34.559722 31.469366
22.396219000000002 25.57736 25.289293
16.59684 37.451453 25.223012000000004
19.266047999999998 34.403479 25.476681
19.481735999999998 37.434387 22.30082
25.285587 25.286839999999998 28.504269999999998
16.649421000000004 37.422878000000004 19.335079
13.544005 19.323902000000004 16.307695000000002
19.612998000000005 34.150708 19.324011
19.681403000000003 37.344612000000005 16.58654
25.267395999999998 22.374201 31.222734000000003
16.486275 37.49133200000001 13.334954
13.378514000000001 16.740296999999998 19.523604
19.576119 34.506907000000005 13.551335
22.38116 25.658793000000003 31.455820000000003
19.567223 37.451078 10.443937
10.635626 19.537011 19.708263000000002
19.443755000000003 31.085445999999997 40.316947000000006
16.486877999999997 37.436377 31.572069
25.662241 22.374102999999998 25.356354000000003
19.323439 37.386242 28.619753000000003
19.647759999999998 40.274987 13.433328000000001
10.341439000000001 13.372166 37.396505
19.278358000000004 40.17942300000001 25.561931
13.238814 10.451772 13.492238
25.512138 22.273336999999998 19.601226000000004
19.400375000000004 40.049086 19.363777
13.488585 13.332564 40.278753
22.492024999999998 25.578807000000005 19.265626000000005
13.749981 19.472206 10.574486
13.636568 13.376564 10.476804
19.284099000000005 37.34664 40.335384
25.272146 19.460137000000003 22.294857999999998
25.322987000000005 25.513301 22.563054
16.367331999999998 37.095107000000006 37.173156
19.643531000000003 37.23657 34.399398
19.453808000000002 34.243951 37.16263
13.333487 16.351872 13.477654
39.972172 34.722786000000006 10.594181
40.005934 34.184456000000004 28.101059
10.86436 10.823748 16.179623
40.458090000000006 34.664247 16.674821
40.532573000000006 28.178967999999998 34.736599000000005
34.103077000000006 28.529724 22.684067
39.92964 40.191733000000006 22.220468000000004
33.830162 22.458505000000002 40.436
11.03844 28.475524 34.273247000000005
10.86379 28.796346 28.712362
34.54456 28.667498000000002 10.724413
39.906165 40.28364800000001 16.410194
34.11764900000001 22.167741 34.202632
34.026622 28.762065999999997 16.156019999999998
40.284229 34.684207 34.067941
10.522724 27.866014 16.508803999999998
40.42619200000001 28.159007000000003 40.635821
40.182668 34.744858 22.052060000000004
40.626127000000004 34.353656 40.624280000000006
10.570768000000001 28.446506 21.850202000000003
10.682681 16.755408000000003 22.190041
40.404964 27.913516 28.697599000000004
40.455582 16.660153 27.884974
10.93861 22.804572999999998 10.290946
40.012909 16.723725 22.29788
40.696251000000004 16.481214 16.352036
34.391585 34.583651 28.095092
40.64656 16.465333 10.453407
10.354197000000001 16.832265 40.533839
40.386442 10.353153 33.941414
40.201984 10.302683 28.675212000000002
34.528539 34.751802000000005 22.72273
34.543245000000006 34.109728 34.606591
40.797884 10.750746000000001 22.643375
10.439254 16.887917 16.548139
33.993370000000006 34.122913000000004 40.347775000000006
40.604808 10.919655 16.324506
34.796949000000005 40.08118 10.506726
34.341477000000005 40.526835 39.956686
34.449980000000004 40.033907000000006 15.978174000000001
34.658928 40.591479 33.916458
34.393071 40.425357 21.922765
10.452651000000001 16.813329000000003 34.741781
10.342796 28.041832999999997 10.735228000000001
40.579569 16.438948000000003 34.811742
10.180364 10.344725 33.894264
10.354005 22.728277 40.490621
34.129508 28.95127 28.401434000000002
10.994409000000001 10.892215 22.244445
40.399253 28.550006000000003 21.929531000000004
40.724198 28.276773 16.629466999999998
10.18758 22.257779 34.654885
34.518119000000006 28.538307000000003 33.929031
40.350747000000005 28.147163 11.091973000000001
39.902707 22.342565999999998 40.139851
10.317317000000001 22.054448999999998 16.216507
40.343617 22.863183 34.768888
10.850966 10.23555 28.272312
34.600758000000006 40.371236 27.999931000000004
34.169656 34.108068 10.790161000000001
40.391341000000004 22.146596000000002 28.036828
40.564736 22.705741000000003 22.643996
10.26061 22.706186000000002 22.859506000000003
39.957199 22.235925 10.226841
34.609554 34.834649000000006 16.562361000000003
40.732981 16.534481 40.28294
10.281468 22.196436 28.584227
34.629842000000004 28.753175 40.060488
22.751087 22.770761 34.717446
10.519378 28.878479 40.226793
28.651760000000003 10.911924 16.565142
22.801882 10.768399 16.876488000000002
28.720990999999998 10.821822000000001 22.452195000000003
22.262625 10.168983 10.121467
28.156933000000002 10.752263000000001 28.631230000000002
16.773540000000004 40.538973000000006 40.171838
16.152404 40.018012000000006 34.106467
28.193604 10.788803 34.131419
16.698089000000003 40.549824 28.560923000000003
16.255589999999998 40.748957 22.18627
28.589802 10.307309 40.506994
16.738813 40.119130000000006 16.053866
28.060684000000002 16.783427000000003 10.929836
16.352394 34.619175000000006 40.019740000000006
28.706933999999997 16.099923 16.735546
16.699982 34.728575 34.217564
28.650750000000002 16.596029 22.15029
16.181638 34.2707 28.183182000000002
27.915601000000002 16.388413999999997 28.463692
16.697360000000003 34.091702000000005 22.168008
28.601241 16.842313000000004 34.757768000000006
16.891012000000003 34.017010000000006 16.488405
28.119942 16.868077 40.674592
28.43651 22.692744000000005 10.938178
16.914737000000002 34.03986 10.492650000000001
16.304888 28.543353000000003 40.721531000000006
28.849747999999998 22.449421 16.725255000000004
16.267012 28.255820999999997 34.803867000000004
28.853158 22.239086999999998 22.413846
22.823645 10.623647 22.251067
16.155151 28.272956999999998 28.468539
27.972864 10.484906 10.227357
22.237795 40.671767 34.217408
22.130419000000003 22.836154 40.438056
22.424647 28.678823 10.090084000000001
22.770948000000004 22.906502000000003 28.612975
22.101506 27.969808999999998 16.429321
22.447636000000003 22.486494999999998 22.864068000000003
22.849418 28.755676 22.198687
22.777787000000004 22.449937 16.332438000000003
22.652611 28.865605000000002 28.42958
22.519937 22.250216 10.207787
22.360897 16.318652999999998 39.800783
21.964855 28.170437999999997 34.052972000000004
40.119516 40.086208000000006 28.126573
22.703453000000003 28.924357 40.209314
22.160961 16.793393000000002 33.90877
22.024248 16.482523 27.973916000000003
22.406979 33.898581 16.239108
22.044356999999998 16.422006000000003 22.819385000000004
22.840115000000004 34.10533 22.295271
22.354078 16.691526000000003 16.056429
22.816064000000004 34.588201000000005 28.355195000000002
22.261949 16.721744 10.951067
22.106320000000004 33.977274 34.049788
22.709393 10.320954 40.592554
22.063905 34.547948 40.197359
21.919204999999998 40.528792 10.450511
22.408969 10.330189 34.019208
22.186481 40.633617 16.440572000000003
22.590225000000004 40.026227 22.207996
22.686446000000004 39.860792000000004 28.484627000000003
22.666112 10.865847 28.417293
34.231545000000004 22.143942000000003 28.595292
28.854719000000003 22.427811 28.577797000000004
28.043295 22.576092000000003 34.310812000000006
16.233049 10.306669000000001 34.218075000000006
34.693583000000004 10.425929 16.616843000000003
16.515028 10.883881 28.138807
33.929840000000006 10.402371 22.025191
16.590844000000004 10.996953 22.081361
34.031619 10.204302 28.428534
16.374172 9.956617 16.611152000000004
34.745022 10.713203 34.566876
16.434178000000003 10.23005 10.732592
34.570100000000004 10.223492 40.12847300000001
33.924959 16.626544000000003 10.141924000000001
10.370152000000001 39.976941000000004 34.683266
10.825699 40.525614 28.299784000000002
34.270444000000005 16.60655 16.062631000000003
10.953051 40.425381 22.793012000000004
10.135086000000001 40.120830000000005 16.839346
34.101113000000005 16.852789 22.114505
10.208608 34.557049 40.728852
34.735350000000004 16.125989 28.149091
10.772435 34.737358 34.499469
33.841724000000006 16.479539000000003 34.491437
10.353913 34.561169 28.161310999999998
34.777428 16.389768 40.66204200000001
34.447478000000004 22.816039000000004 10.866016
10.373329 34.594892 22.002478000000004
33.85567 22.46815 16.428429
10.693051 34.486285 16.844948000000002
34.053945000000006 22.755878000000003 22.172365
10.563375 34.737405 10.228539
34.450615000000006 10.180695 10.901764
16.636563000000002 28.026463999999997 22.60841
28.689551 40.016677 40.079207000000004
27.982982 40.39443000000001 28.433098
16.451684999999998 28.203488 16.096526
28.824644 22.15256 40.547961
28.126229000000002 27.953985000000003 10.340654
16.447214000000002 28.393891000000004 10.947202
28.203864000000003 28.654634 16.814269000000003
16.819043999999998 22.551153 40.044558
28.676568000000003 28.678463 22.642648
16.329045 22.841401000000005 34.517976
28.583413 28.714163 28.013759
16.603635000000004 22.249206 28.728299999999997
28.753875999999998 28.323573000000003 33.939718000000006
16.779455 22.167344 22.540481
28.731142 28.618333 40.519163
16.576869000000002 22.863301 16.789630000000002
28.873832 34.472153 10.52469
16.292203 22.734389 10.752666
28.138067 34.397275 16.209217000000002
16.097839 16.676952 40.077450000000006
28.650613999999997 34.244988 22.146696
16.305028999999998 16.612502 33.919677
28.309269 34.03359700000001 28.057319
16.18804 16.434761 28.590045000000003
28.681019 34.453042 34.61910700000001
16.58077 16.755457 22.722703000000003
28.161631 34.196461000000006 40.665753
28.80413 40.06795 10.359106
16.759086000000003 16.682715 16.262401
28.237149000000002 40.791883000000006 16.317365000000002
27.897326 40.339267 22.522161000000004
28.154956 40.51041300000001 34.65157
40.657077 40.456157 34.076173000000004
13.661801 13.355691 13.621851000000001
19.34335 19.345007000000003 19.70698
19.730399 19.592836 25.415832
31.410821 37.512451000000006 37.209227000000006
19.283616000000002 19.602223000000002 31.186054
31.111656000000004 37.108551 31.432913
19.305860000000003 19.485616999999998 37.508987
31.289189999999998 37.169794 25.656134
31.340651 37.515299000000006 19.684966000000003
19.30905 25.240167 13.622345000000001
19.610542000000002 19.456449 13.815614
31.659817000000004 37.424996 13.507261
31.427853 31.472757 37.008349
19.279135000000004 25.459981 25.216853999999998
31.164259 31.409413 31.608235
19.172781 25.382815 31.324771
31.569710999999998 31.424756000000002 25.288258
19.291761 25.580346 37.356785
31.433546999999997 31.476329999999997 19.192038000000004
19.364124000000004 31.515923 13.352838
31.605457 31.114277 13.577679
19.525373000000002 25.274755 19.629875
19.326281 31.100116999999997 19.435785000000003
37.159148 13.40528 13.251977
37.555261 13.654889 19.584691
37.21041 25.646177 25.559175000000003
13.551387 37.284046000000004 13.292747
37.50248 25.563049 19.296558000000005
13.659466 37.155312 19.598559
37.133078000000005 25.454646000000004 13.328485
13.632841 37.279092 25.114983000000002
13.267808 37.061897 31.328516999999998
37.472576000000004 19.652315 37.247486
13.317266 37.219135 37.204169
19.814914 13.470795 37.37107
37.11486300000001 19.42402 31.163108
37.282604 19.682488 19.693134
37.481847 19.297989 13.55991
19.511438 13.307884 13.607465
37.434671 13.481249 37.584518
19.310651 13.370508000000001 19.387677000000004
37.143406000000006 13.419705 31.103349
19.213972 13.463761 25.188388000000003
37.206903000000004 13.465126 25.220742
19.305218000000004 13.673187 31.323011
37.15841 19.421056 25.654801
37.438731 25.534255 31.065426000000002
31.264094999999998 25.649586 37.169912000000004
31.230314999999997 25.179059000000002 31.206851999999998
25.444386 13.527682 37.043191
25.245039 37.217961 37.101417000000005
25.585079 19.342505000000003 13.29367
25.166398 37.207119 31.145694
25.223478 19.423450000000003 19.217754
25.621097 37.066917000000004 25.548293
25.301367 19.535842000000002 25.638993
25.265166 37.536094 19.690299000000003
25.183790000000002 19.674433 31.528958000000003
25.738993 13.359903000000001 31.405791999999998
25.463298 37.066448 13.292857
25.688386 31.567829000000003 37.398194000000004
25.62932 25.407448000000002 13.402604
25.558393000000002 31.357565 31.091652000000003
25.603252000000005 25.295825 19.647185
25.611245000000004 31.337598 25.264778
25.670436000000002 25.280842 25.295431999999998
25.611686 31.341386999999997 19.572454999999998
25.584798 25.22679 31.23249
25.565996 31.507952000000003 13.682817
25.315048000000004 19.335073 37.639942
19.319684000000002 31.217452 25.502289000000005
31.078555 13.450684 13.457424000000001
31.550744 13.521949000000001 19.735895
19.168348 31.532296000000002 31.292679
31.091408 25.461310000000005 25.457195
19.338073 31.363515999999997 37.061053
31.654967 25.444357000000004 19.64412
19.374594000000002 37.384352 13.297795
31.616926999999997 25.672038999999998 13.531605
19.620472 37.141737 19.648788000000003