3_train/211_cspbbr3_MA-TPC_3_0.20\211_cspbbr3_MA-TPC_3_0.20.xyz
1.0
42.374594 0 0
0 42.374594 0
0 0 42.374594
Br C Cs H N O Pb S 
96 70 44 96 10 24 27 12 
Cartesian
15.237297 15.237297 12.262297
15.237297 12.262297 15.237297
12.262297 15.237297 15.237297
15.237297 15.237297 18.212297
15.237297 12.262297 21.187297
15.237297 15.237297 24.162297
15.237297 12.262297 27.137297
12.262297 15.237297 27.137297
15.237297 15.237297 30.112297
15.237297 18.212297 15.237297
12.262297 21.187297 15.237297
15.237297 21.187297 18.212297
15.237297 18.212297 21.187297
12.262297 21.187297 21.187297
15.237297 21.187297 24.162297
15.237297 18.212297 27.137297
15.237297 24.162297 15.237297
12.262297 27.137297 15.237297
15.237297 27.137297 18.212297
15.237297 24.162297 21.187297
12.262297 27.137297 21.187297
15.237297 27.137297 24.162297
15.237297 24.162297 27.137297
12.262297 27.137297 27.137297
15.237297 27.137297 30.112297
15.237297 30.112297 15.237297
15.237297 30.112297 21.187297
21.187297 15.237297 12.262297
18.212297 15.237297 15.237297
21.187297 15.237297 18.212297
21.187297 12.262297 21.187297
18.212297 15.237297 21.187297
21.187297 15.237297 24.162297
21.187297 12.262297 27.137297
18.212297 15.237297 27.137297
21.187297 21.187297 12.262297
21.187297 18.212297 15.237297
18.212297 21.187297 15.237297
21.187297 21.187297 18.212297
21.187297 18.212297 21.187297
18.212297 21.187297 21.187297
21.187297 21.187297 24.162297
21.187297 18.212297 27.137297
18.212297 21.187297 27.137297
21.187297 21.187297 30.112297
21.187297 27.137297 12.262297
21.187297 24.162297 15.237297
18.212297 27.137297 15.237297
21.187297 27.137297 18.212297
21.187297 24.162297 21.187297
18.212297 27.137297 21.187297
21.187297 27.137297 24.162297
21.187297 24.162297 27.137297
18.212297 27.137297 27.137297
21.187297 27.137297 30.112297
21.187297 30.112297 21.187297
21.187297 30.112297 27.137297
27.137297 15.237297 12.262297
27.137297 12.262297 15.237297
24.162297 15.237297 15.237297
27.137297 15.237297 18.212297
27.137297 12.262297 21.187297
24.162297 15.237297 21.187297
27.137297 15.237297 24.162297
24.162297 15.237297 27.137297
27.137297 15.237297 30.112297
27.137297 21.187297 12.262297
27.137297 18.212297 15.237297
24.162297 21.187297 15.237297
27.137297 21.187297 18.212297
27.137297 18.212297 21.187297
24.162297 21.187297 21.187297
27.137297 21.187297 24.162297
27.137297 18.212297 27.137297
24.162297 21.187297 27.137297
27.137297 21.187297 30.112297
27.137297 27.137297 12.262297
27.137297 24.162297 15.237297
24.162297 27.137297 15.237297
27.137297 27.137297 18.212297
27.137297 24.162297 21.187297
24.162297 27.137297 21.187297
27.137297 27.137297 24.162297
27.137297 24.162297 27.137297
24.162297 27.137297 27.137297
27.137297 27.137297 30.112297
27.137297 30.112297 15.237297
27.137297 30.112297 21.187297
27.137297 30.112297 27.137297
30.112297 15.237297 15.237297
30.112297 15.237297 21.187297
30.112297 21.187297 15.237297
30.112297 21.187297 27.137297
30.112297 27.137297 15.237297
30.112297 27.137297 21.187297
30.112297 27.137297 27.137297
14.925093 20.523601 33.768584000000004
14.772604000000001 20.187486 32.404883999999996
15.237297 21.187297 31.5629
15.501022 21.767112 33.939758999999995
15.237297 21.187297 30.112297
21.803964 14.840201 33.768584000000004
22.117003999999998 14.644671 32.404883999999996
21.187297 15.237297 31.5629
20.647376 15.575264 33.939758999999995
21.187297 15.237297 30.112297
15.966535 27.058713 8.606010000000001
16.332919 27.014115999999998 9.96971
15.237297 27.137297 10.811694
14.604916 27.213654000000002 8.434835
15.237297 27.137297 12.262297
14.518495 21.041396000000002 8.606010000000001
14.155805 20.972967999999998 9.96971
15.237297 21.187297 10.811694
15.863114 21.305994000000002 8.434835
15.237297 21.187297 12.262297
8.606010000000001 14.506045 21.130423
9.96971 14.137709000000001 21.106877
10.811694 15.237297 21.187297
8.434835 15.872935 21.228547000000002
12.262297 15.237297 21.187297
8.606010000000001 20.461249000000002 27.241308
9.96971 20.096647 27.298678
10.811694 21.187297 27.137297
8.434835 21.816625 27.038895
12.262297 21.187297 27.137297
33.768584000000004 15.783039 27.627327
32.404883999999996 16.05424 27.877679
31.5629 15.237297 27.137297
33.939758999999995 14.76884 26.70569
30.112297 15.237297 27.137297
33.768584000000004 21.917175 21.259691999999998
32.404883999999996 22.283925 21.30118
31.5629 21.187297 21.187297
33.939758999999995 20.554291 21.116307000000003
30.112297 21.187297 21.187297
20.774171 8.606010000000001 14.631252
20.570501999999998 9.96971 14.323445
21.187297 10.811694 15.237297
21.539302000000003 8.434835 15.768173
21.187297 12.262297 15.237297
26.859849999999998 8.606010000000001 26.458337
26.724954999999998 9.96971 26.114783
27.137297 10.811694 27.137297
27.37067 8.434835 27.72998
27.137297 12.262297 27.137297
20.468286 33.768584000000004 15.092431000000001
20.105498 32.404883999999996 15.024524
21.187297 31.5629 15.237297
21.813285 33.939758999999995 15.355094000000001
21.187297 30.112297 15.237297
15.716289 33.768584000000004 26.581841999999998
15.953451000000001 32.404883999999996 26.299034000000002
15.237297 31.5629 27.137297
14.827531 33.939758999999995 27.624973999999998
15.237297 30.112297 27.137297
24.162297 18.212297 10.786636000000001
11.218847 18.212297 31.155747
11.218847 11.218847 24.162297
24.162297 31.155747 11.218847
24.162297 10.786636000000001 18.212297
24.162297 18.212297 31.587958
24.162297 31.155747 31.155747
10.786636000000001 24.162297 18.212297
31.587958 24.162297 18.212297
11.218847 11.218847 18.212297
12.262297 18.212297 12.262297
12.262297 18.212297 18.212297
12.262297 18.212297 24.162297
12.262297 24.162297 12.262297
12.262297 24.162297 24.162297
12.262297 24.162297 30.112297
12.262297 30.112297 18.212297
12.262297 30.112297 24.162297
18.212297 12.262297 18.212297
18.212297 12.262297 24.162297
18.212297 12.262297 30.112297
18.212297 18.212297 12.262297
18.212297 18.212297 18.212297
18.212297 18.212297 24.162297
18.212297 18.212297 30.112297
18.212297 24.162297 12.262297
18.212297 24.162297 18.212297
18.212297 24.162297 24.162297
18.212297 24.162297 30.112297
18.212297 30.112297 12.262297
18.212297 30.112297 18.212297
18.212297 30.112297 24.162297
18.212297 30.112297 30.112297
24.162297 12.262297 12.262297
24.162297 12.262297 24.162297
24.162297 12.262297 30.112297
24.162297 18.212297 18.212297
24.162297 18.212297 24.162297
24.162297 24.162297 12.262297
24.162297 24.162297 18.212297
24.162297 24.162297 24.162297
24.162297 24.162297 30.112297
24.162297 30.112297 18.212297
24.162297 30.112297 24.162297
30.112297 12.262297 18.212297
30.112297 12.262297 24.162297
30.112297 18.212297 12.262297
30.112297 18.212297 18.212297
30.112297 18.212297 30.112297
30.112297 24.162297 12.262297
30.112297 24.162297 24.162297
30.112297 24.162297 30.112297
30.112297 30.112297 18.212297
30.112297 30.112297 24.162297
15.734114 22.272287000000002 34.874594
14.624791 19.882546 34.596312
14.34193 19.257485 32.034476
20.177398 15.873013 34.874594
22.399759 14.457891 34.596312
22.982004 14.094982 32.034476
14.052216 27.277348 7.5
16.670245 26.981742 7.778282
17.351224000000002 26.898193000000003 10.340118
16.409156 21.412634 7.5
13.824511000000001 20.901688 7.778282
13.150199 20.775131 10.340118
7.5 16.42792 21.267588
7.778282 13.800183 21.07666
10.340118 13.115454 21.033541
7.5 22.366761999999998 26.955931
7.778282 19.760658 27.342817
10.340118 19.083013 27.450104
34.874594 14.357631 26.330935
34.596312 16.30901 28.101127
32.034476 16.812694 28.566976
34.874594 20.001071 21.057304
34.596312 22.621513 21.330692000000003
32.034476 23.303176 21.408461
21.849269 7.5 16.230184
20.376374 7.778282 14.045684
19.998326 10.340118 13.473153
27.577313 7.5 28.246538
26.593117 7.778282 25.802604
26.342974 10.340118 25.163745000000002
22.359479 34.874594 15.460948
19.774101 34.596312 14.953721
19.099608 32.034476 14.828134
14.46732 34.874594 28.04898
16.177736 34.596312 26.044999999999998
16.618087 32.034476 25.518879000000002
23.303658000000002 18.797842 10.452715000000001
25.098714 18.663128 10.452715000000001
24.084519 17.175921000000002 10.452715000000001
24.953623 17.672655 12.637039000000001
23.299290000000003 17.796809 12.637039000000001
24.233978 19.167427 12.637039000000001
10.652470000000001 19.140727 31.061606
10.579314 17.343599 30.988449
11.716404 18.152565 32.125539
12.831648 17.356651 30.151683
12.89907 19.012894 30.219104
11.851121 18.267346 29.171156
10.250701 11.714758 24.253909
11.292643 10.672816000000001 23.219943
11.404844 10.560615 25.01304
13.201921 11.852638 24.077867
12.241661 12.812898 25.030776
12.138257 12.916303000000001 23.378248000000003
23.827873999999998 30.696061 10.286925
23.477326 31.944558 11.535423
25.181691 31.534975 11.12584
24.470503 30.488571 13.168536
24.79357 29.337949000000002 12.017915
23.222818 29.715423 12.395389
25.201352 10.452715000000001 18.190184000000002
23.66192 10.452715000000001 19.123202
23.623619 10.452715000000001 17.323505
23.204698 12.637039000000001 18.232676
24.623447000000002 12.637039000000001 17.372802
24.658745 12.637039000000001 19.031412
23.380335 17.527709 31.921879
25.146148999999998 17.877392 31.921879
23.960407 19.23179 31.921879
24.882957 18.843217 29.737555
23.255574 18.520946000000002 29.737555
24.34836 17.272727 29.737555
24.955173 31.866982 30.916747
23.183962 31.639841 31.143888
24.347756999999998 30.668771 32.114958
23.431579000000003 29.409444 30.285185
25.063936 29.618778 30.075851
23.991376 30.513721 29.180907
10.452715000000001 24.986034 18.846002
10.452715000000001 24.299233 17.182067
10.452715000000001 23.201624 18.608822
12.637039000000001 23.403136 17.628270999999998
12.637039000000001 24.036096 19.161762
12.637039000000001 25.047658000000002 17.846857
31.921879 23.511781000000003 19.022824
31.921879 23.785619 17.24367
31.921879 25.189491999999998 18.370398
29.737555 24.761817 17.465312
29.737555 24.509445 19.104989
29.737555 23.215629 18.06659
10.280492 11.684966 17.905945
11.521449 10.44401 17.505412
11.146246000000001 10.819212 19.225534
13.174465 11.880094 18.494633
12.030793 13.023767 18.863766
12.376581999999999 12.677978 17.278492
24.162297 18.212297 12.262297
12.262297 18.212297 30.112297
12.262297 12.262297 24.162297
24.162297 30.112297 12.262297
24.162297 12.262297 18.212297
24.162297 18.212297 30.112297
24.162297 30.112297 30.112297
12.262297 24.162297 18.212297
30.112297 24.162297 18.212297
12.262297 12.262297 18.212297
14.778851 20.232625 29.396882
15.690317 22.134491999999998 29.383643
22.073086 14.656822 29.396882
20.308204 15.811406 29.383643
16.291118 27.03226 12.977712
14.192684 27.243078 12.990951
14.201137 20.968332 12.977712
16.264905 21.402765 12.990951
12.977712 14.182134 21.09673
12.990951 16.283546 21.275439000000002
12.977712 20.137788 27.279085
12.990951 22.227577 26.995087
29.396882 16.030931000000002 27.838523
29.383643 14.45157 26.44085
29.396882 22.241971 21.283390999999998
29.383643 20.141825 21.09038
20.583801 12.977712 14.36703
21.784254999999998 12.990951 16.101036999999998
26.728858 12.977712 26.160184
27.540704 12.990951 28.106662
20.150824 29.396882 15.019823
22.215214 29.383643 15.451286
15.935311 29.396882 26.340836
14.546518 29.383643 27.928012
15.237297 15.237297 15.237297
15.237297 15.237297 21.187297
15.237297 15.237297 27.137297
15.237297 21.187297 15.237297
15.237297 21.187297 21.187297
15.237297 21.187297 27.137297
15.237297 27.137297 15.237297
15.237297 27.137297 21.187297
15.237297 27.137297 27.137297
21.187297 15.237297 15.237297
21.187297 15.237297 21.187297
21.187297 15.237297 27.137297
21.187297 21.187297 15.237297
21.187297 21.187297 21.187297
21.187297 21.187297 27.137297
21.187297 27.137297 15.237297
21.187297 27.137297 21.187297
21.187297 27.137297 27.137297
27.137297 15.237297 15.237297
27.137297 15.237297 21.187297
27.137297 15.237297 27.137297
27.137297 21.187297 15.237297
27.137297 21.187297 21.187297
27.137297 21.187297 27.137297
27.137297 27.137297 15.237297
27.137297 27.137297 21.187297
27.137297 27.137297 27.137297
15.857484 22.529695999999998 32.456112000000005
19.93853 16.029287 32.456112000000005
13.768199000000001 27.305875 9.918482000000001
16.68848 21.471439 9.918482000000001
9.918482000000001 16.71234 21.291782
9.918482000000001 22.649609 26.917499
32.456112000000005 14.143866000000001 26.141769
32.456112000000005 19.716822 21.031186
22.011751999999998 9.918482000000001 16.464873
27.6872 9.918482000000001 28.509986
22.638887 32.456112000000005 15.519351
14.279347 32.456112000000005 28.263796
