3_train/265_cspbbr3_MA-2-ABA_4_0.20\265_cspbbr3_MA-2-ABA_4_0.20.xyz
1.0
50.72052 0 0
0 50.72052 0
0 0 50.72052
Br C Cs H N O Pb 
216 185 95 270 41 48 64 
Cartesian
16.43526 16.43526 13.46026
13.46026 16.43526 16.43526
16.43526 16.43526 19.41026
16.43526 13.46026 22.385260000000002
13.46026 16.43526 22.385260000000002
16.43526 16.43526 25.360259999999997
16.43526 16.43526 31.31026
16.43526 13.46026 34.28526
16.43526 22.385260000000002 13.46026
16.43526 19.41026 16.43526
16.43526 22.385260000000002 19.41026
16.43526 19.41026 22.385260000000002
13.46026 22.385260000000002 22.385260000000002
16.43526 22.385260000000002 25.360259999999997
16.43526 19.41026 28.335259999999998
13.46026 22.385260000000002 28.335259999999998
16.43526 22.385260000000002 31.31026
16.43526 19.41026 34.28526
16.43526 22.385260000000002 37.26026
16.43526 28.335259999999998 13.46026
16.43526 25.360259999999997 16.43526
13.46026 28.335259999999998 16.43526
16.43526 28.335259999999998 19.41026
16.43526 25.360259999999997 22.385260000000002
13.46026 28.335259999999998 22.385260000000002
16.43526 28.335259999999998 25.360259999999997
16.43526 25.360259999999997 28.335259999999998
13.46026 28.335259999999998 28.335259999999998
16.43526 28.335259999999998 31.31026
16.43526 25.360259999999997 34.28526
13.46026 28.335259999999998 34.28526
16.43526 31.31026 16.43526
13.46026 34.28526 16.43526
16.43526 34.28526 19.41026
16.43526 31.31026 22.385260000000002
13.46026 34.28526 22.385260000000002
16.43526 34.28526 25.360259999999997
16.43526 31.31026 28.335259999999998
13.46026 34.28526 28.335259999999998
16.43526 34.28526 31.31026
16.43526 31.31026 34.28526
13.46026 34.28526 34.28526
16.43526 34.28526 37.26026
16.43526 37.26026 16.43526
16.43526 37.26026 22.385260000000002
16.43526 37.26026 28.335259999999998
22.385260000000002 13.46026 16.43526
19.41026 16.43526 16.43526
22.385260000000002 16.43526 19.41026
22.385260000000002 13.46026 22.385260000000002
19.41026 16.43526 22.385260000000002
22.385260000000002 16.43526 25.360259999999997
22.385260000000002 13.46026 28.335259999999998
19.41026 16.43526 28.335259999999998
22.385260000000002 16.43526 31.31026
22.385260000000002 13.46026 34.28526
19.41026 16.43526 34.28526
22.385260000000002 16.43526 37.26026
22.385260000000002 22.385260000000002 13.46026
22.385260000000002 19.41026 16.43526
19.41026 22.385260000000002 16.43526
22.385260000000002 22.385260000000002 19.41026
22.385260000000002 19.41026 22.385260000000002
19.41026 22.385260000000002 22.385260000000002
22.385260000000002 22.385260000000002 25.360259999999997
22.385260000000002 19.41026 28.335259999999998
19.41026 22.385260000000002 28.335259999999998
22.385260000000002 22.385260000000002 31.31026
22.385260000000002 19.41026 34.28526
19.41026 22.385260000000002 34.28526
22.385260000000002 22.385260000000002 37.26026
22.385260000000002 28.335259999999998 13.46026
22.385260000000002 25.360259999999997 16.43526
19.41026 28.335259999999998 16.43526
22.385260000000002 28.335259999999998 19.41026
22.385260000000002 25.360259999999997 22.385260000000002
19.41026 28.335259999999998 22.385260000000002
22.385260000000002 28.335259999999998 25.360259999999997
22.385260000000002 25.360259999999997 28.335259999999998
19.41026 28.335259999999998 28.335259999999998
22.385260000000002 28.335259999999998 31.31026
22.385260000000002 25.360259999999997 34.28526
19.41026 28.335259999999998 34.28526
22.385260000000002 28.335259999999998 37.26026
22.385260000000002 34.28526 13.46026
22.385260000000002 31.31026 16.43526
19.41026 34.28526 16.43526
22.385260000000002 34.28526 19.41026
22.385260000000002 31.31026 22.385260000000002
19.41026 34.28526 22.385260000000002
22.385260000000002 34.28526 25.360259999999997
22.385260000000002 31.31026 28.335259999999998
19.41026 34.28526 28.335259999999998
22.385260000000002 34.28526 31.31026
22.385260000000002 31.31026 34.28526
19.41026 34.28526 34.28526
22.385260000000002 34.28526 37.26026
22.385260000000002 37.26026 16.43526
22.385260000000002 37.26026 22.385260000000002
22.385260000000002 37.26026 28.335259999999998
22.385260000000002 37.26026 34.28526
28.335259999999998 13.46026 16.43526
25.360259999999997 16.43526 16.43526
28.335259999999998 16.43526 19.41026
25.360259999999997 16.43526 22.385260000000002
28.335259999999998 16.43526 25.360259999999997
28.335259999999998 13.46026 28.335259999999998
25.360259999999997 16.43526 28.335259999999998
28.335259999999998 16.43526 31.31026
28.335259999999998 13.46026 34.28526
25.360259999999997 16.43526 34.28526
28.335259999999998 16.43526 37.26026
28.335259999999998 22.385260000000002 13.46026
28.335259999999998 19.41026 16.43526
25.360259999999997 22.385260000000002 16.43526
28.335259999999998 22.385260000000002 19.41026
28.335259999999998 19.41026 22.385260000000002
25.360259999999997 22.385260000000002 22.385260000000002
28.335259999999998 22.385260000000002 25.360259999999997
28.335259999999998 19.41026 28.335259999999998
25.360259999999997 22.385260000000002 28.335259999999998
28.335259999999998 22.385260000000002 31.31026
28.335259999999998 19.41026 34.28526
25.360259999999997 22.385260000000002 34.28526
28.335259999999998 28.335259999999998 13.46026
28.335259999999998 25.360259999999997 16.43526
25.360259999999997 28.335259999999998 16.43526
28.335259999999998 28.335259999999998 19.41026
28.335259999999998 25.360259999999997 22.385260000000002
25.360259999999997 28.335259999999998 22.385260000000002
28.335259999999998 28.335259999999998 25.360259999999997
28.335259999999998 25.360259999999997 28.335259999999998
25.360259999999997 28.335259999999998 28.335259999999998
28.335259999999998 28.335259999999998 31.31026
28.335259999999998 25.360259999999997 34.28526
25.360259999999997 28.335259999999998 34.28526
28.335259999999998 28.335259999999998 37.26026
28.335259999999998 34.28526 13.46026
28.335259999999998 31.31026 16.43526
25.360259999999997 34.28526 16.43526
28.335259999999998 34.28526 19.41026
28.335259999999998 31.31026 22.385260000000002
25.360259999999997 34.28526 22.385260000000002
28.335259999999998 34.28526 25.360259999999997
28.335259999999998 31.31026 28.335259999999998
25.360259999999997 34.28526 28.335259999999998
28.335259999999998 34.28526 31.31026
28.335259999999998 31.31026 34.28526
25.360259999999997 34.28526 34.28526
28.335259999999998 34.28526 37.26026
28.335259999999998 37.26026 16.43526
28.335259999999998 37.26026 22.385260000000002
28.335259999999998 37.26026 28.335259999999998
28.335259999999998 37.26026 34.28526
34.28526 16.43526 13.46026
34.28526 13.46026 16.43526
31.31026 16.43526 16.43526
34.28526 16.43526 19.41026
34.28526 13.46026 22.385260000000002
31.31026 16.43526 22.385260000000002
34.28526 16.43526 25.360259999999997
31.31026 16.43526 28.335259999999998
34.28526 16.43526 31.31026
34.28526 13.46026 34.28526
31.31026 16.43526 34.28526
34.28526 16.43526 37.26026
34.28526 22.385260000000002 13.46026
34.28526 19.41026 16.43526
31.31026 22.385260000000002 16.43526
34.28526 22.385260000000002 19.41026
34.28526 19.41026 22.385260000000002
31.31026 22.385260000000002 22.385260000000002
34.28526 22.385260000000002 25.360259999999997
34.28526 19.41026 28.335259999999998
31.31026 22.385260000000002 28.335259999999998
34.28526 22.385260000000002 31.31026
34.28526 19.41026 34.28526
31.31026 22.385260000000002 34.28526
34.28526 25.360259999999997 16.43526
31.31026 28.335259999999998 16.43526
34.28526 28.335259999999998 19.41026
34.28526 25.360259999999997 22.385260000000002
31.31026 28.335259999999998 22.385260000000002
34.28526 28.335259999999998 25.360259999999997
34.28526 25.360259999999997 28.335259999999998
31.31026 28.335259999999998 28.335259999999998
34.28526 28.335259999999998 31.31026
34.28526 25.360259999999997 34.28526
31.31026 28.335259999999998 34.28526
34.28526 28.335259999999998 37.26026
34.28526 34.28526 13.46026
34.28526 31.31026 16.43526
31.31026 34.28526 16.43526
34.28526 34.28526 19.41026
34.28526 31.31026 22.385260000000002
31.31026 34.28526 22.385260000000002
34.28526 34.28526 25.360259999999997
34.28526 31.31026 28.335259999999998
31.31026 34.28526 28.335259999999998
34.28526 34.28526 31.31026
34.28526 31.31026 34.28526
31.31026 34.28526 34.28526
34.28526 34.28526 37.26026
34.28526 37.26026 22.385260000000002
37.26026 16.43526 16.43526
37.26026 16.43526 22.385260000000002
37.26026 16.43526 34.28526
37.26026 22.385260000000002 16.43526
37.26026 22.385260000000002 22.385260000000002
37.26026 22.385260000000002 28.335259999999998
37.26026 28.335259999999998 16.43526
37.26026 28.335259999999998 22.385260000000002
37.26026 28.335259999999998 28.335259999999998
37.26026 28.335259999999998 34.28526
37.26026 34.28526 16.43526
37.26026 34.28526 22.385260000000002
28.388764000000002 22.628881999999997 42.09777999999999
28.534664999999997 23.16399 40.828844999999994
28.335259999999998 22.385260000000002 39.669023
27.844952999999997 20.478408 41.111371
28.039918999999998 21.27295 42.227391
28.487316 22.974497999999997 38.339569
27.978799000000002 21.004996 39.802741
16.488764 16.678882 42.09777999999999
16.634665 17.213990000000003 40.828844999999994
16.43526 16.43526 39.669023
15.944953 14.528408 41.111371
16.139919 15.32295 42.227391
16.587316 17.024498 38.339569
16.078799 15.054996 39.802741
34.338764 22.628881999999997 42.09777999999999
34.484665 23.16399 40.828844999999994
34.28526 22.385260000000002 39.669023
33.794953 20.478408 41.111371
33.989919 21.27295 42.227391
34.437316 22.974497999999997 38.339569
33.928799 21.004996 39.802741
16.488764 28.578882 42.09777999999999
16.634665 29.11399 40.828844999999994
16.43526 28.335259999999998 39.669023
15.944953 26.428407999999997 41.111371
16.139919 27.222949999999997 42.227391
16.587316 28.924498 38.339569
16.078799 26.954996 39.802741
22.331756 16.678882 8.62274
22.185854999999997 17.213990000000003 9.891675
22.385260000000002 16.43526 11.051497
22.875566999999997 14.528408 9.609149
22.680600999999996 15.32295 8.493129
22.233204 17.024498 12.380951
22.741721 15.054996 10.917779
28.281756 16.678882 8.62274
28.135855 17.213990000000003 9.891675
28.335259999999998 16.43526 11.051497
28.825567 14.528408 9.609149
28.630601 15.32295 8.493129
28.183203999999996 17.024498 12.380951
28.691721 15.054996 10.917779
16.381756 34.528882 8.62274
16.235855 35.06399 9.891675
16.43526 34.28526 11.051497
16.925567 32.378408 9.609149
16.730601 33.17295 8.493129
16.283203999999998 34.874498 12.380951
16.791721000000003 32.904996 10.917779
34.231756 28.578882 8.62274
34.085855 29.11399 9.891675
34.28526 28.335259999999998 11.051497
34.775567 26.428407999999997 9.609149
34.580601 27.222949999999997 8.493129
34.133204 28.924498 12.380951
34.641721 26.954996 10.917779
8.62274 22.628881999999997 34.338764
9.891675 23.16399 34.484665
11.051497 22.385260000000002 34.28526
9.609149 20.478408 33.794953
8.493129 21.27295 33.989919
12.380951 22.974497999999997 34.437316
10.917779 21.004996 33.928799
8.62274 16.678882 34.338764
9.891675 17.213990000000003 34.484665
11.051497 16.43526 34.28526
9.609149 14.528408 33.794953
8.493129 15.32295 33.989919
12.380951 17.024498 34.437316
10.917779 15.054996 33.928799
8.62274 22.628881999999997 16.488764
9.891675 23.16399 16.634665
11.051497 22.385260000000002 16.43526
9.609149 20.478408 15.944953
8.493129 21.27295 16.139919
12.380951 22.974497999999997 16.587316
10.917779 21.004996 16.078799
8.62274 16.678882 28.388764000000002
9.891675 17.213990000000003 28.534664999999997
11.051497 16.43526 28.335259999999998
9.609149 14.528408 27.844952999999997
8.493129 15.32295 28.039918999999998
12.380951 17.024498 28.487316
10.917779 15.054996 27.978799000000002
42.09777999999999 16.678882 28.281756
40.828844999999994 17.213990000000003 28.135855
39.669023 16.43526 28.335259999999998
41.111371 14.528408 28.825567
42.227391 15.32295 28.630601
38.339569 17.024498 28.183203999999996
39.802741 15.054996 28.691721
42.09777999999999 34.528882 34.231756
40.828844999999994 35.06399 34.085855
39.669023 34.28526 34.28526
41.111371 32.378408 34.775567
42.227391 33.17295 34.580601
38.339569 34.874498 34.133204
39.802741 32.904996 34.641721
42.09777999999999 34.528882 28.281756
40.828844999999994 35.06399 28.135855
39.669023 34.28526 28.335259999999998
41.111371 32.378408 28.825567
42.227391 33.17295 28.630601
38.339569 34.874498 28.183203999999996
39.802741 32.904996 28.691721
42.09777999999999 22.628881999999997 34.231756
40.828844999999994 23.16399 34.085855
39.669023 22.385260000000002 34.28526
41.111371 20.478408 34.775567
42.227391 21.27295 34.580601
38.339569 22.974497999999997 34.133204
39.802741 21.004996 34.641721
16.488764 8.62274 16.678882
16.634665 9.891675 17.213990000000003
16.43526 11.051497 16.43526
15.944953 9.609149 14.528408
16.139919 8.493129 15.32295
16.587316 12.380951 17.024498
16.078799 10.917779 15.054996
34.338764 8.62274 28.578882
34.484665 9.891675 29.11399
34.28526 11.051497 28.335259999999998
33.794953 9.609149 26.428407999999997
33.989919 8.493129 27.222949999999997
34.437316 12.380951 28.924498
33.928799 10.917779 26.954996
16.488764 8.62274 28.578882
16.634665 9.891675 29.11399
16.43526 11.051497 28.335259999999998
15.944953 9.609149 26.428407999999997
16.139919 8.493129 27.222949999999997
16.587316 12.380951 28.924498
16.078799 10.917779 26.954996
28.388764000000002 8.62274 22.628881999999997
28.534664999999997 9.891675 23.16399
28.335259999999998 11.051497 22.385260000000002
27.844952999999997 9.609149 20.478408
28.039918999999998 8.493129 21.27295
28.487316 12.380951 22.974497999999997
27.978799000000002 10.917779 21.004996
34.338764 42.09777999999999 34.041638
34.484665 40.828844999999994 33.50653
34.28526 39.669023 34.28526
33.794953 41.111371 36.192112
33.989919 42.227391 35.39757
34.437316 38.339569 33.696022
33.928799 39.802741 35.665524
34.338764 42.09777999999999 16.191637999999998
34.484665 40.828844999999994 15.65653
34.28526 39.669023 16.43526
33.794953 41.111371 18.342112
33.989919 42.227391 17.54757
34.437316 38.339569 15.846022
33.928799 39.802741 17.815524
34.338764 42.09777999999999 28.091637999999996
34.484665 40.828844999999994 27.556530000000002
34.28526 39.669023 28.335259999999998
33.794953 41.111371 30.242112
33.989919 42.227391 29.44757
34.437316 38.339569 27.746021999999996
33.928799 39.802741 29.715524000000002
16.488764 42.09777999999999 34.041638
16.634665 40.828844999999994 33.50653
16.43526 39.669023 34.28526
15.944953 41.111371 36.192112
16.139919 42.227391 35.39757
16.587316 38.339569 33.696022
16.078799 39.802741 35.665524
38.30371 25.360259999999997 38.30371
31.31026 38.30371 38.30371
38.30371 31.31026 38.30371
31.31026 11.984599 19.41026
25.360259999999997 38.30371 12.41681
38.30371 25.360259999999997 12.41681
12.41681 12.41681 19.41026
25.360259999999997 19.41026 38.735921
31.31026 12.41681 12.41681
19.41026 38.30371 12.41681
19.41026 38.735921 25.360259999999997
12.41681 12.41681 31.31026
12.41681 19.41026 38.30371
19.41026 11.984599 31.31026
31.31026 25.360259999999997 38.735921
38.735921 19.41026 25.360259999999997
19.41026 31.31026 11.984599
13.46026 13.46026 25.360259999999997
13.46026 19.41026 13.46026
13.46026 19.41026 19.41026
13.46026 19.41026 25.360259999999997
13.46026 19.41026 31.31026
13.46026 25.360259999999997 13.46026
13.46026 25.360259999999997 19.41026
13.46026 25.360259999999997 25.360259999999997
13.46026 25.360259999999997 31.31026
13.46026 25.360259999999997 37.26026
13.46026 31.31026 13.46026
13.46026 31.31026 19.41026
13.46026 31.31026 25.360259999999997
13.46026 31.31026 31.31026
13.46026 31.31026 37.26026
13.46026 37.26026 19.41026
13.46026 37.26026 25.360259999999997
19.41026 13.46026 13.46026
19.41026 13.46026 19.41026
19.41026 13.46026 25.360259999999997
19.41026 13.46026 37.26026
19.41026 19.41026 19.41026
19.41026 19.41026 25.360259999999997
19.41026 19.41026 31.31026
19.41026 19.41026 37.26026
19.41026 25.360259999999997 13.46026
19.41026 25.360259999999997 19.41026
19.41026 25.360259999999997 25.360259999999997
19.41026 25.360259999999997 31.31026
19.41026 25.360259999999997 37.26026
19.41026 31.31026 19.41026
19.41026 31.31026 25.360259999999997
19.41026 31.31026 31.31026
19.41026 31.31026 37.26026
19.41026 37.26026 19.41026
19.41026 37.26026 31.31026
25.360259999999997 13.46026 13.46026
25.360259999999997 13.46026 19.41026
25.360259999999997 13.46026 25.360259999999997
25.360259999999997 13.46026 31.31026
25.360259999999997 13.46026 37.26026
25.360259999999997 19.41026 13.46026
25.360259999999997 19.41026 19.41026
25.360259999999997 19.41026 25.360259999999997
25.360259999999997 19.41026 31.31026
25.360259999999997 25.360259999999997 19.41026
25.360259999999997 25.360259999999997 25.360259999999997
25.360259999999997 25.360259999999997 31.31026
25.360259999999997 25.360259999999997 37.26026
25.360259999999997 31.31026 13.46026
25.360259999999997 31.31026 19.41026
25.360259999999997 31.31026 25.360259999999997
25.360259999999997 31.31026 31.31026
25.360259999999997 31.31026 37.26026
25.360259999999997 37.26026 19.41026
25.360259999999997 37.26026 25.360259999999997
25.360259999999997 37.26026 31.31026
25.360259999999997 37.26026 37.26026
31.31026 13.46026 25.360259999999997
31.31026 13.46026 31.31026
31.31026 13.46026 37.26026
31.31026 19.41026 13.46026
31.31026 19.41026 19.41026
31.31026 19.41026 25.360259999999997
31.31026 19.41026 31.31026
31.31026 19.41026 37.26026
31.31026 25.360259999999997 13.46026
31.31026 25.360259999999997 19.41026
31.31026 25.360259999999997 25.360259999999997
31.31026 25.360259999999997 31.31026
31.31026 31.31026 13.46026
31.31026 31.31026 19.41026
31.31026 31.31026 25.360259999999997
31.31026 31.31026 31.31026
31.31026 37.26026 13.46026
31.31026 37.26026 19.41026
31.31026 37.26026 25.360259999999997
31.31026 37.26026 31.31026
37.26026 13.46026 19.41026
37.26026 13.46026 25.360259999999997
37.26026 13.46026 31.31026
37.26026 19.41026 13.46026
37.26026 19.41026 19.41026
37.26026 19.41026 31.31026
37.26026 19.41026 37.26026
37.26026 25.360259999999997 19.41026
37.26026 25.360259999999997 25.360259999999997
37.26026 25.360259999999997 31.31026
37.26026 31.31026 13.46026
37.26026 31.31026 19.41026
37.26026 31.31026 25.360259999999997
37.26026 31.31026 31.31026
37.26026 37.26026 19.41026
37.26026 37.26026 25.360259999999997
37.26026 37.26026 31.31026
27.585600999999997 19.423008000000003 41.227473999999994
27.922894999999997 20.834104 43.22052
28.543900999999998 23.248823 42.980929999999994
28.811109000000002 24.210924 40.702598
27.515378999999996 19.241852 38.834522
27.884154000000002 20.629151 37.791856
28.883919 24.559559999999998 37.40787
15.685601 13.473008 41.227473999999994
16.022895 14.884104 43.22052
16.643901 17.298823 42.980929999999994
16.911109 18.260924000000003 40.702598
15.615378999999999 13.291851999999999 38.834522
15.984154 14.679151 37.791856
16.983919 18.609560000000002 37.40787
33.535601 19.423008000000003 41.227473999999994
33.872895 20.834104 43.22052
34.493901 23.248823 42.980929999999994
34.761109 24.210924 40.702598
33.465379 19.241852 38.834522
33.834154 20.629151 37.791856
34.833919 24.559559999999998 37.40787
15.685601 25.373008 41.227473999999994
16.022895 26.784104 43.22052
16.643901 29.198822999999997 42.980929999999994
16.911109 30.160924 40.702598
15.615378999999999 25.191851999999997 38.834522
15.984154 26.579150999999996 37.791856
16.983919 30.50956 37.40787
23.134918999999996 13.473008 9.493046
22.797624999999996 14.884104 7.5
22.176619000000002 17.298823 7.73959
21.909411 18.260924000000003 10.017922
23.205140999999998 13.291851999999999 11.885998
22.836365999999998 14.679151 12.928664
21.836601 18.609560000000002 13.31265
29.084919 13.473008 9.493046
28.747625 14.884104 7.5
28.126618999999998 17.298823 7.73959
27.859411 18.260924000000003 10.017922
29.155141 13.291851999999999 11.885998
28.786366 14.679151 12.928664
27.786600999999997 18.609560000000002 13.31265
17.184919 31.323008 9.493046
16.847625 32.734104 7.5
16.226619 35.148823 7.73959
15.959411 36.110924 10.017922
17.255141000000002 31.141852 11.885998
16.886366000000002 32.529151 12.928664
15.886601 36.45956 13.31265
35.034919 25.373008 9.493046
34.697625 26.784104 7.5
34.076619 29.198822999999997 7.73959
33.809411 30.160924 10.017922
35.105141 25.191851999999997 11.885998
34.736366 26.579150999999996 12.928664
33.736601 30.50956 13.31265
9.493046 19.423008000000003 33.535601
7.5 20.834104 33.872895
7.73959 23.248823 34.493901
10.017922 24.210924 34.761109
11.885998 19.241852 33.465379
12.928664 20.629151 33.834154
13.31265 24.559559999999998 34.833919
9.493046 13.473008 33.535601
7.5 14.884104 33.872895
7.73959 17.298823 34.493901
10.017922 18.260924000000003 34.761109
11.885998 13.291851999999999 33.465379
12.928664 14.679151 33.834154
13.31265 18.609560000000002 34.833919
9.493046 19.423008000000003 15.685601
7.5 20.834104 16.022895
7.73959 23.248823 16.643901
10.017922 24.210924 16.911109
11.885998 19.241852 15.615378999999999
12.928664 20.629151 15.984154
13.31265 24.559559999999998 16.983919
9.493046 13.473008 27.585600999999997
7.5 14.884104 27.922894999999997
7.73959 17.298823 28.543900999999998
10.017922 18.260924000000003 28.811109000000002
11.885998 13.291851999999999 27.515378999999996
12.928664 14.679151 27.884154000000002
13.31265 18.609560000000002 28.883919
41.227473999999994 13.473008 29.084919
43.22052 14.884104 28.747625
42.980929999999994 17.298823 28.126618999999998
40.702598 18.260924000000003 27.859411
38.834522 13.291851999999999 29.155141
37.791856 14.679151 28.786366
37.40787 18.609560000000002 27.786600999999997
41.227473999999994 31.323008 35.034919
43.22052 32.734104 34.697625
42.980929999999994 35.148823 34.076619
40.702598 36.110924 33.809411
38.834522 31.141852 35.105141
37.791856 32.529151 34.736366
37.40787 36.45956 33.736601
41.227473999999994 31.323008 29.084919
43.22052 32.734104 28.747625
42.980929999999994 35.148823 28.126618999999998
40.702598 36.110924 27.859411
38.834522 31.141852 29.155141
37.791856 32.529151 28.786366
37.40787 36.45956 27.786600999999997
41.227473999999994 19.423008000000003 35.034919
43.22052 20.834104 34.697625
42.980929999999994 23.248823 34.076619
40.702598 24.210924 33.809411
38.834522 19.241852 35.105141
37.791856 20.629151 34.736366
37.40787 24.559559999999998 33.736601
15.685601 9.493046 13.473008
16.022895 7.5 14.884104
16.643901 7.73959 17.298823
16.911109 10.017922 18.260924000000003
15.615378999999999 11.885998 13.291851999999999
15.984154 12.928664 14.679151
16.983919 13.31265 18.609560000000002
33.535601 9.493046 25.373008
33.872895 7.5 26.784104
34.493901 7.73959 29.198822999999997
34.761109 10.017922 30.160924
33.465379 11.885998 25.191851999999997
33.834154 12.928664 26.579150999999996
34.833919 13.31265 30.50956
15.685601 9.493046 25.373008
16.022895 7.5 26.784104
16.643901 7.73959 29.198822999999997
16.911109 10.017922 30.160924
15.615378999999999 11.885998 25.191851999999997
15.984154 12.928664 26.579150999999996
16.983919 13.31265 30.50956
27.585600999999997 9.493046 19.423008000000003
27.922894999999997 7.5 20.834104
28.543900999999998 7.73959 23.248823
28.811109000000002 10.017922 24.210924
27.515378999999996 11.885998 19.241852
27.884154000000002 12.928664 20.629151
28.883919 13.31265 24.559559999999998
33.535601 41.227473999999994 37.247512
33.872895 43.22052 35.836416
34.493901 42.980929999999994 33.421697
34.761109 40.702598 32.459596
33.465379 38.834522 37.428668
33.834154 37.791856 36.041369
34.833919 37.40787 32.11096
33.535601 41.227473999999994 19.397512
33.872895 43.22052 17.986416
34.493901 42.980929999999994 15.571697
34.761109 40.702598 14.609596
33.465379 38.834522 19.578668
33.834154 37.791856 18.191369
34.833919 37.40787 14.260959999999999
33.535601 41.227473999999994 31.297511999999998
33.872895 43.22052 29.886415999999997
34.493901 42.980929999999994 27.471697
34.761109 40.702598 26.509596000000002
33.465379 38.834522 31.478668
33.834154 37.791856 30.091369
34.833919 37.40787 26.160959999999996
15.685601 41.227473999999994 37.247512
16.022895 43.22052 35.836416
16.643901 42.980929999999994 33.421697
16.911109 40.702598 32.459596
15.615378999999999 38.834522 37.428668
15.984154 37.791856 36.041369
16.983919 37.40787 32.11096
38.025922 24.617342 39.053733
39.251723 25.102314999999997 37.827932
38.341838 26.361122 38.737817
37.468895 26.044936999999997 36.521659
36.339191 25.597983 37.651364
37.177746 24.43786 36.812809
30.583486999999998 38.014505 39.065149999999996
32.317032 38.35743299999999 38.722221999999995
31.030261000000003 39.247544 37.832111
31.980057000000002 37.479417 36.511138
30.382413999999997 37.163373 36.827182
31.568309 36.343042 37.647512
38.025922 30.567341999999996 39.053733
39.251723 31.052315 37.827932
38.341838 32.311122 38.737817
37.468895 31.994937 36.521659
36.339191 31.547983000000002 37.651364
37.177746 30.387860000000003 36.812809
30.583486999999998 11.650678 18.667341999999998
32.317032 11.650678 19.152315
31.030261000000003 11.650678 20.411122
31.980057000000002 13.835002 20.094937
30.382413999999997 13.835002 19.647983
31.568309 13.835002 18.487859999999998
24.633487000000002 39.065149999999996 12.706015
26.367032000000002 38.722221999999995 12.363087
25.080261 37.832111 11.472976
26.030057 36.511138 13.241102999999999
24.432414 36.827182 13.557147
25.618308999999996 37.647512 14.377478
39.053733 24.617342 12.694598
37.827932 25.102314999999997 11.468797
38.737817 26.361122 12.378682
36.521659 26.044936999999997 13.251625
37.651364 25.597983 14.381329
36.812809 24.43786 13.542774
12.188765 12.17262 18.371032
12.813051 11.548334 19.939760999999997
11.540262 12.821123 19.919987
13.717803 13.732683 20.368018
13.142458 14.308027 18.922269
14.315467 13.135017999999999 18.940493
24.633487000000002 18.667341999999998 39.069842
26.367032000000002 19.152315 39.069842
25.080261 20.411122 39.069842
26.030057 20.094937 36.885518
24.432414 19.647983 36.885518
25.618308999999996 18.487859999999998 36.885518
30.583486999999998 12.706015 11.65537
32.317032 12.363087 11.998298
31.030261000000003 11.472976 12.888409
31.980057000000002 13.241102999999999 14.209382
30.382413999999997 13.557147 13.893338
31.568309 14.377478 13.073008
18.683487 39.065149999999996 12.706015
20.417032 38.722221999999995 12.363087
19.130260999999997 37.832111 11.472976
20.080057 36.511138 13.241102999999999
18.482414 36.827182 13.557147
19.668309 37.647512 14.377478
18.683487 39.069842 26.103178
20.417032 39.069842 25.618204999999996
19.130260999999997 39.069842 24.359398
20.080057 36.885518 24.675582999999996
18.482414 36.885518 25.122537
19.668309 36.885518 26.28266
12.188765 12.17262 30.271031999999998
12.813051 11.548334 31.839761000000003
11.540262 12.821123 31.819986999999998
13.717803 13.732683 32.268018
13.142458 14.308027 30.822269
14.315467 13.135017999999999 30.840493000000002
11.666787 18.667341999999998 38.025922
12.892588 19.152315 39.251723
11.982703 20.411122 38.341838
14.198860999999999 20.094937 37.468895
13.069156 19.647983 36.339191
13.907710999999999 18.487859999999998 37.177746
18.683487 11.650678 30.567341999999996
20.417032 11.650678 31.052315
19.130260999999997 11.650678 32.311122
20.080057 13.835002 31.994937
18.482414 13.835002 31.547983000000002
19.668309 13.835002 30.387860000000003
30.583486999999998 24.617342 39.069842
32.317032 25.102314999999997 39.069842
31.030261000000003 26.361122 39.069842
31.980057000000002 26.044936999999997 36.885518
30.382413999999997 25.597983 36.885518
31.568309 24.43786 36.885518
39.069842 18.667341999999998 26.087032999999998
39.069842 19.152315 24.353488
39.069842 20.411122 25.640259
36.885518 20.094937 24.690463
36.885518 19.647983 26.288106
36.885518 18.487859999999998 25.102210999999997
20.137033000000002 30.567341999999996 11.650678
18.403488000000003 31.052315 11.650678
19.690258999999998 32.311122 11.650678
18.740463 31.994937 13.835002
20.338106 31.547983000000002 13.835002
19.152211 30.387860000000003 13.835002
27.770156999999998 20.213744 38.717887999999995
15.870157 14.263743999999999 38.717887999999995
33.720157 20.213744 38.717887999999995
15.870157 26.163744 38.717887999999995
22.950362999999996 14.263743999999999 12.002632
28.900363 14.263743999999999 12.002632
17.000363 32.113744 12.002632
34.850363 26.163744 12.002632
12.002632 20.213744 33.720157
12.002632 14.263743999999999 33.720157
12.002632 20.213744 15.870157
12.002632 14.263743999999999 27.770156999999998
38.717887999999995 14.263743999999999 28.900363
38.717887999999995 32.113744 34.850363
38.717887999999995 32.113744 28.900363
38.717887999999995 20.213744 34.850363
15.870157 12.002632 14.263743999999999
33.720157 12.002632 26.163744
15.870157 12.002632 26.163744
27.770156999999998 12.002632 20.213744
33.720157 38.717887999999995 36.456776
33.720157 38.717887999999995 18.606776
33.720157 38.717887999999995 30.506776000000002
15.870157 38.717887999999995 36.456776
37.26026 25.360259999999997 37.26026
31.31026 37.26026 37.26026
37.26026 31.31026 37.26026
31.31026 13.46026 19.41026
25.360259999999997 37.26026 13.46026
37.26026 25.360259999999997 13.46026
13.46026 13.46026 19.41026
25.360259999999997 19.41026 37.26026
31.31026 13.46026 13.46026
19.41026 37.26026 13.46026
19.41026 37.26026 25.360259999999997
13.46026 13.46026 31.31026
13.46026 19.41026 37.26026