1_train/74_cspbbr3_methylammonium_4_0.40\74_cspbbr3_methylammonium_4_0.40.xyz
1.0
47.855205999999995 0 0
0 47.855205999999995 0
0 0 47.855205999999995
Br C Cs H N Pb 
240 34 78 204 34 64 
Cartesian
26.791783 27.021335 23.730309
27.027349 23.891302 27.041823
32.682410000000004 26.881351 29.775229
35.721188999999995 20.986814 20.781900999999998
24.109858 26.772123999999998 21.017392
26.815855999999997 24.105004 21.16774
24.059417 27.020085 26.939189
35.992861 20.898425 14.889954
24.023206 27.130418 32.810857999999996
35.796709 14.771828999999999 32.95923
26.896375 23.747624 32.924884
26.91704 26.695470999999998 17.919776
26.760275999999998 27.001393 35.632039
35.819143999999994 14.842651 27.054214
27.077712 32.903501 11.836761
26.905081 30.0446 14.919730999999999
23.890504999999997 33.014395 15.094244999999999
35.639241999999996 14.804367 21.056424
35.662232 14.771324 14.924306999999999
26.837969 32.958529 17.765969
27.0855 29.954579 21.084313
24.060719 32.835488999999995 20.815088
32.656149 35.840016 32.922515000000004
27.096803 27.052221 29.935477
35.87484 21.218308999999998 26.852627
36.005057 26.793878 15.125471999999998
24.089618 27.008119 15.028958999999999
26.736697999999997 12.24579 26.889045
23.759918 14.975183999999999 26.746822
35.624759 32.659377 32.934754999999996
35.721084 32.906859 27.056659
26.811445 14.888103999999998 30.115743
26.735196 12.11582 32.72278
24.101289 15.054521 32.666405999999995
26.87243 14.827452999999998 35.777557
35.645712 32.656086 20.889701
27.100192 21.124777 12.059050999999998
26.856028 17.801543 14.845094999999999
23.806666999999997 21.171337 15.13541
35.748047 32.701622 15.232268
35.788668 21.000453 33.02581
26.732246 20.747765 18.069886
24.072823 20.790625 21.129797
35.671698 26.813842 32.694677999999996
26.921888 20.901359 23.721058
27.069732 17.834177999999998 26.81501
23.715469 21.034523999999998 26.878965
35.935231 26.953279 26.764276
26.719876 21.124048 29.874278999999998
26.865457 18.060323999999998 32.605700999999996
23.823569 20.827221 32.699853
26.883370999999997 20.733961 35.693312
35.715391 26.944513999999998 21.122304999999997
26.746971 27.058289 12.058596
26.672629999999998 24.05701 14.983968999999998
27.091288 17.892406 21.144579
26.817363999999998 33.00826 23.843963
32.675456 35.944832 20.929350999999997
23.979846 33.093653 26.826486
32.707948 17.78152 14.871735
29.800670999999998 21.149901999999997 14.981226999999999
29.65614 32.982648 20.88592
33.033860000000004 20.759475 18.112949
32.956728 18.088964999999998 21.209065
29.734202 20.838061 21.170447
32.839439999999996 20.77564 24.060961
32.814402 17.793405999999997 27.077261999999997
29.876434 20.696666999999998 26.764919999999996
32.635971999999995 29.914098 21.106014
32.71292 20.785376999999997 29.869276
32.827383999999995 18.135614 32.72662
32.690257 33.032964 18.033381
33.009052 20.892135 12.200709
29.838147 20.957552 33.053204
32.855835 27.031713 11.810963
32.705957 23.877252 14.889436
29.760027 26.785973 14.754766
29.661666 32.951860999999994 14.926362
32.866566 30.01333 14.87403
32.889887 27.091116 18.01421
32.977894 24.065407999999998 20.791289999999996
32.7669 32.646733999999995 12.227431999999999
29.995755 26.944246 21.086201
32.981702 27.07419 24.057837999999997
32.706107 24.074714999999998 26.762435
30.0426 26.824607 26.87525
32.644249 26.818149 35.95138
32.949653 20.879512 35.664969
27.05131 29.826465 27.114472
33.006601 32.7418 24.146034
32.690837 15.107667999999999 36.02928
32.701368 35.719148000000004 27.009945
27.055639999999997 33.017449 30.006769
32.746282 23.850082 33.03107
26.730818 29.770913 32.786249
23.821117 32.698938999999996 32.846929
27.069823999999997 32.700619 35.833326
27.033904999999997 35.8456 15.226626999999999
33.017776 35.820387 14.913668999999999
26.693953 35.798804000000004 21.11059
27.038111 35.705771 26.9671
26.734583 35.881314 32.966398999999996
33.005683 32.937235 35.920015
33.036728999999994 14.898902999999999 11.981988999999999
32.726603 29.891243 27.128096999999997
32.624858 11.982031 15.097359999999998
29.917419 32.739564 32.591504
33.11284 29.773982 32.847496
32.920671 14.923243999999999 18.224173999999998
32.955487 12.001703 21.219878
29.716974999999998 14.999053 20.793827999999998
32.975384 32.766397 29.995889
32.798134 15.163554999999999 24.010005999999997
32.808757 12.002566 27.10484
29.750526999999998 14.902294 26.776401
26.820718 14.920987 24.182802
29.723468 32.966592 27.120711999999997
33.029469 12.183529 32.944964999999996
29.632963 15.038969 32.808186
30.135838 14.977879999999999 15.040277
32.835004999999995 15.134414 30.072062
30.153926 26.835079 32.856881
23.787052 15.102160999999999 20.893054
18.018268 14.843592 20.828152
15.071286999999998 20.84715 35.985772999999995
21.108956999999997 14.883439 23.785761
21.154964 11.933058999999998 27.071968
17.881014 15.063163 26.659571
12.17521 20.777516 32.712610999999995
20.825079 14.886036999999998 29.749734
20.792220999999998 11.953128999999999 32.74778
17.876479 14.838000999999998 32.80504
14.933193999999999 18.099038 32.98988
20.8786 14.89842 36.043417
21.064892999999998 20.772053 11.887557999999999
20.978209999999997 17.80303 15.240922
20.933163 12.228888999999999 20.825695
17.939481 20.752806999999997 15.183618
14.864757999999998 20.783102999999997 30.05508
21.046038 18.168674 21.140447
12.135459999999998 21.007278 27.093134999999997
17.808256999999998 21.011947 20.812587999999998
14.932049999999998 18.166531 26.741827999999998
14.872209999999999 20.887258 23.815753
21.132427 21.036388 23.764276
21.022888000000002 18.053254 27.146771
17.830852 21.119272 26.733427
12.148193999999998 21.021907 21.096353999999998
20.692236 20.950381999999998 29.910584
15.136747 26.740447 29.9922
14.910277999999998 18.136505999999997 20.835611
20.843002 20.730773999999997 17.981226999999997
21.178704 15.022326999999999 18.161699
18.103475 15.216133999999998 15.170138999999999
20.912201 11.872943999999999 14.913170999999998
14.995588 24.018684999999998 33.067437
11.912643999999998 26.992102 32.992995
15.081423 24.110602 26.692087
15.075489999999999 26.721232 35.858996
15.001999 26.983983 24.194698
11.868481999999998 26.795209 21.069376
15.179535 32.762114 12.020638
14.901997 30.048032 15.171607999999999
11.810104999999998 32.899001 14.970125
14.923613 23.738458 20.807219
15.160518 32.790208 18.081718
14.862146 29.919467 21.085532999999998
12.108732999999999 32.641631000000004 20.814757
14.987811999999998 32.683721 23.777054999999997
15.177271999999999 29.818853 26.887766
11.821833 32.795781 26.940239
15.035591 32.981037 29.656793
15.001265 29.694993999999998 32.713121
12.216515999999999 32.908716 33.006798
14.779508 27.070244 17.992586
15.271967 32.739901 35.825095
15.109912 35.916368 15.137775
15.011216999999998 35.951366 20.816204999999997
11.789340999999999 26.837702 14.875640999999998
14.866484999999999 23.846345 14.846960999999999
14.988523999999998 35.989592 26.676423999999997
15.089592999999999 35.873059 32.639669
15.141559999999998 26.670004 11.966565999999998
20.87263 15.118298999999999 11.8028
18.159295999999998 21.140073 32.913332
20.90549 20.729678999999997 35.739401
21.16123 17.828333 32.730436999999995
15.158182 21.010382999999997 18.225486
20.738957999999997 29.757365999999998 20.897686999999998
21.050002999999997 27.048051 11.939022
15.073422999999998 11.887929 27.017682
20.897392 32.96015 23.786896
15.203869999999998 15.045855999999999 24.124848
20.799411 29.690766999999997 27.016588
17.868166 32.642224999999996 26.770059
20.726183 33.036198999999996 29.812669
11.898878999999999 14.956743 21.07315
20.921765999999998 30.062352 32.852226
18.023364 32.702669 32.6008
14.933124 11.869848 20.809657
20.855077 32.852894 18.189294
20.978135 33.026527 35.614371
21.144288 35.684698 14.857809
11.822011 14.850511 14.927074999999999
20.796149999999997 35.753568 20.775322
15.111248999999999 12.248821999999999 14.998168
20.885223 35.737272000000004 26.743937
21.167758999999997 35.884161 32.742766
15.056899 15.027745999999999 12.210109
27.100015 15.073768 11.960125999999999
26.71764 12.110033 14.883384
23.885742 15.048822 15.186328999999999
27.093102000000002 15.137623999999999 17.834875
27.079425 12.177297999999999 21.098545
15.127841 15.084043999999999 17.866189
12.071691999999999 15.023992 26.712792
18.225568 32.752846 20.913379999999997
20.723214 23.916922 26.725417999999998
21.056538 24.132525 14.878162
17.871275999999998 27.032485 15.077722999999999
12.285881999999999 20.870993 14.876724999999999
20.804406999999998 26.724218999999998 17.828697
14.970113999999999 17.845382 15.239432999999998
20.743654 24.100505 20.870998
18.183756 27.10253 21.024099999999997
20.994328 27.088434999999997 24.077362
14.789940999999999 21.037808 11.90869
17.966444 32.694286 14.854175
14.839761999999999 14.839234 35.661187
17.73688 26.792389 26.816859
21.079780999999997 26.772207 29.868648
12.157302999999999 27.074852999999997 26.883639
14.924387 12.287597 32.758705
21.069276 23.904981 32.99494
11.844014 14.908024999999999 33.02243
20.862902 32.990622 11.948492
17.755969999999998 26.95271 33.015592999999996
20.950042 29.699119 15.199779999999999
14.975894 14.914041999999998 29.689496
20.837964999999997 26.917836 35.663776
10.948509999999999 36.931578 18.000084
29.93247 37.259325000000004 29.923199
29.971287 17.997779 10.574333999999999
10.590914 29.952809 29.946621
29.798809 36.852575 36.896055000000004
29.905782 29.808011999999998 10.51344
23.977244 36.917929 36.838715
29.947383 10.613361 23.936925
29.931184 17.933381999999998 37.255188000000004
17.988103 23.99702 10.593093999999999
11.054732 18.036103999999998 10.931465
37.371855 18.004592 29.899691
10.526333999999999 18.041808 29.821512
10.485558999999999 29.911353 23.954361
10.539603 23.93848 17.897309
37.288514 17.909848 17.942287999999998
36.909041 29.944837 11.038737999999999
37.368483999999995 23.946458 29.952977
29.811466 23.892983 10.549315
11.018531999999999 10.908057 17.934692
37.261363 29.785247 29.887691999999998
10.478618999999998 29.893563999999998 17.909876999999998
29.923451 36.933532 11.036117999999998
36.932709 11.028927 23.877350999999997
29.868334 37.25649 17.916549
36.785486 29.838974 36.874584999999996
18.085079999999998 17.995196999999997 10.555454999999998
23.974758 36.935953999999995 10.958974
10.942253999999998 36.84395 29.805277
18.050798 37.343378 29.809169
18.012155999999997 10.478655999999999 17.939428999999997
37.240548000000004 17.91317 23.956522999999997
37.226786000000004 23.970416 18.011617
10.645914999999999 17.940557 17.950767
12.548654999999998 11.801369999999999 30.099807
36.178094 35.973333 23.842911
36.02397 18.230108 35.617073
29.789035 29.494996 30.228773
24.206114 12.28548 24.38714
29.95137 36.065597 24.381706
29.601160999999998 24.216254999999997 35.385169
35.616963 36.180694 29.509607
36.242513 35.909294 18.313038
12.555997 17.770419 23.957721
36.012170999999995 23.637895999999998 24.335462999999997
36.046071 24.152059 12.344403
36.153712 29.606212 24.191643999999997
35.929434 11.520138999999999 17.873217999999998
29.613056999999998 29.478374 35.985899
36.158379999999994 24.112065 35.514866999999995
29.633878 30.166296 18.137559
11.720640999999999 24.014483 12.523731999999999
35.756077 11.629249999999999 29.77106
29.50508 30.134353 24.112555
11.878853 18.186261 36.130285
35.586481 18.512356 11.893267999999999
24.115358 17.747926 18.277378
17.793961 24.282806 24.122577
23.939667999999998 29.590650999999998 11.766368
23.641609 24.264333 35.672086
17.74626 23.597572 29.834961
24.123973999999997 24.211132 30.267730999999998
17.604039 29.875412999999998 12.172633
24.020999 24.150895 23.582729
17.858296 30.339242 18.077309999999997
24.134695 24.164778 18.243813
18.448642999999997 29.780047 23.764702999999997
23.468319 24.208747 11.937643999999999
23.840119 18.481088 35.982044
17.497996 29.794142 30.172399
23.612091 17.818157 29.42861
18.129731999999997 29.504880999999997 35.390061
24.202267999999997 17.623683999999997 23.810260999999997
17.564518 35.604006999999996 11.853014
18.17465 35.337588 17.878079
17.637808999999997 35.400858 23.924076
23.465950999999997 11.786098999999998 12.11196
23.68851 17.676523 12.327383999999999
23.909122 12.408385999999998 36.134101
23.463614999999997 11.908259 18.034184
12.012678 24.24552 29.624900999999998
24.451006 11.904456999999999 29.698919999999998
23.589626 29.641149 18.002618
17.975745 24.352894999999997 17.769358999999998
17.711411 23.521136 35.786579
18.222797 18.272344999999998 35.944053
29.380072 24.064767 30.070313
12.207248 23.637991999999997 35.606283
29.767588999999997 23.595388999999997 24.279629
12.125459 29.629939 11.761603999999998
30.251732999999998 24.044935 18.116359
29.858988 18.24112 30.139573
11.639071 29.804357 36.13471
24.221518 29.455230999999998 24.110509
30.201797 17.650847 23.714821999999998
11.910798 36.135994 23.651184
18.075133 12.295698999999999 11.671956999999999
30.455227 17.848883999999998 18.049301
18.174483 12.530811 24.049813999999998
29.889347 11.538865 35.764173
17.731956 12.210697 30.114193999999998
23.685436 29.529949 29.533063
18.041877 17.593045 29.431903
24.122923999999998 30.379806 35.64418
23.601276 35.609297999999995 18.249153999999997
29.503006 12.079346 30.204943
18.157422 17.757417 24.298966
24.231220999999998 35.357153999999994 29.930887
29.653254999999998 12.298601999999999 12.293061999999999
17.729104 18.394690999999998 17.610681999999997
17.693887 12.176328 36.216367
24.142702999999997 35.621900999999994 24.173318
22.988328 35.512927 12.210417
29.567698 37.60341 30.870528
23.29148 37.723267 11.356008999999998
23.530288 36.421311 10.098925
24.956474 37.161376000000004 10.858141999999999
24.279887 36.157675 12.937757
29.190566 37.646669 29.108438
24.525579 35.049223 11.754966999999999
18.379445999999998 10.240184999999999 18.972759
17.855428 24.879432 12.414515999999999
30.726671 37.51602 11.125672
29.803660999999998 36.242768999999996 12.979643
30.711517 35.2731 11.985527
29.095133999999998 35.212958 11.950005999999998
16.981189999999998 10.227305 17.835672
18.608293 10.234093 17.194778
18.953257999999998 12.37947 18.121391
17.365738999999998 12.412018 18.701397999999998
17.597732999999998 12.379067 17.100535999999998
37.614678 18.614687 18.802972999999998
37.621933999999996 16.966206999999997 18.10991
37.615891 18.406416 17.057292
35.474035 17.427962 17.179144
35.430408 18.930305999999998 17.895035999999998
35.487059 17.578688 18.848388
18.778961 24.619687 10.200603999999998
18.173182999999998 22.926394 10.2427
17.012408 24.315590999999998 10.185941
17.216625999999998 23.344679999999997 12.385017999999999
18.854961 23.580778 12.364885999999998
30.901359 37.668043 29.631081
36.187891 29.652851 34.880736999999996
30.116768999999998 35.429647 28.947513999999998
12.070851999999999 18.866391999999998 12.513853
12.977905 17.75327 11.650685999999999
11.810388 17.305059999999997 12.737122
10.198687 18.628183999999997 30.72567
10.22889 18.345088999999998 28.887406
10.193660999999999 16.953018 30.056812
12.423976 17.394218 29.145525
12.385002 17.615599 30.793388
12.388179999999998 18.918913 29.786192
10.242567 30.517035 29.04816
10.247967999999998 28.860339 29.736207
11.22148 18.752646 10.216797999999999
10.24029 30.320532 30.854406
12.392760999999998 30.801061 30.011808
12.428377999999999 29.476665999999998 29.022693
36.908328 28.874367 10.604346
36.546435 30.614632999999998 10.226073
37.786384 30.139895 11.471592999999999
35.700314 30.778565999999998 12.479598
36.035522 29.246078 12.758308999999999
34.951088 29.603533 11.638684
36.438143999999994 30.120324999999998 37.810934
37.272575 28.873205 36.885532
37.600535 30.604105999999998 36.634828999999996
12.372019 29.312624 30.631062
30.49926 35.449670999999995 30.582452999999997
10.048549 18.183022 11.474958999999998
12.383899999999999 17.295222 17.357014999999997
28.964257 35.484078 30.08897
17.1156 37.655823999999996 30.471456
18.876756999999998 37.607197 30.363757
17.947105999999998 37.65258 28.858898999999997
18.756737 35.431897 29.345857
17.110692 35.426835999999994 29.457601
18.05687 35.426776000000004 30.818526
11.484698 10.004458999999999 18.205247999999997
10.231133 11.214886 18.736155
10.503236999999999 11.002322 16.959011
11.633543999999999 12.912631999999999 17.774911
10.979723 16.965263999999998 10.502244999999998
12.768944 11.843874999999999 17.236666999999997
28.958547 37.611712999999995 18.419151
30.76439 37.661933 18.561614
29.967623 37.660362 16.926631999999998
30.753740999999998 35.482628 17.559426
29.108131999999998 35.416754999999995 17.435394
29.812122 35.422645 18.901957
10.244693 18.167768 16.985484
10.246600999999998 16.983318999999998 18.312078999999997
10.232672999999998 18.771695 18.660379
12.413478 17.786278 18.945341
12.390692999999999 18.898722 17.650579
12.494432 12.059496 18.856696
28.941167 37.422748999999996 11.116670999999998
29.305327 18.709308999999998 35.433794
35.422478999999996 23.305965999999998 17.244965999999998
30.85078 18.094220999999997 35.468543
30.904965 10.24129 23.649638
29.627892 10.244159999999999 24.919511
29.118909 10.212225 23.168843
28.958334 12.387642999999999 24.169379
30.130595 12.407549999999999 22.980288
30.60201 12.432614999999998 24.59601
10.246972999999999 23.026636 18.480856
10.186283 24.858596 18.481368
10.203322 23.952055 16.928787999999997
12.375860999999999 24.762251 17.503289
12.387474 23.075583 17.480071
12.438135999999998 23.915278999999998 18.924657
10.469558 36.810435999999996 17.029116
10.287135999999999 36.673854 18.797067
11.501987999999999 37.809775 18.111217
12.512820999999999 35.782607 18.839405
12.694133999999998 35.965326 17.228635999999998
11.613950999999998 34.872534 17.849923
37.610001999999994 18.978415 24.300545999999997
37.64757 17.16934 24.578221
37.631097 17.778786 22.871451999999998
35.425759 17.074945999999997 23.643948
35.452832 18.674447999999998 23.29274
35.448794 18.132955 24.832036
29.501918 17.114842 35.434607
10.245676 30.888129 18.099952
28.824714 17.801839 37.613982
30.505235 17.152908 37.614528
35.358183 30.782093 35.789736
37.61708 29.996304 30.929168
37.670922000000004 28.939557999999998 29.406710999999998
37.60754 30.744170999999998 29.279280999999997
35.474492 29.766014 28.925762
35.471573 30.766401 30.324358999999998
35.463413 29.122892999999998 30.419479
17.582573 18.914527 10.238921999999999
18.988675999999998 17.900261999999998 10.243386
17.375903 17.161487 10.246067
18.387217 17.116281999999998 12.435716999999999
17.017751999999998 18.045104 12.430008999999998
18.533749999999998 18.790167 12.392017999999998
30.641949999999998 23.174000999999997 10.200173
28.892457999999998 23.61148 10.237431999999998
30.093048 24.919269999999997 10.230435
29.215698 24.619666 12.383002
30.824688 24.215558 12.412151
29.641243 23.022221 12.423266
29.172207 18.77011 10.218575999999999
30.911853 18.196095 10.241408
29.558709 16.959983 10.19183
30.556932 17.287637 12.377386
28.974788 17.769621 12.433772999999999
30.169095 18.885744 12.37502
30.281578 18.922594 37.623366000000004
10.221938999999999 29.462702999999998 17.037547
10.218988999999999 29.211852999999998 18.782459
12.367574 28.908901999999998 17.868295
35.477019999999996 22.952928 29.834428
35.428081 24.416401999999998 29.037198
10.235365999999999 30.134096 24.961837
10.225102 30.598086 23.204268
10.195964 28.91808 23.645930999999997
12.386897 29.674273 23.021151
12.428327999999999 29.154398999999998 24.569299
12.425009999999999 30.821051999999998 24.226090999999997
10.705176 37.098327 28.808538
10.096535999999999 36.511849999999995 30.461074999999997
11.406811 37.808079 30.344506
12.309394999999999 35.623984 30.835797
12.819932999999999 36.118598 29.356303
11.718589999999999 34.923567 29.438532
23.869856 37.859665 36.361174
23.112153 36.686994999999996 37.521068
24.897948 36.812572 37.445467
24.043466 34.885239999999996 36.226438
24.726388999999998 35.929257 35.193864
23.035556 35.846474 35.31568
37.664654999999996 22.903832 18.170813
37.655606 24.270324 16.9895
37.634795999999994 24.659830999999997 18.73394
35.456131 24.837497 17.799996999999998
35.468473 23.647624 18.862403999999998
35.435292000000004 24.361773 30.738877
37.638310000000004 23.413891999999997 30.74411
37.605064999999996 24.975493 29.896838
37.654208999999994 23.462763 28.991039
12.366394999999999 30.249299 18.887807
12.371666 30.452140999999997 17.220997999999998
29.784882 37.853234 36.417192
29.042084 36.704965 37.56201
30.843602 36.807334 37.436063000000004
29.931718 34.907703 36.255634
30.644745999999998 35.920324 35.193013
29.026405 35.832148000000004 35.238195
29.534715 30.904108 10.217614
30.927577 29.648591 10.197894
29.182423999999997 29.118427999999998 10.190227
30.164855 28.993569 12.38262
29.895301 36.374513 10.050130999999999
28.940343 30.083116 12.438396999999998
37.731594 11.426136999999999 24.412677
36.486605999999995 10.152852 24.440081999999997
37.116327999999996 10.702782999999998 22.912861
34.992733 11.690007 23.44175
36.119737 12.896911999999999 23.420474
35.604433 12.28224 24.889364
37.646026 18.896521999999997 29.431753
37.657900999999995 17.868489 30.888779
37.615742999999995 17.119982 29.251641
35.428352000000004 17.081477 30.269916
35.487639 18.048696999999997 28.931711999999997
35.472729 18.732445 30.408113999999998
30.504794 30.585791999999998 12.358260999999999
35.066255 29.160165 36.024736000000004
18.074227999999998 23.953567999999997 12.018801999999999
12.064295 18.017724 17.892556
29.801268 35.86674 17.921135
35.793384 18.042389999999997 23.85925
12.039684 17.943255 11.952938999999999
12.079809 35.87021 18.007815
12.045504999999999 29.96635 23.897933
12.103608 29.872732 17.941367
12.084848999999998 12.034552 17.912748
29.810336 35.837361 35.856796
23.933805999999997 35.92639 12.007309
11.984805999999999 23.86049 18.043266
29.832102 23.964287 12.067920999999998
29.934872 35.817567 11.947196
35.742627999999996 29.860307 29.833018
35.855765 29.975437 35.817498
35.885011 23.873116 29.814629
18.020929 12.019571 17.897838
35.770065 23.976568 17.94796
35.768575999999996 29.941513999999998 11.991584999999999
11.999191999999999 35.898162 29.826109
17.909087 35.839065 29.80817
29.775282999999998 35.846451 29.879611
17.941537 17.973622 11.962294
29.949082 29.855117999999997 12.028746
29.866205 17.987129 12.104704
12.034766 29.928931 29.794072
23.852397 35.771175 35.822428
29.812537 12.019459 24.010787
29.817111 18.032699 35.873732000000004
35.872467 17.943621 17.928403
35.740791 12.046375999999999 23.906585999999997
35.846173 18.040407 29.940989
11.980015 17.90858 29.871147
15.100766 15.12759 15.193665999999999
32.707783 14.718397 14.905104999999999
21.121141 21.209258 21.109124
33.026986 15.050227999999999 21.148767
20.938504000000002 20.853602 15.23754
32.527577 15.082819999999998 26.861331
20.844116 15.190290999999998 33.092263
32.98741 14.744605 32.730789
21.084744 15.068114999999999 26.615544
32.742666 20.848571999999997 15.183001999999998
20.775717999999998 15.180523999999998 21.190894999999998
21.078122999999998 15.165533 14.800206
32.72732 21.036282999999997 21.127341
32.758168999999995 20.793059 27.056142
32.985808 20.809849 33.033704
14.999747999999999 32.754902 33.049683
33.013420999999994 26.954027 14.726465999999999
14.829372 33.000196 26.923101
14.741163 32.750777 20.965825
33.105228 27.122760999999997 20.921754999999997
14.866344 32.955776 14.858885999999998
33.071319 26.713624 26.83995
21.194104 20.79017 27.06636
33.129158000000004 27.089841999999997 32.803735
20.923997999999997 20.777155999999998 32.650904999999995
20.73662 26.738566 14.944569999999999
27.114157 14.814461 32.655615999999995
26.762129 15.035231999999999 20.787376
27.123841 14.900485 15.002457999999999
26.966721 21.112046999999997 14.787901
26.684289 20.972383999999998 21.166956
26.693108 20.872518 26.822820999999998
26.721125 21.019402999999997 32.739434
21.005163 32.627545 33.076064
20.79113 33.083713 26.810395999999997
26.782671 27.118032 14.785879
20.759224 32.721301999999994 21.012121999999998
26.850824 27.02552 21.138689
21.183594 32.954823 15.145605
26.890824 27.001012 26.622598
26.739221 26.779099 32.628808
20.728333 27.034112999999998 33.032134
26.712742 32.723256 15.168882
21.036717 27.103684 27.000901
27.047396999999997 32.909706 20.758594
21.112959 27.091924 20.913879
26.727068 33.034419 26.685381999999997
26.668703999999998 33.071195 32.890245
15.135836 27.129637 32.718339
26.898743 15.137647 26.566823
15.037925 14.808323999999999 33.018615
15.268128999999998 27.045493999999998 14.880436
15.142456999999999 20.74803 15.117901
15.088885 14.812742 21.153565999999998
14.955950999999999 15.276841999999998 27.084294999999997
32.619427 32.612224999999995 21.077758
15.274788999999998 21.043943 32.719803999999996
15.058795 20.864534 27.211644999999997
15.271289999999999 27.062677 20.971018
14.985997 26.744676 26.74779
32.913368 32.641348 33.127927
14.757401 21.028802 21.051529
32.996992 32.591689 14.959817999999999
32.755689000000004 32.655429 26.843969
