3_train/217_cspbbr3_MA-4-Br-2-TPC_3_0.20\217_cspbbr3_MA-4-Br-2-TPC_3_0.20.xyz
1.0
43.008448 0 0
0 43.008448 0
0 0 43.008448
Br C Cs H N O Pb S 
108 70 44 84 10 24 27 12 
Cartesian
15.554224 15.554224 12.579224
15.554224 12.579224 15.554224
12.579224 15.554224 15.554224
15.554224 15.554224 18.529224
15.554224 12.579224 21.504224
12.579224 15.554224 21.504224
15.554224 15.554224 24.479224
15.554224 12.579224 27.454224
12.579224 15.554224 27.454224
15.554224 15.554224 30.429224
15.554224 21.504224 12.579224
15.554224 18.529224 15.554224
12.579224 21.504224 15.554224
15.554224 21.504224 18.529224
15.554224 18.529224 21.504224
12.579224 21.504224 21.504224
15.554224 21.504224 24.479224
15.554224 18.529224 27.454224
12.579224 21.504224 27.454224
15.554224 21.504224 30.429224
15.554224 24.479224 15.554224
15.554224 27.454224 18.529224
15.554224 24.479224 21.504224
15.554224 27.454224 24.479224
15.554224 24.479224 27.454224
12.579224 27.454224 27.454224
15.554224 27.454224 30.429224
15.554224 30.429224 21.504224
15.554224 30.429224 27.454224
21.504224 15.554224 12.579224
18.529224 15.554224 15.554224
21.504224 15.554224 18.529224
21.504224 12.579224 21.504224
18.529224 15.554224 21.504224
21.504224 15.554224 24.479224
18.529224 15.554224 27.454224
21.504224 21.504224 12.579224
21.504224 18.529224 15.554224
18.529224 21.504224 15.554224
21.504224 21.504224 18.529224
21.504224 18.529224 21.504224
18.529224 21.504224 21.504224
21.504224 21.504224 24.479224
21.504224 18.529224 27.454224
18.529224 21.504224 27.454224
21.504224 21.504224 30.429224
21.504224 24.479224 15.554224
18.529224 27.454224 15.554224
21.504224 27.454224 18.529224
21.504224 24.479224 21.504224
18.529224 27.454224 21.504224
21.504224 27.454224 24.479224
21.504224 24.479224 27.454224
18.529224 27.454224 27.454224
21.504224 27.454224 30.429224
21.504224 30.429224 21.504224
21.504224 30.429224 27.454224
27.454224 15.554224 12.579224
27.454224 12.579224 15.554224
24.479224 15.554224 15.554224
27.454224 15.554224 18.529224
27.454224 12.579224 21.504224
24.479224 15.554224 21.504224
27.454224 15.554224 24.479224
27.454224 12.579224 27.454224
24.479224 15.554224 27.454224
27.454224 15.554224 30.429224
27.454224 21.504224 12.579224
27.454224 18.529224 15.554224
24.479224 21.504224 15.554224
27.454224 21.504224 18.529224
27.454224 18.529224 21.504224
24.479224 21.504224 21.504224
27.454224 21.504224 24.479224
27.454224 18.529224 27.454224
24.479224 21.504224 27.454224
27.454224 27.454224 12.579224
27.454224 24.479224 15.554224
24.479224 27.454224 15.554224
27.454224 27.454224 18.529224
27.454224 24.479224 21.504224
24.479224 27.454224 21.504224
27.454224 27.454224 24.479224
27.454224 24.479224 27.454224
24.479224 27.454224 27.454224
27.454224 27.454224 30.429224
27.454224 30.429224 15.554224
27.454224 30.429224 21.504224
27.454224 30.429224 27.454224
30.429224 15.554224 15.554224
30.429224 15.554224 27.454224
30.429224 21.504224 21.504224
30.429224 21.504224 27.454224
30.429224 27.454224 15.554224
30.429224 27.454224 21.504224
30.429224 27.454224 27.454224
25.503034 21.553602 35.508448
21.537005 13.602685 35.508448
22.237990999999997 29.26286 7.5
17.102747 26.266093 7.5
7.5 28.385717 19.789027
7.5 25.669805 14.763383000000001
35.508448 20.795759 13.735527
35.508448 14.914543 19.66021
19.642129 7.5 28.039188
20.664447 7.5 17.316142
23.432050999999998 35.508448 15.249161
13.646213 35.508448 15.143039
26.735861 21.521598 34.076764
26.350255 21.526788 32.716546
27.454224 21.504224 31.882082
28.104572 21.493936 34.258629
27.454224 21.504224 30.429224
21.517097 14.835766 34.076764
21.52814 14.450283 32.716546
21.504224 15.554224 31.882082
21.487133 16.204428999999998 34.258629
21.504224 15.554224 30.429224
21.775111 28.119783 8.931684
21.924311 28.475392 10.291902
21.504224 27.454224 11.126366
21.253996 26.853852999999997 8.749819
21.504224 27.454224 12.579224
16.123832999999998 27.016167 8.931684
16.426989 26.777809 10.291902
15.554224 27.454224 11.126366
15.041966 27.855037 8.749819
15.554224 27.454224 12.579224
8.931684 27.796452 20.872379000000002
10.291902 27.976470000000003 20.531334
11.126366 27.454224 21.504224
8.749819 27.149244 22.078720999999998
12.579224 27.454224 21.504224
8.931684 26.796953 15.263807
10.291902 26.44256 15.111737999999999
11.126366 27.454224 15.554224
8.749819 28.051343 15.812115
12.579224 27.454224 15.554224
34.076764 21.244148 14.884367000000001
32.716546 21.108435 14.523395
31.882082 21.504224 15.554224
34.258629 21.734557 16.162505
30.429224 21.504224 15.554224
34.076764 15.319482 20.825075
32.716546 15.197417 20.459262
31.882082 15.554224 21.504224
34.258629 15.761556 22.120724
30.429224 15.554224 21.504224
20.818441 8.931684 27.668815
20.449184 10.291902 27.780027
21.504224 11.126366 27.454224
22.126576 8.749819 27.265182
21.504224 12.579224 27.454224
21.194328000000002 8.931684 16.202539
21.024293 10.291902 16.54867
21.504224 11.126366 15.554224
21.78963 8.749819 14.969756
21.504224 12.579224 15.554224
22.21384 34.076764 15.441118
22.593999999999998 32.716546 15.376337
21.504224 31.882082 15.554224
20.862781 34.258629 15.661972
21.504224 30.429224 15.554224
14.851608 34.076764 15.40363
14.473686 32.716546 15.326858999999999
15.554224 31.882082 15.554224
16.191328 34.258629 15.685213000000001
15.554224 30.429224 15.554224
18.529224 11.103563000000001 18.529224
18.529224 11.103563000000001 24.479224
24.479224 31.472674 11.535774
24.479224 24.479224 31.904885
11.103563000000001 24.479224 24.479224
11.535774 11.535774 18.529224
11.535774 31.472674 24.479224
11.535774 24.479224 11.535774
18.529224 24.479224 11.103563000000001
11.103563000000001 18.529224 18.529224
12.579224 18.529224 12.579224
12.579224 18.529224 24.479224
12.579224 18.529224 30.429224
12.579224 24.479224 18.529224
12.579224 24.479224 30.429224
12.579224 30.429224 18.529224
18.529224 12.579224 12.579224
18.529224 12.579224 30.429224
18.529224 18.529224 12.579224
18.529224 18.529224 18.529224
18.529224 18.529224 24.479224
18.529224 18.529224 30.429224
18.529224 24.479224 18.529224
18.529224 24.479224 24.479224
18.529224 24.479224 30.429224
18.529224 30.429224 12.579224
18.529224 30.429224 18.529224
18.529224 30.429224 24.479224
18.529224 30.429224 30.429224
24.479224 12.579224 18.529224
24.479224 12.579224 24.479224
24.479224 12.579224 30.429224
24.479224 18.529224 12.579224
24.479224 18.529224 18.529224
24.479224 18.529224 24.479224
24.479224 18.529224 30.429224
24.479224 24.479224 12.579224
24.479224 24.479224 18.529224
24.479224 24.479224 24.479224
24.479224 30.429224 18.529224
24.479224 30.429224 24.479224
24.479224 30.429224 30.429224
30.429224 12.579224 18.529224
30.429224 12.579224 24.479224
30.429224 18.529224 12.579224
30.429224 18.529224 18.529224
30.429224 18.529224 24.479224
30.429224 18.529224 30.429224
30.429224 24.479224 12.579224
30.429224 24.479224 18.529224
30.429224 24.479224 24.479224
30.429224 24.479224 30.429224
30.429224 30.429224 18.529224
30.429224 30.429224 24.479224
28.650649 21.482738 35.198685999999995
25.321762 21.54778 32.360323
21.475339 16.750494 35.198685999999995
21.550452 13.421818 32.360323
21.046234 26.348719 7.809762
22.315704999999998 29.426733 10.648125
14.610230999999999 28.189597 7.809762
17.240067 26.147615 10.648125
7.809762 26.890883 22.559943
10.648125 28.462985 19.624944
7.809762 28.551747000000002 16.031024000000002
10.648125 25.500049999999998 14.699533
35.198685999999995 21.930367999999998 16.672391
32.360323 20.739733 13.563032
35.198685999999995 15.938085000000001 22.637601999999998
32.360323 14.865033 19.485732
22.64844 7.809762 27.103989000000002
19.466266 10.648125 28.083526
22.026995 7.809762 14.477838
20.577147 10.648125 17.475115
20.323718 35.198685999999995 15.749928
23.609266 32.360323 15.210582
16.725808 35.198685999999995 15.797715
13.467017 32.360323 15.115068
19.41046 10.769642000000001 17.978272
18.565745 10.769642000000001 19.567873
17.611468000000002 10.769642000000001 18.041528
17.717072 12.953966000000001 19.036984
18.495566 12.953966000000001 17.572
19.375033000000002 12.953966000000001 18.978688
19.042601 10.769642000000001 25.382866
17.489959 10.769642000000001 24.472001000000002
19.055112 10.769642000000001 23.582805
18.056093 12.953966000000001 23.646423000000002
19.487016 12.953966000000001 24.485881
18.044562 12.953966000000001 25.305367999999998
23.482605 31.917208 11.508073
25.232791000000002 32.214884999999995 11.80575
24.722276 30.994281 10.585146
25.397713 29.972163 12.652129
23.784733 29.697823 12.377787999999999
24.255226 30.822738 13.502703
24.93911 23.547221 32.238806
25.05642 25.343498 32.238806
23.442142999999998 24.546953 32.238806
24.055391 25.338162999999998 30.054482
23.947278 23.682703999999998 30.054482
25.435004 24.416805 30.054482
10.769642000000001 24.878183 25.438889
10.769642000000001 25.110837999999998 23.653883
10.769642000000001 23.44865 24.344901
12.953966000000001 24.111541 23.594792
12.953966000000001 23.897125 25.239863
12.953966000000001 25.429005999999998 24.603016999999998
11.454761999999999 11.144549999999999 19.545103
10.600007 11.999305 18.21125
11.844199 10.755113 17.831319999999998
12.70126 12.987153 17.592985
13.489007 12.199407 18.822271
12.342353 13.346061 19.172416
11.909064 32.318200000000004 25.060059
11.35064 31.759775 23.442437
10.639265 31.048401 24.935176000000002
12.282573 29.602608 23.943924
12.797221 30.117255 25.434732
13.452826 30.772861 24.059016
11.921668 23.925756 10.677644
10.649722 23.994152 11.949591
11.327579 25.517764 11.271733000000001
12.270957 24.989304 13.417456
13.44319 24.926268 12.245223
12.818473000000001 23.5221 12.869941
17.64604 23.9314 10.769642000000001
18.496386 25.517996 10.769642000000001
19.445246 23.988277 10.769642000000001
19.343170999999998 24.984102 12.953966000000001
18.559487 23.521887 12.953966000000001
17.685014 24.931684 12.953966000000001
10.769642000000001 19.491926 18.920797
10.769642000000001 18.386985 17.499713
10.769642000000001 17.708761 19.167162
12.953966000000001 17.641992000000002 18.168349
12.953966000000001 18.660313000000002 19.478027
12.953966000000001 19.285367 17.941297
18.529224 12.579224 18.529224
18.529224 12.579224 24.479224
24.479224 30.429224 12.579224
24.479224 24.479224 30.429224
12.579224 24.479224 24.479224
12.579224 12.579224 18.529224
12.579224 30.429224 24.479224
12.579224 24.479224 12.579224
18.529224 24.479224 12.579224
12.579224 18.529224 18.529224
26.396111 21.542032000000003 29.715666
28.505244 21.468628 29.70558
21.51098 14.495457 29.715666
21.495556 16.605811 29.70558
21.892025999999998 28.439436 13.292782
21.117225 26.476398 13.302868
16.400909 26.81849 13.292782
14.714446 28.08722 13.302868
13.292782 27.969188 20.579105
13.302868 26.944457 22.424032999999998
13.292782 26.490762 15.115162999999999
13.302868 28.411976 15.988531
29.715666 21.109652999999998 14.571703
29.70558 21.894307 16.530822999999998
29.715666 15.196821 20.507581000000002
29.70558 15.907365 22.494781
20.497465 13.292782 27.782049
22.504774 13.302868 27.130480000000002
21.058654 13.292782 16.514693
21.948553 13.302868 14.601081
22.551667 29.715666 15.399639
20.464158 29.70558 15.709699
14.521576 29.715666 15.320402999999999
16.580313 29.70558 15.784552
15.554224 15.554224 15.554224
15.554224 15.554224 21.504224
15.554224 15.554224 27.454224
15.554224 21.504224 15.554224
15.554224 21.504224 21.504224
15.554224 21.504224 27.454224
15.554224 27.454224 15.554224
15.554224 27.454224 21.504224
15.554224 27.454224 27.454224
21.504224 15.554224 15.554224
21.504224 15.554224 21.504224
21.504224 15.554224 27.454224
21.504224 21.504224 15.554224
21.504224 21.504224 21.504224
21.504224 21.504224 27.454224
21.504224 27.454224 15.554224
21.504224 27.454224 21.504224
21.504224 27.454224 27.454224
27.454224 15.554224 15.554224
27.454224 15.554224 21.504224
27.454224 15.554224 27.454224
27.454224 21.504224 15.554224
27.454224 21.504224 21.504224
27.454224 21.504224 27.454224
27.454224 27.454224 15.554224
27.454224 27.454224 21.504224
27.454224 27.454224 27.454224
28.935783 21.475945 32.769436999999996
21.470126 17.035661 32.769436999999996
20.938617999999998 26.084585999999998 10.239011
14.384206 28.363550999999998 10.239011
10.239011 26.755138 22.810783
10.239011 28.812671 16.146200999999998
32.769436999999996 22.033500999999998 16.938306
32.769436999999996 16.031161 22.907202
22.920671000000002 10.239011 27.018912
22.150091 10.239011 14.220555000000001
20.042075 32.769436999999996 15.794924
17.00471 32.769436999999996 15.857387
