1_train/45_cspbbr3_methylammonium_3_0.60\45_cspbbr3_methylammonium_3_0.60.xyz
1.0
41.929468 0 0
0 41.929468 0
0 0 41.929468
Br C Cs H N Pb 
108 28 26 168 28 27 
Cartesian
12.224319 20.940063 20.932796999999997
24.119363 14.797718 21.03677
27.04123 12.188899999999999 20.896967999999998
26.677488 14.928351 17.91003
11.909227 14.893526 20.889706999999998
23.793606 14.824508999999999 14.937107999999998
26.843757 12.186395 15.175386999999999
26.769056 15.070732 11.806759
29.924257 26.979502999999998 26.717974
26.977135 29.66687 21.0051
20.840982 29.803008 27.109976
21.144371 29.993948 20.99742
20.805913999999998 29.877465 15.124111
21.142883 26.735684 29.802566
18.021853999999998 26.759057 26.766704999999998
20.818966999999997 24.083065 26.724735
21.062724 27.078031 23.80342
26.831481 29.773554999999998 27.041878999999998
18.122407 26.751991 21.159603999999998
20.931732 24.010453000000002 21.222176
21.108340000000002 27.028704 17.924391999999997
14.935475 14.815473999999998 23.755519
30.017615 14.932057 15.125038
14.844874999999998 11.944483 21.018669999999997
26.759175 14.921951 24.026089
23.888385 15.28882 26.996776
18.058211 26.681558 14.922433999999999
26.784637 24.045847 27.041895
23.919618 26.908164 21.173824
26.696642999999998 23.740461999999997 21.004496999999997
26.869006 27.150687 17.886806999999997
14.874891 15.087029 12.205055
24.017557999999998 26.771770999999998 27.008204
23.940295 27.102501 14.87633
26.795308 23.935606 14.848348
26.872995 26.730569999999997 11.92939
14.802440999999998 12.058292999999999 14.869409
27.099456999999997 26.788839 30.035519999999998
26.872871999999997 21.066861999999997 29.680909
23.938073 21.104774 26.768432
26.975502 17.81654 27.027783
27.004701 20.975509 23.765007999999998
12.077112999999999 15.17652 15.109874
26.786331 29.756974 15.166436999999998
24.008939 21.09627 20.705415
27.091873 18.086122999999997 20.762531999999997
27.077245 21.017816 17.887195
24.126507999999998 20.991381 14.908355
26.801404 18.153597 14.859494
27.042179 20.723673 12.146505999999999
15.116613999999998 14.789964 18.094179999999998
26.80831 14.866322 29.861933
26.759707 11.930081999999999 26.974915999999997
14.867739 17.904581999999998 21.044583
20.780237 24.066641 14.949116
14.986555 11.798580999999999 27.055747
20.774432 14.892292 11.940966
14.815385 18.017053999999998 15.235291
29.837975999999998 21.188447 21.109755
14.885563 29.894837 27.177569000000002
15.179981999999999 30.031941 20.81023
15.135411999999999 29.978372 15.162426
15.200066 26.703117 29.823929
12.146206999999999 27.125035 26.799981
15.156607999999999 23.870026 27.024817
14.85799 26.974217 23.750912
12.248726999999999 20.94476 15.182065999999999
21.053433000000002 11.907522 15.14931
29.982366 20.687105 26.974315
15.243756999999999 23.933496 21.127250999999998
15.167873 26.749891 17.933287
30.008495 26.862433999999997 14.781697999999999
11.860401999999999 26.814933 15.174743
15.169785999999998 24.113707 14.946411
14.835775 26.946946999999998 12.155847999999999
14.999234999999999 21.131563 29.706188
12.112343999999998 21.197926 26.866882999999998
14.998455 17.877263 26.768334999999997
14.883223 20.819160999999998 23.811465000000002
14.796066 21.01819 17.793243
12.061959 26.804933000000002 21.139044
21.117953 26.811665 12.187956999999999
18.083975 15.178973 15.008401
14.892071999999999 20.759673 11.864887999999999
21.027561 20.811876 30.048122
17.817836 21.021198000000002 26.883225999999997
20.842861 17.88935 26.810908
20.981696 21.10527 23.814601
12.166322999999998 15.198559 26.941508
17.853248999999998 20.951693 20.816197
21.026306 17.839257 20.856232
20.830727999999997 21.094951 17.897546
15.119558 14.853047 29.766248
30.025513999999998 15.143483999999999 20.987058
17.844067 21.087922 15.127215999999999
29.888512 20.818745 14.881397999999999
21.058888 18.130495 14.865552
21.155449 21.104491999999997 11.912491
29.821142 26.687076 20.807754999999997
20.918476000000002 14.830521999999998 29.668564
29.942287999999998 14.838481999999999 26.854212999999998
18.131719 15.166782 26.786935
20.861981 11.978390999999998 27.110713999999998
21.137261 14.974141999999999 24.176525
18.194411 14.987621999999998 20.819284
20.698069 11.966539999999998 20.983670999999998
21.085292 15.254565 18.022469
26.711229999999997 26.855777999999997 24.088068
10.955776 31.004071 18.012929
31.444717 17.969172 23.960082
30.960556999999998 31.005432 23.97742
17.923851 30.971462 11.002778
10.946437 23.999536 11.072417999999999
18.034602 10.596528 23.883422999999997
31.340017 24.020599999999998 17.924101999999998
10.975932 17.983066 31.019849999999998
30.967965 18.015155 30.860817
18.043789 23.893421999999997 31.305492
23.96718 30.837111999999998 30.925043
10.943935999999999 10.923098999999999 18.012938
23.93881 11.052603 30.860896999999998
17.929388 30.979383 30.855767
18.055293 17.937015 31.373699
18.026606 31.310406999999998 17.949297
10.898945 30.951185 23.966089
31.282743 23.979927 23.990547
30.858983 30.897076 18.035795
17.953352 24.036323 10.529112
30.926700999999998 18.081961 10.993008999999999
23.915333999999998 17.91373 31.333692
23.879772 23.982632 31.356959
30.897178 24.011764 31.00227
10.477478 23.93088 18.05489
24.010457 10.571857999999999 23.887641
23.872685 18.03105 10.501130999999999
31.430602999999998 18.013615 17.944059
30.188543 11.853342 23.64663
24.318281 29.848281999999998 18.216945
29.605372 12.308931 17.959769
29.691765 23.826986 12.4178
24.084751 30.334933 23.738511
23.605321 29.808176 11.733329
24.292938 23.564956 17.799041
24.162927 24.366432 24.260037
11.746288999999999 18.482397 11.886956999999999
11.730868999999998 18.332155 18.214515
11.65355 18.065428999999998 23.660172999999997
11.842241999999999 23.65992 23.623319
18.403802 11.820305999999999 12.02158
18.307745999999998 12.28632 18.011803999999998
17.61527 12.226785 29.582248
17.928190999999998 17.605525999999998 12.300272
11.668657 12.02755 23.807762999999998
17.97879 17.68341 23.659327
18.472334999999998 18.265018 17.821694
24.030254 17.843142999999998 23.553392
23.634367 17.632548999999997 18.198907
23.577873999999998 23.689499 11.901311
17.775239 29.935439 23.481244
18.009793 24.026132 24.476283
17.631832 23.613176 17.903106
23.94961 11.641893999999999 12.443285999999999
23.031462 29.793191 29.432762999999998
31.69348 19.051466 18.041528
31.715555 17.420973 18.880133999999998
31.682316 17.459585 17.058218
24.12631 28.966575 30.328022
24.958941999999997 30.969547 31.412523999999998
24.624433999999997 30.091969 29.202752
29.496924 17.058875 17.961393
17.383857 30.540264 10.19431
23.175411 30.670226 31.630844
19.000888999999997 31.11006 10.658133
24.931600999999997 17.685637 31.734164
29.517743 18.455581 17.137954
29.509629 18.424827 18.794375
24.179517 17.032103 29.506999
18.525558999999998 30.140598 12.843907999999999
17.064512 29.721991 12.382461
23.028675 18.310768 29.481206999999998
24.654301 18.632988 29.545649
23.721380999999997 18.997487 31.657871999999998
17.589343 31.816081 11.408724999999999
18.396151999999997 28.973309999999998 11.707462
23.152359999999998 17.261763 31.685691
23.681915999999998 31.876323 30.452816
29.016196 17.615837 30.215567999999998
11.033588 31.414032 22.959365000000002
11.667656 24.086447 12.985406999999999
12.740419999999999 24.722779 11.921536999999999
12.585256999999999 23.026477 12.062311
18.969153 24.224221 10.258178999999998
17.757877 22.909778 10.233201
17.218311999999997 24.643275 10.219043
17.057176 23.64731 12.397205
18.257531 24.857443 12.389825
18.686463 23.287021999999997 12.388107
30.527873 31.808819 17.467686999999998
31.167261 31.164652 19.028185
31.841296 30.495599 17.505012
30.168278 29.055479 18.482082
29.669382 29.563627 17.045023999999998
29.05891 30.212991 18.415430999999998
24.679011999999997 10.218841999999999 24.663549999999997
22.919379 10.224243999999999 24.225002
24.138533 10.212931 22.938748
23.216465 12.437353 23.303963
10.441257 24.893367 11.059959999999998
10.279115 23.096180999999998 11.202917
11.480566 23.774983 10.014904
29.481405 17.201906 23.375322
10.069337999999998 30.436464 24.053327999999997
11.900082 29.247463 23.188875
12.066448 29.349344 24.849841
12.942276999999999 30.292647 23.796525
18.15627 31.932665 30.43993
17.056492 30.871105 31.447438
18.824886 30.746463 31.597970999999998
17.884639999999997 28.938038 30.262909
18.852498 29.892538 29.389219
11.196743 31.64422 24.742808
17.202993 30.026087999999998 29.221782
31.882444 18.414659 30.478371
30.596546999999997 18.620372 31.730919
29.719912 18.964217 29.573475
30.168575 17.403609 29.049068
31.670023 17.0467 24.365609
31.712834 18.092074999999998 22.8859
31.693158 18.876208 24.498056000000002
29.510412 18.829345999999997 23.486813
29.479499999999998 17.95127 24.896680999999997
31.068583 16.977131999999997 31.289359
24.821316999999997 18.447675 12.39669
12.182552999999999 29.459834999999998 17.063139
23.860457 17.038767999999997 12.392411999999998
11.420565 18.380219 31.830114
10.14853 18.648112 30.608985999999998
10.651532999999999 16.943329 31.020908
11.691771 17.635210999999998 28.975378
12.797142999999998 17.403140999999998 30.126449
12.382166999999999 18.942919999999997 29.757362
18.729376 10.208959 24.715282
16.970883999999998 10.199295 24.152331999999998
18.278032 10.242821999999999 22.983335999999998
24.878286 12.437971999999998 23.679379
17.365199 12.432101 23.246001
17.716048 12.379919999999998 24.834526
31.723549 23.861034 19.042574
31.736257 23.083957 17.406966999999998
31.679099 24.90507 17.578186
29.504172 24.072472 17.018681
29.512715 24.737337999999998 18.522701
29.512321999999998 23.048785 18.356511
17.089384 24.526791999999997 31.696989
17.92158 22.896874 31.723822
18.916316 12.413388999999999 23.687562
18.94249 24.447461999999998 31.697194
12.918664999999999 30.275306 18.284938999999998
10.920043 31.304545 19.027292
31.461944 24.903575 30.930194999999998
30.420627 23.799158 31.866087999999998
31.603279 23.156153999999997 30.712039
29.357193 23.069339 29.862806
30.322384 24.116213 28.96508
29.165981 24.680422 30.065974
10.257892 23.057551999999998 18.576291
10.239025 24.869123 18.450536
10.207493 23.892359 16.980701
11.795129999999999 29.154885 18.615319
12.390284 24.73723 17.501911
12.402455999999999 23.938539 18.923815
22.955254999999998 24.356999 31.666322
24.093805 22.92171 31.680523
24.748703 24.542430999999997 31.71673
24.808289 23.580096 29.539804
23.836040999999998 24.889433 29.475361
23.202051 23.382713 29.487917
11.276275 31.705569 17.262401999999998
10.094659 30.447059 17.695997
12.456218 23.083464 17.533224999999998
18.779404 23.401982 29.539780999999998
18.030981 24.869344 29.498765
17.167133 23.480589 29.491362
31.667303999999998 24.697658999999998 24.630169
31.722074 22.949423999999997 24.232128
29.516555 23.695201 24.873352999999998
29.494501 23.248805 23.317397
29.495423 24.833856 23.664592
30.652737 31.676983 24.716556
31.853222 30.478447 24.19147
30.980825 31.398111999999998 22.926190000000002
30.065469 29.140518999999998 23.241809
31.684268 24.186235999999997 22.951334999999997
28.946516 30.275074 23.675216
18.649655 31.683417 17.143741
16.934193999999998 31.705354 17.851323
18.372257 31.708546 18.987513
17.374572999999998 29.546139 18.750922
18.966544 29.520329 18.151985999999997
17.629967 29.486461 17.119619
24.020917999999998 18.989285 10.234850999999999
24.838683 17.419097 10.238897
22.998236 17.524357 10.196114999999999
29.838966 29.412437999999998 24.864470999999998
23.828993999999998 12.949596999999999 30.310143
24.814747 12.059662 29.413363999999998
23.171017 11.91683 29.2001
10.041523999999999 11.508301999999999 17.934371
11.150407 10.372731 17.150872
11.099705 10.463225999999999 18.962887
13.008016999999999 11.609319 18.045223
11.946021 12.717217999999999 18.800713
12.038113999999998 12.570834 17.147174
17.721715 16.948611999999997 31.696422
19.014517 18.304695 31.675262999999998
17.239058999999997 18.736796 31.72091
18.199244 18.949237999999998 29.489501
17.059911999999997 17.733618 29.501058999999998
18.726384 17.345872 29.491674
31.856513 18.292706 11.446340999999999
31.015767 16.994477 10.611828
30.588402 18.656727999999998 10.239970999999999
29.006306 17.698425999999998 11.644278
29.771686 18.955748 12.451891
30.157221 17.399399 12.795834999999999
24.762876 11.252727 31.64797
22.994913 11.056826999999998 31.414351
24.111866 10.003197 30.430028
23.152275 18.538802 12.396946
23.704089999999997 12.441452 24.858065999999997
29.969708 29.845807 18.039731
29.842990999999998 17.956003 23.895017
12.089334 23.983341999999997 18.019268
23.983974999999997 12.008037999999999 23.888561
18.024127 23.884445 29.824866
24.029092 18.03463 12.062209999999999
29.940231999999998 17.937576 29.865571
12.040393 12.066035999999999 18.072094
23.878455 12.092680999999999 29.958402
23.982601 17.919878999999998 29.910412
18.052297 29.970167 29.883115999999998
29.797667 23.942614 29.914402
18.058332 17.935454 29.922963
12.105473 29.952244 23.965937999999998
23.979104 29.915653 29.796174999999998
29.798519 23.91647 23.898849
29.868195 18.011143999999998 17.901758
29.907237 23.872189 17.916781999999998
17.970209 24.000604 12.099819
12.025023 18.023085 29.807104
29.83669 29.957485 23.885423999999997
29.950702 18.008284 11.963484
12.076077999999999 23.972922 11.969833
12.019644 29.943631 18.047884999999997
18.039089 12.087933 23.904166999999998
17.983121999999998 29.887301 11.95629
23.988508999999997 23.980442 29.934753999999998
18.036934 29.935768 18.056633
15.031583 14.756884999999999 15.270246
15.178524999999999 27.159164 20.910259999999997
15.215995 27.050495 26.821403
20.814010999999997 15.030361 15.188139
21.142638 15.201884 21.082717
21.188567 14.841058 26.862802
21.135354 20.877683 14.89463
26.772992 26.871774 26.722283
20.899134999999998 20.74056 26.881488
20.84439 27.115241 14.810317999999999
21.176233999999997 26.681293 21.102974999999997
20.694177 26.785551 27.007757
27.16408 14.750146999999998 15.007081
26.645646 15.084793 20.890991
26.607654999999998 15.045645 26.894841
26.698648 20.939665 15.157627999999999
27.097845 21.116943 21.236731
27.011784 20.778026999999998 26.677287
26.815434 26.752246 14.804958
27.106377 26.970011 20.795938
15.154052 27.164939 15.078616
15.001368 20.955121000000002 27.149576999999997
20.727394999999998 20.957624999999997 20.879928
14.968637 20.740913 15.191438
15.199361 14.877426999999999 21.073365
14.857199 21.132101 20.812578
14.947747 15.028884 26.583174
