119_cspbbr3_methylammonium_5_0.40\119_cspbbr3_methylammonium_5_0.40.xyz
1.0
53.78378 0 0
0 53.78378 0
0 0 53.78378
Br C Cs H N Pb 
450 55 145 330 55 125 
Cartesian
38.936685 41.608058 32.796836
30.000115 20.824647000000002 26.785014999999998
33.063861 18.041794 27.061925
32.889526000000004 20.741359 24.020152
41.712635000000006 38.91100300000001 27.057011
38.770646 41.621347 38.60315800000001
29.913475000000002 20.801626000000002 20.816652
33.053512999999995 17.957213 20.903268999999998
26.835666 32.988958 29.64378
32.996749 21.078163999999997 17.77253
29.858344 20.916798 14.799923
32.734297999999995 20.888433000000003 30.042717
32.736158 18.158012 15.189801
41.90513 14.862617 20.862745999999998
32.702677 20.734147 11.885956
26.733484999999998 29.772876 32.965664000000004
32.934921 14.916318 41.903833000000006
41.884069 14.932963 27.139221000000003
29.892075 14.904805 38.998262
41.828903 38.872997 21.112439
32.912847 11.815533 38.649359000000004
41.700411 15.177517 15.203403
24.073496000000002 33.005031 26.732965
23.918544 38.972993 15.098688
29.750766 20.835984 33.007639
30.047686 26.804922 26.759297
32.916501 24.013136 26.701046
32.839818 27.07399 23.788721
38.969232000000005 38.863808000000006 35.995519
38.671392999999995 35.625984 38.601166000000006
29.958672 27.070589000000002 21.012549
32.871166 23.76144 21.13003
23.984398000000002 33.060274 20.852272
32.804702 27.123856 17.964509
35.780607 38.806577000000004 39.077766
38.976597 38.896962 41.932058999999995
41.97121800000001 38.927634999999995 38.664748
29.787549 27.005482 15.115353
32.980708 23.909461 15.145524
32.835077 26.908464 12.224489
26.703252000000003 32.803998 24.065305
38.99835900000001 41.854282 14.952011
33.04972 20.880147 41.643015000000005
30.045131 20.949678000000002 38.91112700000001
32.626379 17.952799 38.590278
38.78590200000001 41.963111999999995 20.946479999999998
26.729105 29.884272 27.04494
32.90007 21.140417 35.679468
41.66256800000001 38.782956 33.086428999999995
38.642813000000004 41.622107 26.731412000000002
33.016447 15.072764 35.963660000000004
32.781375 17.957448 32.649665999999996
41.69041800000001 15.134633000000001 38.683953
29.644593 15.147577 32.909873000000005
23.691827 38.836363000000006 38.702783
41.620025999999996 26.777052 26.700605
27.173503 35.767441000000005 38.835792
26.985335 38.878440999999995 35.965187
41.966852 26.874343 32.930606
23.701363 38.850384000000005 32.740669
26.940046 32.936746 41.985173
41.826637000000005 32.997327 38.653964
26.867966 35.98807000000001 32.922465
26.679198 38.659514 29.747642
26.896735 38.911263000000005 12.244532
41.914421000000004 26.727246 38.844126
24.103350000000002 38.700182999999996 26.877951
27.016651 35.974509 26.966601
41.556989 32.939795000000004 14.985077
26.929629000000002 39.003547999999995 23.878578
41.954198000000005 32.881558999999996 20.816301
23.901462 39.01638700000001 21.020754
26.907832000000003 35.675178 20.805327000000002
41.89639100000001 32.908889 26.687279
26.889155 38.968354000000005 18.078798
41.88351 32.69205 32.69518
27.078512 35.794048000000004 14.916076
27.11724 38.68017400000001 41.853874000000005
26.874281 41.859009 15.167778
26.6953 41.965666999999996 20.898056
41.931195 26.926922 21.050427000000003
32.63845 11.918261 32.669832
32.680078 14.929171 29.779208
41.932100000000005 20.769875000000003 14.867091
23.751863 32.929826 32.977466
30.099693 15.041004000000001 26.928174000000002
32.699358000000004 12.026278 27.114658000000002
32.73397 14.758223000000001 23.765814000000002
41.829660000000004 20.843425 21.088746
41.640332 21.119466 26.856961000000002
30.047988 15.092868 21.148374999999998
32.599682 15.136569 17.98181
41.816187 15.123348 32.600674
41.660718 20.779132 32.797095
41.644327000000004 20.833957 38.877746
30.071406 15.037208 15.182415
32.633171000000004 11.927299 14.957207
32.961255 15.039222 11.870256
41.746809 26.970144 15.192775000000001
27.068763 29.850577 38.684405999999996
26.750412999999998 41.918105 38.73470400000001
26.826448000000003 41.541994 32.802279
27.04228 41.964117 26.821171
41.820713 38.73199100000001 14.813948
24.116595999999998 32.992975 38.757515
26.82514 32.828403 36.09800200000001
33.016322 12.139228 21.117903000000002
38.853612999999996 38.903267 29.628188
32.803506 23.768828000000003 32.616786000000005
38.592079 18.119595 21.089589
38.941311 21.054309999999997 17.846113
35.883516 32.658977 20.962126
35.684551 20.962471 14.857113
38.622682999999995 17.984912 14.878432
38.66055800000001 21.077310999999998 11.865209
39.00035700000001 32.663469 23.928290999999998
38.652033 15.162836 41.615155
35.97208500000001 15.152291 38.714275
38.77981200000001 12.225929 38.94146500000001
38.765834 14.774487 35.885519
38.79664700000001 30.032763 27.029115
35.99757100000001 20.801879 20.780885
35.915020999999996 33.010453 26.899644
38.689284 12.122451 32.953469999999996
38.964983000000004 15.12411 29.866377
35.840984000000006 14.855366 27.105501
38.61802900000001 11.843805 26.93976
38.92523800000001 14.921146 23.755778
38.542626 32.955432 29.977287
38.947169 29.900786 32.675112
35.747085 15.17902 20.897963999999998
38.851832 11.769305 21.082719
38.639686999999995 14.876824 18.135234999999998
35.918919 32.759656 33.032966
35.587261999999996 15.131528 14.929446
35.950669000000005 15.02902 32.651982000000004
39.034015 11.907003 15.095742
38.841886 29.729242 21.136136
35.884890999999996 21.063881 27.047743
35.99438000000001 27.020848 32.682711999999995
38.746463000000006 23.743259 32.743922999999995
39.01074 26.923602 29.983183
38.620524 23.840934 38.881865000000005
35.66963 26.71245 38.964944
35.83879900000001 27.142162000000003 26.771601999999998
38.841448 23.66684 26.812015
38.958004 26.787226999999998 23.77367
38.58205100000001 26.833971000000002 41.58202
35.947384 26.821365 20.837717
38.81185000000001 24.069883 20.702852
38.777395999999996 27.132271 18.08146
38.803928 18.157621 26.695414
38.610995 32.712095000000005 11.890587
38.685857999999996 23.77401 15.039674999999999
38.741923 26.822217 11.791888
38.629290999999995 30.007132 14.887771
35.97941 33.011737 14.997618
38.893642 20.667796 41.77639500000001
35.99527500000001 21.005157 38.828067000000004
38.843551000000005 18.108173 38.993154000000004
38.674386999999996 20.759701 35.96603400000001
36.082662 20.904066 32.793455
38.73168100000001 18.103424 32.658696
38.79178400000001 20.805785 29.730519
38.706102 33.06746 18.016716
35.93965800000001 26.684202000000003 14.824626
32.964709 26.992571 30.076019
38.565425000000005 15.126471 12.077032
32.701713999999996 41.946529999999996 38.711866
38.787299000000004 35.60884800000001 20.910448
32.651031 32.944435999999996 35.73129
35.933734 38.672146 21.010740000000002
29.785093 33.033353000000005 32.689254000000005
32.865525000000005 29.829642 33.036966
32.814796 32.93706 30.059071
30.14914 32.760382 26.83317
32.970911 29.736124 26.913663
32.85707 32.696486 23.763831
38.919124 38.691225 23.778966999999998
38.651157999999995 36.00048700000001 27.077264
30.062192 32.649367 21.010212
32.680206 29.881466 38.977939000000006
32.84216 29.608203 21.009726
35.672797 38.93534100000001 26.955524
29.779757 32.644855 14.822462999999999
33.026619 29.997634 15.099982
33.004785 32.783778 12.139795
38.819941 26.939943 36.04288100000001
33.008423 26.739358 41.754802
29.732247 27.093193 38.704683
32.914434 23.739183999999998 38.880542000000005
32.921676000000005 26.718697000000002 35.849486
39.021986 35.766425999999996 32.765337
35.72874300000001 38.55215 32.782634
29.802669 26.854442000000002 33.077301
32.984183 32.688587 17.905587
38.850471999999996 32.85669 35.532927
29.630074 32.776373 38.63850600000001
39.00617 38.91076100000001 18.043336
32.925838999999996 41.903825 32.701836
32.990888 41.73129 26.778606
32.693336 41.640147 20.835303
38.620228999999995 29.677527 38.784386
32.826418000000004 41.596513 15.228394
32.981807 38.643102999999996 41.813362999999995
29.902907 39.010913 38.767883999999995
32.739205 35.955978 38.56288500000001
35.606965 32.658466000000004 38.756609999999995
33.024526 38.705498000000006 35.918193
39.035546 33.010913 41.75179
29.934349 38.609587000000005 33.033716
32.808859 33.024983 41.98038700000001
33.042215 35.971106000000006 32.975348
29.925045 38.998962000000006 26.739513
32.667204 35.59777 26.794874
33.003095 38.778546000000006 24.118094
38.827347 38.678889999999996 12.156597
38.927811000000005 36.010012 14.943146
29.885671 38.979721999999995 21.027316000000003
32.701227 35.665957000000006 21.094572
32.930774 38.930313 17.737306
36.041083 38.701046000000005 14.917188
30.026892 38.760306 15.205847
32.729725 35.680172999999996 15.057362
32.719993 38.686094 12.120546000000001
32.780097999999995 38.666661000000005 29.99119
26.733332 29.908701 20.836474
38.79195800000001 20.751529 23.793685999999997
14.810414999999999 21.092499999999998 41.744904000000005
12.172807 20.874132 38.69793200000001
17.850713 26.844182 15.192779
21.005617 23.711487 15.187457
21.017805 26.867712 11.833471
20.998200999999998 20.787558999999998 41.642121
17.766746 21.098239 38.90784500000001
15.028109 26.758124 11.86931
20.859018000000003 17.782492 38.61431400000001
20.881672 20.813075 35.689477
14.810605 23.763214 15.113337
17.801953 21.153510999999998 32.77293
12.052068 27.021375000000003 15.170522
20.823212 26.698968 17.818551
20.908565 18.155316 32.83948
18.096365000000002 20.749105 26.998421
21.113191 17.875064000000002 26.730999999999998
15.178621 26.797199000000003 17.929342
20.796089 20.742479 23.774629
14.911999999999999 24.070684 21.03824
12.193948 27.060286 20.772732
18.014347 21.165615 20.752165
20.752779999999998 18.114380999999998 20.893992
14.873062000000001 26.747659000000002 24.014883
20.860646 20.710787 18.02912
15.206959 23.99814 26.813944
11.940859 26.947311000000003 26.64667
20.932698 20.935438 29.620651
15.084765 18.088545 39.043859
21.060889 23.676909 20.919675
18.172129 27.075238000000002 20.833783999999998
17.740345 32.820433 26.733039
20.774204 29.854013 26.769371
20.940720000000002 33.131151 23.876092
15.158299 20.978644 23.762834
17.800547 32.915499 20.803683
21.044532 29.931957 21.124328000000002
21.129609 32.997958 18.097896000000002
15.034736 29.756833 33.031135
14.887173 17.941238 26.728691
17.881461 32.995969 15.02898
21.043513 30.060014 14.822953
21.139173 32.901424 11.992963
11.986787 20.950284 27.124001
21.035493 26.846233 41.598763000000005
14.903562 21.180564999999998 29.789109
18.013158 27.019785000000002 39.05129000000001
21.080425 24.00852 38.69991
21.025252 27.038147 35.724355
15.127259 17.837289 32.801019
18.096537 27.024689 32.882538
11.860608000000001 21.081106000000002 32.928724
20.985449 24.106350000000003 32.704073
20.899297 27.044589 29.73458
17.741188 26.768054 27.00011
20.870206 24.079508 26.825768
14.944834 20.724332 35.68825
20.827854 27.125094 23.804392
14.905381 26.788209 29.99481
12.09993 20.841993 21.092443
17.926058 20.816213 15.176448
20.809059 21.101451 12.217497
12.160759 32.742413 15.15597
15.242852 35.82871 38.901723000000004
15.089127 38.862505999999996 35.576471
11.847304 38.80957600000001 32.951496
15.109802 36.025622999999996 32.965316
15.216692 38.784323 29.8798
12.07776 38.921761000000004 26.730377
14.841411 35.775082 27.035472000000002
15.166857 32.937568 17.967424
15.238461000000001 38.840423 23.928773
15.049434 29.916448 20.776751
12.125825 38.557141 20.920311
11.780315 38.793684999999996 38.614802
15.182244 35.771606000000006 20.839468999999998
15.117274 38.575629000000006 17.929479
11.95095 38.97982400000001 14.887717
14.837325 36.049907000000005 14.97095
14.852206 38.851085 12.141315
15.117863 32.977381 41.60135700000001
14.757741 32.98699 23.856146
12.164823 32.620021 38.752493
14.832896 29.79539 26.739078
15.191754 29.860653 38.86349200000001
15.056079 32.711908 35.979496
12.121613 33.072632 27.050808999999997
12.065531 32.627138 32.965191000000004
12.165233 32.625923 20.921411000000003
15.087076 29.75473 14.843282
14.862656 39.047498000000004 41.84186
14.841667000000001 41.896401999999995 14.840754
15.07455 24.105857 32.786615
20.83587 14.804164 41.804148999999995
17.808862 14.882994 38.900411000000005
20.773357999999998 12.174137 38.736695999999995
21.000464 14.929791999999999 35.566304
17.993996 15.264516 32.882905
20.800616 12.137353000000001 32.707805
12.135799 26.729264 32.773256
20.981543 15.142405 29.697458
18.070394 14.756402 26.914713000000003
20.917338 11.854617 27.016265
21.078635000000002 14.903202 24.048931
15.062653000000001 26.963691999999998 35.980096
17.795566 14.846178 20.776019
20.791749 12.195170000000001 21.087329
20.782318999999998 14.890657000000001 18.147384
14.891822 23.770158 38.831939000000006
18.012074 14.929464 14.788481
21.015238 12.205704 15.009214
21.028782 15.032092 12.232647
12.190052 26.706326999999998 38.806329000000005
14.820835 41.902590000000004 38.988074
14.885588 41.740446000000006 32.59288
14.810046 26.817164000000002 41.914981
15.197779 41.706953999999996 26.945504
15.104042 41.765933000000004 20.712956000000002
14.993805 32.666495 12.193914
20.717290000000002 17.793764 14.989173000000001
21.162992 32.816209 29.748719
14.998747 32.626158000000004 29.680104
21.122394 30.039456 32.714462999999995
26.679009 17.907908 32.915389000000005
26.840303000000002 21.143129 29.650517
12.172892000000001 14.81712 21.125761
23.879751000000002 21.140240000000002 26.802172000000002
14.951439 14.861312 24.051230999999998
27.168799 17.914689 26.863637
26.940161 21.025232 24.153226
15.204824 12.106516000000001 26.708651
23.687282 20.817448000000002 20.977935
12.187469 15.065715 27.046082000000002
26.671528 17.830287 20.873442999999998
27.027103 21.116144000000002 17.953087
24.100157 20.930004 14.769557
27.020872999999998 18.170858 15.059784
27.118335 20.866701000000003 12.182562
26.74242 14.785392 41.697711999999996
24.040873 15.164306 38.963555
26.692325 12.15726 38.800179
15.099798 17.787259 21.062884999999998
26.980729 14.987136 35.613299999999995
23.799606 15.212104 32.950238
26.872251000000002 12.175084 33.021421000000004
26.75827 15.052487 29.649573
23.888801 14.812539000000001 26.698355
27.044956000000003 12.19888 26.982643
23.856638999999998 20.742856 32.656212
14.829235 12.239939 20.962239
26.651934 20.854571 35.845804
27.006207 17.970228 38.577456999999995
26.909158 33.073211 18.09784
23.818696 33.098394 14.931468
27.056116 29.742417 15.130308
26.865588 33.103065 11.975967
26.797734000000002 27.012291 41.984104
24.034408000000003 27.039921 38.74283
26.785177 24.091359999999998 38.909313
26.753668 27.091131999999998 35.642702
23.645878 26.805845 32.767756
26.938971 23.912724 33.051614
26.784485999999998 27.038375 30.068324
23.810904 26.739677 26.915201
26.75236 15.173169 23.816452
14.932598 15.141192 12.107735
26.73143 26.744930999999998 23.846218
23.799712 27.002514 20.762947
14.772794000000001 11.980384 15.153459
26.793231000000002 23.678859 20.958871
26.957911 26.96808 18.118446000000002
24.054817 27.037174 14.847714
11.934293 15.144960000000001 14.806927
26.835311 24.1487 14.867683
27.013769 26.752962999999998 12.21062
27.000244 21.101864000000003 41.75061000000001
15.017665000000001 15.117265 18.12193
24.081267999999998 20.770265 38.7779
26.790203 23.725078 26.729887
14.794618 12.119889 32.717549000000005
14.809235000000001 15.065433 29.656311
11.909911 14.836645 38.880092000000005
20.803751000000002 32.905324 41.652193
14.818948 12.119411 38.904262
11.970471 20.767736 14.781704
20.931445999999998 38.570426 12.058902
18.102572 38.870292000000006 21.172434
20.811905 41.940905 15.153277
21.070439 38.92967300000001 41.617969
14.907413 20.696379 12.076962
18.075108 38.768260999999995 38.52771200000001
15.146469 15.024658 41.875653
20.7963 35.724661 38.903941
20.872477999999997 35.67135400000001 14.8597
21.132898 38.880328000000006 35.623873
17.803418 39.003612000000004 32.925641999999996
17.827324 38.936813 14.968628
21.208884 38.865464 29.978346
21.183829 38.72756 17.944376
20.893947999999998 35.643241 32.638985000000005
21.104409 35.906526 26.659667000000002
17.963363 38.656182 26.628347
18.036573 33.04494 38.673395
26.773884 12.089194 21.085353
17.78932 32.915127 32.722061
21.177293000000002 35.904641 20.850933
26.712408 15.165672 18.042838
21.079643 32.62223 35.88337800000001
20.917922 38.934011 23.795977
14.874407 21.072838 18.110413
12.185393 15.066805 32.793329
20.718055 41.598321 20.916159
24.040668 15.123987 15.110107
27.046018999999998 14.820129 11.827098
21.012131 41.606106 38.73408500000001
20.882223 41.86985 32.661722999999995
15.13095 15.119026 35.630104
15.042733 17.779911 15.000872000000001
20.825074 41.825945000000004 26.695157
21.047916 29.95906 38.97831600000001
26.866274 11.744098 15.077167
23.969497 15.118731 21.143862000000002
42.758644000000004 42.745884000000004 23.90687
29.842071 10.500156 29.925226
23.93842 10.451559 17.965439
35.780798000000004 10.475822 35.799632
10.463306 23.857038 29.855958
42.903649 17.988564 11.01061
35.871684 10.939211 42.752759
35.73503600000001 10.557206 23.851753
17.886226999999998 43.248771000000005 35.873234
43.220376 35.870627 17.912011
29.816296 17.912633 10.588883
35.75386400000001 43.319726 35.857316999999995
10.900401 18.040644 42.828394
29.920573 29.872591 43.159701999999996
29.922285 29.830629000000002 10.474306
42.884665 10.917817 23.884202
23.882740000000002 10.485189 35.768789
18.028012 35.75181500000001 10.586286
43.300807000000006 17.924093 35.781803
17.988114 29.836865 43.156666
23.887083 43.33359 17.966801
43.331304 23.876526000000002 17.972153
43.163419000000005 35.82280300000001 23.918301
18.007137 17.927033 43.289265
42.885282000000004 35.791144 10.992521
23.882287 10.914907 10.918951
35.839006999999995 42.857037000000005 10.884658
11.04664 10.980787 35.885547
42.875501 23.876663 42.791217
23.855576 29.791589 43.288048
43.176002 29.939043 35.774196
29.866403000000002 10.9155 10.913935
35.721485 23.931984 10.553177
17.942784 10.921678 42.903142
18.012426 43.247536 29.793815
43.258184 29.80489 23.958245
35.882343000000006 17.888323 43.262371
10.474730000000001 35.757751999999996 17.935108
23.934836 35.843733 43.321878999999996
35.791252 23.908949 43.167292
43.274524 29.92902 18.021793
35.766194 43.202765 29.916159
35.766363 18.013426 10.515055
42.780699999999996 23.839971000000002 11.041431
23.852903 11.037147000000001 42.766428000000005
35.83785400000001 42.748311 42.735783999999995
10.998423 42.791821 29.77587
18.038805 42.871741 42.776589
10.609778 17.940906 29.860129
43.175506 29.916073 29.846836
23.964276 23.859657000000002 43.305617
23.968526 17.933669000000002 10.627793
10.941084 11.048093 23.987204000000002
23.843132 43.293304000000006 23.876136
23.878403000000002 43.180058 29.831229
42.028352 36.096536 36.069764000000006
35.857787 29.912546 24.395499
41.861514 23.890949000000003 23.419294
41.404931000000005 11.901043 29.600058
41.73262 36.078975 42.081231
12.193902 17.401978 17.828601
42.08471900000001 42.100125000000006 18.123025000000002
41.758841000000004 41.799437999999995 30.256985
12.359382 29.601887 24.249342000000002
35.946526000000006 30.295788 18.064429999999998
41.592496 41.386009 35.86645800000001
11.519775 18.249321 23.896856
41.325013999999996 12.218717 18.162468999999998
36.095409000000004 41.662670000000006 18.443125
11.63909 29.982999 17.829003
12.385546 17.547663 35.92204600000001
41.540116 35.682479 29.559592
36.230976999999996 36.212024 24.090197
11.919357 23.756839 23.600527
36.16210600000001 35.625994000000006 17.777203
12.285494 23.588856 18.005862
41.567676000000006 23.620448 29.680443
35.899049000000005 35.868661 12.437266
41.86454500000001 17.527791999999998 41.971717999999996
41.911079 23.567927 36.196426
35.722604000000004 35.609488999999996 30.206845
35.636263 29.63761 42.041866999999996
12.133911 11.753398 30.133151
41.505534 29.628119 11.877046
11.583417 23.796995 12.279036
11.604651 23.651445 36.106356000000005
41.54223 17.498077000000002 30.033999
35.50121800000001 35.518427 35.5159
12.211653 18.276839 11.667362
35.375781 29.779352 35.599098999999995
42.179486 18.145362000000002 18.237974
41.633795000000006 29.440114 41.804321
12.086698 24.299478 42.176100000000005
12.116639 29.284835 12.00414
35.433670000000006 29.735648 29.682828
12.359885 12.222657 18.144857
35.74277000000001 35.315999000000005 41.84726500000001
42.04364700000001 12.294372 35.675675999999996
36.183803999999995 41.75985800000001 24.121939
24.210784 30.218437 17.67753
36.058628999999996 23.643567 36.106352
30.225237 12.503639 41.68927600000001
30.398114 18.212335 17.950176
18.303924 41.932942 24.366387
18.448185 41.69605200000001 17.802782
30.131574 18.06896 23.563305
18.452639 36.021714 41.647101000000006
18.429081 36.017936000000006 35.781512000000006
29.580273000000002 18.253486 35.450908
17.971857 35.436358999999996 29.932461
29.997672 23.936612 12.40183
23.567031 12.128286 23.689536999999998
18.278543 36.149359000000004 23.564553999999998
18.208076000000002 35.765679000000006 17.641531999999998
29.572201 24.115782 24.195435
29.795636000000002 23.676154 29.344576
18.401047000000002 30.26444 35.73577
30.183146 24.212239999999998 35.86072300000001
17.704057 30.12235 30.188742
29.816657 23.443752 41.599526999999995
17.99446 29.391197000000002 23.998934000000002
29.890258 29.459038 18.20309
18.150518 30.189622 17.702792
29.712659 23.603262 18.098642
30.398413 29.966701 23.874575
29.794273 12.39994 35.356356000000005
29.95506 12.071742 24.33538
24.400323 29.59719 23.894752
11.68595 30.075527 35.839409
24.153619000000003 30.144163 30.226818
24.357345 23.747563 35.704389000000006
23.546537 29.508261 35.59415200000001
23.99262 23.948288 29.372423
23.792493 35.274883 11.96711
24.208932 23.660734 24.318538999999998
23.665103 35.904084 18.28453
23.997457999999998 23.686277 17.613577
23.575746 12.249948 29.882669
23.54639 35.69744300000001 23.810857000000002
24.104391 36.120996000000005 29.46492
24.268116000000003 17.834046999999998 35.37707
23.939966000000002 35.96553900000001 35.301451
24.120255 17.815076 30.22527
23.780862000000003 41.785827 12.397558
24.091198000000002 17.592068 24.349974
24.061417000000002 41.395579999999995 35.567661
23.84523 41.980858999999995 42.119146
24.34083 18.053673 17.959794000000002
30.154639 11.756174 18.270464999999998
23.570172 18.178947 41.453259
18.017134000000002 29.453739 12.085
29.381319 17.862098 29.970107
30.111249 29.702364 30.263994
17.891598000000002 18.258642 12.244508
18.254490999999998 11.751779 35.774355
36.03506 11.753239 30.095445
17.533875000000002 11.70781 29.919563
17.733375 11.866685 23.540542
17.421252 11.786926 17.929326
36.119556 17.643389 17.722338999999998
17.638857 11.911462 11.854065
12.115105 41.43798100000001 35.63837600000001
35.53652100000001 17.753422 24.082158
35.533879999999996 11.711546 18.372255
12.296635 41.525617 17.805343
11.618788 36.142679 41.910244000000006
36.090627 17.566965 35.799623
12.430919 36.221036 35.808312
17.672553 23.735322999999998 41.575793000000004
35.531942 23.505034 18.055578
12.348816 35.581869 23.827181
36.206626 23.925118 23.633455
35.729614999999995 24.074130999999998 30.192256
12.502067 35.758314999999996 12.083057
12.297353 29.784693 41.51017900000001
35.757197000000005 18.324727 30.321174
17.552543 17.575199 18.082978
11.939901 36.119552 29.606904
29.466381 41.558643000000004 42.167941
29.444792 29.866612 36.072019
35.327878999999996 11.69542 12.137115
18.178838 23.918841 30.177828
29.889211 36.13458 12.327054
29.540964 35.922037 17.717696
17.582380999999998 23.955934000000003 17.573087
29.878039 35.417039 24.159806
17.566437 24.012157 12.130293
29.702751 35.754695 29.511338
18.251214 18.142169 36.107799
17.711238 23.826384 23.628999
29.483225 35.638587 35.389842
17.649038 24.327896 35.58561400000001
30.094832 42.19691400000001 35.609021999999996
29.959465 42.209768 24.111166
29.576803 41.310135 30.093268
30.099999 41.509427 17.705105
18.432792 18.09646 23.782728000000002
29.677077 41.415718999999996 11.925695
29.69806 36.209596000000005 42.01119200000001
17.594449 17.614176 29.891706
18.389326999999998 40.877016 42.10722200000001
43.54661900000001 18.974607 35.51778300000001
18.935423 17.90831 41.370413
43.550825 17.687357 36.796514
18.580451 18.842456000000002 43.560653
29.372994 30.795117 10.181061
29.340825 29.010471 10.203041
23.035888 41.430220000000006 30.194459
43.56008200000001 17.257773 35.073319999999995
23.095423999999998 43.605092 29.187531
18.398706 17.033654 43.543386
16.898895 18.053335 43.57381000000001
17.007295 41.598917 41.459068
41.407886000000005 17.068204 36.04054000000001
41.372701000000006 18.234855 34.91716100000001
18.977057 42.940799 43.107482000000005
17.320253 42.437107999999995 43.662535000000005
17.502673 43.712123000000005 42.353064
24.091409000000002 41.415987 28.92449
18.5311 42.019576 40.939972
41.42998800000001 18.625043 36.476692
41.365335 30.193132 30.790846
30.882676 29.848294 10.227347
41.41606300000001 30.503706 29.154794
17.144117 41.36480400000001 35.354263
43.557767 30.932572 30.050013
18.770285 41.365736 35.330887000000004
41.395419000000004 28.928618 29.663944
43.556595 29.500313 28.865522
29.425764 10.235231 30.778851
29.309039 10.220328 28.986305
30.903887 10.236236 29.775623
30.310074 12.409127 29.000054
18.030076 41.407258 36.742689
18.877726 43.548551 36.331123000000005
17.107501 43.562871 36.34826100000001
17.952475 43.592735000000005 34.772501000000005
30.407404 12.362018 30.672674
28.877045 12.375448 29.961587
43.604737 29.206353 30.688021
36.564688000000004 17.197548 43.593057
36.083667000000005 18.950346 43.538866
28.894262 29.937516 12.39935
34.83489900000001 17.685765 43.588578999999996
35.130048 18.660082 41.351946999999996
30.281939 29.04208 12.413739
35.587113 17.062869 41.363473
30.406113 30.701744 12.412497
24.695445 41.417986 30.472167
36.775193 18.232619 41.373912000000004
23.529042999999998 12.397549 17.104934
17.436698 17.191763 41.416679
12.744157 17.211233 41.940771999999996
11.595072 17.822007 40.798376000000005
10.449805 16.969228 42.79529000000001
10.247109 18.75368 42.606334000000004
11.437674 18.120577 43.756820000000005
35.456422 12.414972 23.061046
35.237407000000005 12.423537 24.655395000000002
36.79043800000001 12.36624 24.022037
12.505897000000001 18.844379 41.763782000000006
36.247966000000005 10.199683 24.846619999999998
34.81227700000001 10.184602 23.811511
23.653129 12.385922 36.729622000000006
24.866702 12.421166 35.560652000000005
23.255349 12.40128 35.175934
24.150244 10.225094 34.79248200000001
22.933836 10.184702 36.070746
24.691075 10.227067 36.534846
24.833249 12.377027 18.074117
36.409964 10.199956 23.083272
24.924342 24.007346000000002 43.55705400000001
23.340369 24.759628 43.588621
23.507735999999998 22.988688 43.60350100000001
11.828846 41.05534300000001 29.211976
10.046644 42.356031 30.090012
10.955774 43.229338999999996 28.889125
11.246554 43.525071 30.639658
23.282565 41.378073 23.232604
24.849908 41.414142999999996 23.762273
23.61404 41.369778 24.793667
24.587455000000002 43.60869700000001 24.691787
22.868914999999998 43.551918 24.125398
24.250395 43.578125 22.966762
22.97572 12.431976 41.697891999999996
24.580016 12.716978000000001 41.98434900000001
24.189868999999998 11.624702 40.824089
24.897558 10.530963 42.883303999999995
23.150274 10.192177000000001 42.517174
23.643221999999998 11.408681 43.777146
24.295224 24.80573 41.355879
24.454873 23.161108000000002 41.368714
22.989606 23.784064 41.368922999999995
23.359558 12.373491 18.702282
22.916633 10.231136 17.809129
24.282743 10.222429 18.895808
24.517353 10.201635 17.136449
30.570383 10.235428 11.275841
23.123839999999998 30.440649 41.403459999999995
24.766309 30.229669 41.382940000000005
23.784216 28.892896 41.372611000000006
24.720626 29.235624 43.60210500000001
22.939764999999998 29.45537 43.544425000000004
24.063627999999998 30.869277 43.552392999999995
41.195885000000004 34.937122 12.02254
42.206981999999996 35.92944800000001 12.98183
41.115177 36.547532000000004 11.892734
43.378111000000004 36.758798 11.037155
42.294323000000006 35.680066 10.000407
43.503523 35.001985000000005 11.195991
41.369951 23.394667000000002 17.160232
41.37401 23.480855000000002 18.804370000000002
41.379935 24.900074999999998 17.884382000000002
43.562847000000005 24.544253 18.835216
43.595304999999996 24.346196000000003 17.009781
43.550565000000006 22.858576 18.072923
28.884806 10.581766 10.895087
17.545179 18.806941 41.37414100000001
30.145194 11.469188 10.051901
30.824678 12.456872 12.140181
30.713542 29.448881 41.415774
29.033966 29.334195 41.413696
29.825726 30.830957 41.351652
28.977778 30.344321 43.59227
30.761382 30.4409 43.61281100000001
29.927042 28.837605 43.548091
18.535038 30.595284 41.393811
18.334613 28.99754 41.386652999999995
17.005575 30.056953 41.391194999999996
17.297831000000002 29.081605 43.545939000000004
17.603051 30.815802 43.546767
19.005024 29.678497 43.555066
18.56067 41.420567000000005 30.614469
17.032861 41.39433 29.963365
18.314383 41.369203 28.969638
17.307055 43.56191200000001 29.037164
19.030187 43.580348 29.762956
17.542901999999998 43.552098 30.821235
29.59064 11.654064 12.953501
29.180497 12.743755 11.792443
24.909842 43.551204 29.51053
42.27886600000001 23.896231 10.002087
36.65590400000001 41.794144 41.221908
35.424341999999996 12.390138 34.906722
35.269813 12.417743 36.571618
36.753403000000006 12.417637000000001 35.948083