1_train/73_cspbbr3_methylammonium_4_0.40\73_cspbbr3_methylammonium_4_0.40.xyz
1.0
47.818086 0 0
0 47.818086 0
0 0 47.818086
Br C Cs H N Pb 
240 34 78 204 34 64 
Cartesian
26.927908000000002 32.760254 35.616771
26.803131999999998 32.812616 24.134088999999996
27.055327999999996 30.016368999999997 20.758563000000002
27.033012 29.983441999999997 26.742269999999998
26.731443999999996 32.962726 29.819622000000003
26.840857 33.012823 17.774101
27.045853 35.761685 14.84568
23.740029999999997 32.678171 27.034549999999996
26.858021 35.561365 21.036445
26.843711 29.803386000000003 33.019216
23.855472 32.940325 20.686245
23.792878 32.685831 32.969602
27.168708000000002 26.861556 23.919477999999998
27.037948999999998 29.952644999999997 14.812642
26.66366 14.85684 29.702503999999998
26.681379999999997 11.9862 32.727303
23.696779999999997 14.982412 32.901143
27.072359999999996 15.05841 35.945343
26.902323000000003 21.131214 12.082666
27.015417999999997 18.045090000000002 15.150301
23.71331 21.078763000000002 14.91268
27.014583000000002 21.095416 18.00748
27.041379 18.055706 20.767151999999996
23.693421999999998 20.766233 21.029904000000002
26.924115 20.935777 24.131816
26.954284 17.885918 27.036693999999997
23.923208000000002 21.023221 26.673893999999997
26.956952 20.885320999999998 30.113056999999998
24.112029999999997 32.807967 15.100859
26.992545999999997 17.762383 33.029412
26.762029 20.955460000000002 35.600401999999995
26.681702 26.762948 12.088171
26.836821 23.782725999999997 15.249799000000001
24.084587 26.926783 14.886561
26.769202 26.728896999999996 17.894876
26.744355 23.698983999999996 20.779293000000003
23.729385999999998 26.988341 21.036119
27.038600000000002 23.821813 26.914518
24.007233999999997 26.717895 26.698659
26.961351 27.045001 30.01529
27.026528999999996 23.898319 32.961331
24.068433 27.010163 32.796148
26.767682999999998 27.038539999999998 35.909769
26.716502 32.732843 11.964474000000001
24.04414 21.149279999999997 32.830924
26.985205 36.010308 26.824430999999997
32.968724 14.987002 29.705543
32.916024 15.143368 11.929265000000001
32.794472 35.64232 20.829423999999996
32.998119 35.923702 14.885453
32.985685 32.939181 35.801627
29.962809999999998 32.684919 32.779877
32.667301 29.900750000000002 33.019474
32.906443 32.973273 29.754551
33.069189 35.957855 26.950113
29.847945000000003 32.874641 26.673682999999997
33.040174 32.827149 23.937337999999997
29.750026 32.838577 21.126796
32.917949 29.994523 20.848202999999998
32.842834 32.649508 18.131149
29.946102000000003 32.619695 15.113632
32.906887 30.048808 14.923487
32.958592 29.905856 26.726979
32.70986 26.766173000000002 35.886497
32.633967 35.886393 32.995027
35.919529 15.131141 20.911485
35.85581 33.055209 32.815683
35.781077 32.914828 27.105497
35.688376 32.898991 20.751494
35.962384 32.853743 15.179386
35.6286 26.791210999999997 32.626612
35.739661 26.764764999999997 26.647419
35.927685 14.824241 15.056824
35.888980999999994 27.023826 21.040833999999997
35.97503 20.983736999999998 32.907993
35.850936 21.165594 26.746822
35.801474 20.736928 21.095214
35.531985 20.893548000000003 14.880634
35.650888 14.856397 32.721599
35.659735 14.911578 26.725437
35.647529 27.016858 14.830636
29.863977 27.134301999999998 32.979714
32.901007 24.156031 32.97312
32.921437 26.717599999999997 29.805145000000003
29.861621 21.041424999999997 14.705703
32.760472 17.815309 14.857594
32.718259 20.990313 11.874726
32.821907 14.818475000000001 35.906845999999994
30.021217999999998 15.20062 32.930696
32.743918 11.811741 32.663397
32.692153 20.918526 17.839160999999997
30.060760000000002 15.093432 26.814476
33.004392 14.938269 24.055588
29.723737999999997 14.85845 20.965688
32.902082 12.17694 20.829520000000002
32.72038 14.833929 18.071392000000003
29.747011999999998 15.107447 14.740648
32.755554000000004 11.901503 14.843142
32.650374 11.83411 26.914952999999997
32.666907 17.782226 20.929578999999997
30.026809999999998 20.868859 20.900529
32.683236 20.791727 23.947862
29.930104 26.987892000000002 26.714087
32.649895 23.799951 26.960596000000002
32.684324 26.770082000000002 23.907829
30.029545 27.070765 21.053188999999996
32.804401 24.082036000000002 21.019115
32.96895 27.03116 17.941585
30.00331 27.018593000000003 14.867618
32.674822 24.053931 15.178851
33.016477 26.909857000000002 11.781909
32.679684 20.896265 35.653597999999995
29.615367 20.880361 32.708001
32.759303 17.975206 32.582754
32.916539 20.791848 29.983989
29.708862000000003 21.089930000000003 26.851959
33.098344 18.094428 26.842233
27.10353 35.982999 32.773214
23.995517 15.12387 27.048910999999997
32.849589 32.84397 12.208922
11.972603 26.659065999999996 20.930684
18.115425000000002 14.80203 26.782981
11.893447 33.027685 14.865395
12.183633 20.822065000000002 14.900584
21.056223000000003 15.074925 29.700408000000003
20.768802 11.810939 32.856261
18.139839000000002 15.126899 32.937483
20.792741 14.855807 35.843959
21.059151 20.806362999999997 12.10207
20.749732 18.166109999999996 14.940976000000001
18.009158 20.752125999999997 15.01188
15.166728 29.725968 14.960576
20.772903999999997 21.099089 17.947778
21.136190999999997 12.032118 26.936045999999997
15.011204000000001 18.016874 15.17067
14.945124 33.039707 12.004865
17.903899000000003 20.903481999999997 20.675188999999996
14.969599 20.717703 12.067745
15.160206 24.051243999999997 20.869774
21.024794 20.857794 24.045294999999996
14.922293 14.855452 35.922205
21.020403 17.756121 26.849651
17.812638999999997 20.901091 26.63413
11.893918 15.139736000000001 32.675027
20.930666000000002 20.8084 29.993706000000003
14.884538000000001 24.089622 15.086784
20.950783 18.155541999999997 32.810606
21.111849999999997 18.106209999999997 21.026651
21.011423999999998 14.741381 23.991056999999998
14.964995 21.16834 18.071987999999997
17.991751 14.833552 21.054111999999996
15.097252 32.734316 17.847428
14.873806 32.700859 24.089543999999997
15.105391 20.739539999999998 35.849342
14.804378 29.866934999999998 26.862249999999996
11.844448 32.78754 26.771839999999997
14.925777 33.001651 29.692991
14.88707 29.715246 32.628595
12.172778000000001 20.849092 32.784754
11.899174 32.88886 32.673553
14.889614 27.072400000000002 12.002087
14.754642 32.892454 35.624809
15.141718 35.973639 15.100824000000001
15.097366 18.054397 32.659524
14.948367 21.041404999999997 29.681441
15.137517 35.752348 21.033527
11.868964 20.808003999999997 26.902453
14.897985 35.917457 26.765977999999997
15.171261 18.110813999999998 26.725994
15.049308 20.890901999999997 23.687207
14.812918 35.830324 32.657232
12.1218 20.695152 21.072398999999997
20.790328000000002 14.918396 12.169942
20.692709999999998 11.890263000000001 15.069349
15.100062 18.149734000000002 20.876236
17.793792 15.166538000000001 14.83445
21.065284 15.021700000000001 18.099887000000003
20.753726 12.097999 20.768943999999998
18.140996 21.058126 32.707379
12.231896 32.740422 20.781706
20.962963000000002 20.959131999999997 35.599737999999995
14.950147 11.778237 32.865558
20.871937000000003 29.650605 26.794584999999998
14.742526 27.034422999999997 29.786749999999998
18.027772999999996 33.118579 26.869911000000002
11.974626 15.039738 14.79693
20.823337000000002 32.977666 30.030202000000003
20.748598 29.888117 32.831887
14.778726 27.043774 18.086148
18.203290000000003 32.749557 32.719919
14.692139 11.96078 14.996454
21.105095999999996 32.753732 35.975833
12.009902 26.657829 26.730264999999996
14.953432000000001 14.8065 11.869671
14.790954000000001 15.151272 17.933611
21.046861 35.938241999999995 15.047575
15.01922 23.824153000000003 26.661543
21.009096 35.619544 27.086937999999996
14.866881000000001 26.857587000000002 24.069389
21.157012 35.961273999999996 32.805141
26.963113999999997 15.129264000000001 11.841186
26.962122 11.832757 15.036313
26.766509999999997 12.126483 26.808881
24.113160999999998 14.788787000000001 15.030002
26.702593999999998 15.091962 17.858978999999998
27.128200999999997 11.925187 20.794547
23.721652999999996 15.117095 20.993260999999997
27.023441999999996 15.005474 24.101419999999997
21.023913999999998 35.678256 20.798943
21.001972000000002 27.025214 11.843733
21.045166000000002 32.916517 23.752466999999996
17.927881 33.002269 20.804799000000003
20.778371 23.72106 15.062024
18.036685 26.748773 14.863982
15.252439 15.010633 29.742612
20.787577999999996 27.036004 18.064107999999997
12.054924 26.689684 15.136251
21.194862 23.805518 20.882060000000003
18.016129999999997 26.699393 20.740775
14.845685 26.759985 35.784315
20.725139 26.801513999999997 23.835603
21.118381999999997 23.837907 26.693685000000002
12.118351 14.749558 26.741942
17.734889000000003 26.980604 26.913072
12.116665 27.100378 32.864454
20.771968 26.6961 29.990600999999998
15.134667 29.867432 20.813245000000002
15.082383 12.245392 27.003614
17.816288999999998 26.852409 32.638504
15.185788 15.027029 23.988920999999998
21.001046000000002 26.972682 35.973462
20.800269999999998 32.699075 11.913299
20.91352 30.021099 21.034286
14.73702 24.038482000000002 32.913651
21.139674999999997 24.010968999999996 32.920001
20.93058 29.876475 14.800596
18.228628 32.92616 14.910739
12.170649000000001 15.068818 21.132593999999997
21.064546999999997 32.951388 18.104453
14.851517 11.935410000000001 21.127947999999996
17.993237999999998 37.343636 18.001994
37.194058 23.952495999999996 29.888101
29.887304999999998 10.590701000000001 17.904176
37.309979 23.822228000000003 17.986348999999997
23.884281 10.966277 36.771082
29.849807 23.826003999999998 37.306508
23.891536000000002 10.63606 23.912149999999997
18.055287999999997 37.26186499999999 29.824457000000002
17.977351 36.810515 36.94833499999999
18.029347 10.587995 23.889269999999996
29.870101 23.981431999999998 10.498208
29.812009000000003 29.928196999999997 37.241673999999996
29.861341000000003 11.053037 10.948492
17.877274 11.017388 36.837643
36.878818 29.949069 10.973522
10.543959 17.916072 29.917209
37.279028 17.92322 29.934072999999998
23.837355000000002 10.512734 18.008737
10.549216 18.034481 23.957836
29.91809 37.335707 23.963971
17.880822000000002 23.891277000000002 10.495976
10.894652 18.035977000000003 36.868454
17.912557999999997 17.951438000000003 10.594062
11.031192 10.964035 17.908022000000003
23.995213999999997 29.834964999999997 10.473692
18.026170999999998 10.497841 18.008856
23.973912 36.788335999999994 36.871899
29.910673000000003 36.903915 10.909404
11.037467 17.931144 10.984153000000001
36.880641 36.927326 23.857473
36.905347 11.026546 29.887954
10.557258 18.012214 17.900461999999997
10.563911 29.888402 29.945843000000004
36.78195899999999 23.914749 11.013436
12.410626 23.534930000000003 17.761789999999998
30.159591 30.027183 18.104763
29.747023 29.373514 23.900807
24.202247999999997 12.325046 29.560856
29.936186 30.262645 29.926389
35.673727 35.346470000000004 29.542839999999998
35.66332 35.887755 17.477639
35.677412 29.544880999999997 35.672812
35.54673 30.041432999999998 30.111475
35.631244 29.710482 24.372715
36.201906 30.06035 17.671319
36.215587 24.067315 35.453263
11.727859 23.866310999999996 12.250997
36.113234 23.553792 24.096426
11.716969 12.252193 29.846930999999998
35.564697 17.984752999999998 24.306013999999998
35.754539 17.763232000000002 12.483474
36.005198 11.851225 17.646953
29.566094999999997 35.894465 35.54896299999999
29.629379999999998 35.985186 29.373537
29.569727 36.160637 17.994436999999998
35.478828 18.106608 36.283266
35.394912 12.442042 23.864281999999996
36.091361 18.327833 17.734008000000003
12.333542 24.093116000000002 24.080264999999997
17.572296 17.947141000000002 29.5071
24.269686999999998 30.014370999999997 29.615181
24.240985000000002 30.324328 24.030907999999997
17.729841999999998 24.206998 18.331597000000002
23.709201999999998 29.853484 17.477331
17.663758 24.155032 23.776598
17.749035 23.541218 29.88183
23.983097 24.495883999999997 29.767816000000003
17.941339 23.744692999999998 36.211354
23.751312 23.62739 24.149126000000003
17.582119 29.736044 17.853900000000003
24.273021999999997 29.650998 36.145166999999994
23.859758 23.647857000000002 18.237451999999998
23.625572999999996 23.802123 11.731096
23.642806999999998 17.669798 35.686676999999996
17.614466 30.203194000000003 29.626016
23.700103999999996 18.238326999999998 30.174703
17.748084 29.745153000000002 35.407481
18.552253999999998 35.715219 12.103031
24.051066999999996 17.620614 23.922089999999997
17.535497 35.390668999999995 23.902039000000002
24.196914 18.084972999999998 18.187508
23.642919999999997 12.479324 11.940339
23.436009 18.120562999999997 12.349269
17.746501000000002 30.088312000000002 24.112051
24.164619000000002 35.664817 11.785669
24.026663 23.718944 36.15591
23.851200999999996 35.437333 24.200353999999997
30.210490999999998 30.090266999999997 11.976558
11.870209000000001 24.265115 29.546037
29.679409999999997 23.660410999999996 30.172221999999998
12.076319 30.284602 12.13111
18.484124 17.654144000000002 23.881569999999996
12.240115 30.222171000000003 17.641258
29.807416000000003 23.499004 17.569602
11.879591 30.372616999999998 23.856028000000002
29.537436 18.237768000000003 35.539994
30.026927 17.572395 30.299315999999997
11.790425 30.270601999999997 35.764267999999994
29.455975000000002 17.550173 23.883280999999997
12.278939 35.517595 17.675021
29.701783 24.080439999999996 24.249719
30.240676999999998 18.191625000000002 18.150019
12.063257 35.882743999999995 23.552653999999997
17.569907 17.747911000000002 17.855107
24.128442999999997 36.032408999999994 30.095079
17.629466 12.240142 29.812475
30.107353000000003 11.941333 30.408880000000003
30.036321 11.924905 24.427883
29.814642999999997 17.60626 12.217911
17.928913 11.983961 12.452548
12.280324 35.706877 29.512059999999998
30.210935999999997 12.070966 35.63546899999999
10.210383 17.129316000000003 17.299674000000003
37.83871 36.36191 23.66292
36.538408 37.591726 23.148345999999997
10.197473 17.875259 19.014018999999998
30.123821999999997 34.864394 11.63618
35.986939 35.100744999999996 24.624377000000003
34.911776999999994 36.209508 24.164805
35.769028 35.38016699999999 22.995643
30.466836999999998 12.413712 17.188037
28.916463 12.408243 17.859805
30.252228000000002 12.389380000000001 18.880744
29.206311999999997 10.217562 18.75925
24.391703999999997 36.438883999999995 37.718105
24.413206000000002 37.697517999999995 36.455278
36.897321999999996 37.266821 24.891765
30.538539 36.015091 12.74888
35.04153 30.549030000000002 11.796914
12.370190000000001 18.692064000000002 18.542935999999997
10.020624 17.837353999999998 36.333470999999996
11.894413 18.717954999999996 35.101369999999996
11.969415 17.060238 35.28515599999999
12.923226 18.059058 36.238127
23.733848000000002 28.80737 10.232004
24.903774999999996 30.246188000000004 10.167948
23.129106999999998 30.524963 10.173272
17.309396 17.193289 10.191532
17.606006999999998 18.914997999999997 10.174275
10.223231 18.927054 17.562645
19.019633999999996 17.772002 10.177309
18.312402999999996 17.041516 12.366281
16.984149000000002 18.09088 12.36161
12.40222 17.118023 18.32383
12.3741 18.047717999999996 16.986240000000002
30.896243 36.90149 10.53176
29.120553 36.521903 10.187612
29.531677000000002 37.817839 11.451581000000001
28.895049 35.682849999999995 12.406205
22.829296999999997 37.100739 37.066105
18.599171 18.696964 12.39644
23.456400000000002 36.151079 34.942877
30.920015 10.197755 18.104456
24.900160999999997 35.539345 35.579539
18.148812 35.450129999999994 30.802993
18.631262999999997 35.434079 29.180866
17.046025 35.468711 29.570183999999998
12.409214 18.823817 30.211027
12.415835 17.221102000000002 30.438035999999997
10.214117 18.156363 30.874909000000002
10.192939 17.001773999999997 29.517032999999998
18.655347 36.572775 37.651961
18.258249999999997 37.796350999999994 36.344136999999996
16.958194 36.918789999999994 37.215174
17.308768 36.025254999999994 35.070834999999995
10.192646 18.802047 29.175891
17.692357 34.864257 36.182086
18.922792 35.684288 35.370341
24.655305999999996 29.290492999999998 12.363611
35.384288 28.900686 12.14634
37.604121 29.168833 11.248915
36.37345199999999 29.562668000000002 10.064294
36.184648 30.108428000000004 12.957019
18.916824 37.595637 30.154822000000003
17.207123000000003 37.587595 30.567383999999997
17.754419 37.604516 28.869252000000003
12.360103 17.788883 28.881571
37.243106 30.900391 10.893237000000001
29.478893 10.17995 17.017677
37.594041 22.950817 29.414931000000003
37.591466 24.737273000000002 29.274951
37.626614999999994 23.993605000000002 30.921298
35.464318 24.764387 30.218018
23.910897 12.366766 18.896687
24.719758999999996 12.397137 17.471843
35.455133 23.136539999999997 30.453716999999997
23.411944999999996 34.92269099999999 36.10506899999999
35.451679 23.835645 28.934317
22.968921 11.103647 37.414487
23.992213 10.02215 36.35855299999999
23.964125000000003 10.203925 16.915706999999998
22.964244 10.206659 18.435341
24.747996 11.140937 37.510323
24.793889999999998 11.957892 35.26085
23.828432999999997 12.940382 36.251878
23.113759 11.872927 35.191450999999994
24.830005 10.223704 18.512915999999997
23.111314999999998 12.411751 17.485109
10.995452 18.941805000000002 37.380886999999994
30.608058999999997 24.589259 37.599084999999995
11.875076 12.67606 17.142846
29.123030999999997 23.252432999999996 35.441899
18.547522 10.224741 23.039834
18.419659000000003 10.181628 24.811633999999998
16.910944999999998 10.222167 23.83976
17.447274999999998 12.418872 24.742924000000002
17.539450000000002 12.409372 23.028098999999997
18.934876000000003 12.419356 23.938665
30.548709000000002 11.23696 10.196769
30.158059 10.013888 11.402178000000001
28.821914 10.875225 10.542846
29.220791 11.813001 12.786633
29.519028 12.929162 11.627040000000001
30.820413000000002 12.102746 12.400803
37.254664999999996 10.889504 30.895501000000003
36.382805999999995 10.013101 29.543399
37.642948999999994 11.2465 29.176090000000002
35.403284 12.128541 28.900556
36.156293999999995 12.896626 30.153713000000003
35.033975 11.774582 30.510441999999998
18.981293 10.746565 37.058668
17.456207 11.350388 37.70184
17.414198 10.118466 36.428267999999996
16.970540999999997 12.276414 35.529812
18.422179 11.702309 34.985155999999996
18.412736000000002 12.829892000000001 36.144526
29.627741999999998 24.869056999999998 35.414686999999994
30.878376000000003 29.850754000000002 37.61315
30.795619000000002 23.601239 35.463017
28.854131000000002 24.246907999999998 37.601863
23.034446000000003 29.544472 12.355038
28.829314000000004 37.619553 24.228074
30.644793999999997 37.584809 24.610720999999998
30.049486 37.615840999999996 22.89568
30.761522999999997 35.458878 23.647083000000002
29.128487999999997 35.431354 23.231796000000003
29.680590000000002 35.411448 24.869421000000003
18.682578 24.609122 10.201777
18.201997 22.904139 10.232329
16.970284 24.216696999999996 10.184269
17.303466999999998 23.271017 12.368116
17.708716000000003 24.862578 12.362732
18.909774999999996 23.668794 12.387902
10.178799 28.963151000000003 29.384276
10.231903 29.89752 30.891531999999998
10.219375 30.753528000000003 29.257033
12.385494 30.693309999999997 30.318868000000002
12.415488 29.797596 28.935630000000003
12.365818 29.072226999999998 30.35761
37.598283 17.112212 29.305
37.605419 18.856412999999996 29.38266
37.599596 17.924142 30.873812
35.450864 18.731202000000003 30.371018
35.456407 17.105576 30.326127
35.448957 18.039763999999998 28.887645999999997
30.097073 22.875251 37.652016999999994
29.361221 30.771499 37.611191999999996
29.357335 28.977797000000002 37.596923999999994
28.932575999999997 29.863754999999998 35.422723999999995
12.389524 17.387373 23.152212999999996
12.366461 17.521619 24.774009
37.408615 23.015279999999997 11.067906
36.364763 24.003858 9.973626
37.485173999999994 24.805206999999996 11.159872
35.246412 24.766534 11.934885
36.190175 23.880414000000002 12.938121
35.184129 23.090584999999997 11.867217
10.161715 18.674231999999996 11.297886
11.392989 18.287399 10.044538000000001
10.564553 16.935464000000003 10.886651
12.802401 17.313197000000002 11.791939
11.601341 17.638576 12.942279000000001
12.382776 18.928759 12.129526
18.766117 10.242722 17.308186
18.12269 10.155208 18.987927
16.955596999999997 10.198271 17.600628
17.236203 12.38417 18.534857000000002
17.825648 12.357385 17.040680000000002
18.870871 12.418889 18.318575000000003
10.026329 11.485405 18.051153999999997
11.029479 10.441409 16.999789
11.168976 10.329708 18.778455
12.965458 11.57198 17.894989000000002
12.013971 12.548221 18.808342000000003
12.393675 18.907519999999998 23.797888999999998
10.180016 18.417764 22.936906
10.159854000000001 18.559364000000002 24.777389
10.160235 16.908821000000003 24.003192
30.340955 29.061538 35.46295
30.302567000000003 30.733822000000004 35.435247
30.809122000000002 23.435572999999998 10.222719
29.01791 23.310116999999998 10.229011
29.762284 24.931634000000003 10.1914
28.997059999999998 24.328657999999997 12.429186
30.671522000000003 24.453055 12.357974
29.957237999999997 22.95089 12.386308
23.154778 10.170553 23.206595999999998
24.918172999999996 10.218904 23.655332
23.64855 10.230012 24.91093
24.572544999999998 12.365857 24.560543000000003
11.206133 17.14263 37.524646999999995
22.970866 12.399425 24.206237
37.616605 24.978664000000002 18.094625
37.597242 23.249346000000003 18.783431
37.644918 23.500059999999998 16.973351
35.438818 22.927946999999996 17.865287000000002
35.452451 24.473777 17.176853
35.455895 24.296535999999996 18.826907
17.388493 37.584567 18.860461
19.027704999999997 37.639299 17.989423000000002
17.496395 37.61169 17.069110000000002
18.497909999999997 35.448631999999996 17.173327999999998
17.038686 35.422971999999994 17.928125
18.371737000000003 35.411521 18.833562
24.103246999999996 12.394275 22.986917999999996
24.020182 30.829357 12.388214
35.846016999999996 35.769922 23.975532
35.79955 29.925024999999998 12.043188
11.992892 18.030946 23.876053999999996
35.757635 12.006228 29.798774
17.961857000000002 17.992103999999998 11.931695
18.014228000000003 12.060665 35.848684999999996
18.010728999999998 35.761672 35.858465
12.061004 12.058502 17.984945
18.005796 35.864422 17.937859000000003
18.03353 11.9803 17.906568999999998
35.770880999999996 23.889857999999997 18.028529999999996
29.909159000000002 23.919589000000002 11.959547
17.998635999999998 35.842031999999996 29.910420000000002
35.7476 23.846308999999998 12.061352
35.780595 23.840210999999996 29.920975
29.912402999999998 35.84526 12.087523000000001
23.907137999999996 12.076938 23.973885000000003
23.974128999999998 11.973221 35.764734
11.942579 18.036749999999998 12.002467
29.918819999999997 29.919097 35.870319
23.961658999999997 35.859488 35.770221
11.917242 17.965632 29.859938
18.006584 11.995024 23.992796
29.896633 23.97538 35.805983
23.970202 11.964053 17.958378
18.017083 23.846271 12.030352
12.066626 17.980198 18.005204
23.874777 29.893430000000002 11.948201000000001
29.804906000000003 11.985864 12.071837
29.883983999999998 11.930639 17.937448
35.841044000000004 18.023978 29.933698
11.96901 17.887421 35.858838999999996
29.83748 35.865756 23.866681
11.966112 29.802152999999997 29.846125
15.273478 15.040806 15.088302
32.80547 20.744374 27.111635
20.872715 14.899231 21.208501
14.856536 26.649768 21.088254999999997
32.930819 33.088256 20.830709999999996
26.736184 26.982638 20.757768999999996
20.841260999999996 32.676949 21.111651000000002
33.053858 32.783552 15.185671000000001
15.23626 27.099545999999997 26.877823999999997
32.716665 21.152378 15.075879
20.957454 14.886248 14.724871
26.967810999999998 27.036707 27.135824999999997
15.07362 26.751599999999996 32.636362
33.052796 27.052914 32.617258
21.0336 32.622532 14.920528
20.717415000000003 20.794243 20.771194
20.831784 26.741912999999997 15.172507
32.759032 26.564549 26.77149
32.579576 20.718995 32.716824
20.938028000000003 26.739198000000002 20.749888999999996
15.218113 32.623458 32.658022
20.804893 26.95597 27.054116999999998
26.974922999999997 32.64364 14.908875
14.967693 32.892205 26.593500999999996
15.11435 26.715550999999998 15.050097
32.700854 26.665360999999997 14.903979
20.880473000000002 27.064132 32.673359
15.174602 32.791627 20.765017
32.510849 26.863045 21.094903000000002
26.709432999999997 27.182882 32.9227
26.784610999999998 32.710593 27.183363999999997
15.219885 32.876983 14.780212
32.922106 21.051966999999998 21.106988
20.718634 33.057901 26.959155000000003
33.061092 32.789238 27.093249
27.059129999999996 15.010208 33.084866
27.002629999999996 15.055881000000001 27.075922999999996
32.897228 15.005718 15.225036000000001
15.141253 15.207049 21.04106
27.054764999999996 15.028516 20.705664999999996
21.09395 20.789448999999998 26.801394000000002
14.872516 15.179193 26.732431999999996
27.104819 21.075195 14.790031
20.785669999999996 20.672987 14.857765
27.048088 15.151416 14.954343
32.691964 15.084063 20.790861
14.966337000000001 15.104405999999999 33.070088
27.021706000000002 21.120002999999997 20.682921
27.141056 26.715375 14.998382000000001
14.971345000000001 20.718814000000002 14.903189
20.84467 15.181565 32.694557
26.594876 32.801123 20.844102
32.937311 15.097954 26.648964999999997
33.114528 32.954607 32.771411
32.994776 14.989869 32.674601
15.177724 20.791972 33.021262
21.217219 15.135842 26.722233000000003
26.733815 20.874127 26.735185
27.043991999999996 33.034052 33.025105
15.219082 21.152158999999997 26.743491999999996
20.700553999999997 32.640999 32.691587
27.017736 21.015976000000002 33.10843
20.911067000000003 21.151379999999996 33.090756
15.063985 20.757498999999996 20.788075999999997
