3_train/182_cspbbr3_MA-OP_3_0.40\182_cspbbr3_MA-OP_3_0.40.xyz
1.0
55.692052 0 0
0 55.692052 0
0 0 55.692052
Br C Cs H N O P Pb 
84 211 35 546 19 72 24 27 
Cartesian
21.896026 21.896026 18.921025999999998
21.896026 18.921025999999998 21.896026
21.896026 21.896026 24.871025999999997
18.921025999999998 21.896026 27.846026
21.896026 21.896026 30.821025999999996
18.921025999999998 21.896026 33.796026
21.896026 24.871025999999997 21.896026
21.896026 27.846026 24.871025999999997
21.896026 24.871025999999997 27.846026
18.921025999999998 27.846026 27.846026
21.896026 27.846026 30.821025999999996
21.896026 24.871025999999997 33.796026
18.921025999999998 27.846026 33.796026
21.896026 33.796026 18.921025999999998
21.896026 30.821025999999996 21.896026
21.896026 33.796026 24.871025999999997
21.896026 30.821025999999996 27.846026
18.921025999999998 33.796026 27.846026
21.896026 33.796026 30.821025999999996
21.896026 30.821025999999996 33.796026
21.896026 33.796026 36.771026
21.896026 36.771026 27.846026
27.846026 21.896026 18.921025999999998
27.846026 18.921025999999998 21.896026
24.871025999999997 21.896026 21.896026
27.846026 21.896026 24.871025999999997
27.846026 18.921025999999998 27.846026
24.871025999999997 21.896026 27.846026
27.846026 21.896026 30.821025999999996
27.846026 18.921025999999998 33.796026
24.871025999999997 21.896026 33.796026
27.846026 24.871025999999997 21.896026
24.871025999999997 27.846026 21.896026
27.846026 27.846026 24.871025999999997
27.846026 24.871025999999997 27.846026
24.871025999999997 27.846026 27.846026
27.846026 27.846026 30.821025999999996
27.846026 24.871025999999997 33.796026
24.871025999999997 27.846026 33.796026
27.846026 33.796026 18.921025999999998
27.846026 30.821025999999996 21.896026
24.871025999999997 33.796026 21.896026
27.846026 33.796026 24.871025999999997
27.846026 30.821025999999996 27.846026
24.871025999999997 33.796026 27.846026
27.846026 33.796026 30.821025999999996
27.846026 30.821025999999996 33.796026
24.871025999999997 33.796026 33.796026
27.846026 33.796026 36.771026
27.846026 36.771026 21.896026
27.846026 36.771026 27.846026
33.796026 18.921025999999998 21.896026
30.821025999999996 21.896026 21.896026
33.796026 21.896026 24.871025999999997
30.821025999999996 21.896026 27.846026
33.796026 21.896026 30.821025999999996
30.821025999999996 21.896026 33.796026
33.796026 21.896026 36.771026
33.796026 27.846026 18.921025999999998
33.796026 24.871025999999997 21.896026
30.821025999999996 27.846026 21.896026
33.796026 27.846026 24.871025999999997
33.796026 24.871025999999997 27.846026
30.821025999999996 27.846026 27.846026
33.796026 27.846026 30.821025999999996
33.796026 24.871025999999997 33.796026
30.821025999999996 27.846026 33.796026
33.796026 27.846026 36.771026
33.796026 30.821025999999996 21.896026
30.821025999999996 33.796026 21.896026
33.796026 33.796026 24.871025999999997
33.796026 30.821025999999996 27.846026
30.821025999999996 33.796026 27.846026
33.796026 33.796026 30.821025999999996
33.796026 30.821025999999996 33.796026
30.821025999999996 33.796026 33.796026
33.796026 33.796026 36.771026
33.796026 36.771026 21.896026
33.796026 36.771026 33.796026
36.771026 21.896026 21.896026
36.771026 21.896026 27.846026
36.771026 21.896026 33.796026
36.771026 27.846026 27.846026
36.771026 33.796026 33.796026
27.499668999999997 22.870106 39.375969999999995
26.512919999999998 23.544258 40.342203999999995
27.138813999999996 23.877463 41.698915
26.144624999999998 24.531412999999997 42.659685999999994
26.736206999999997 24.895307999999996 44.022529999999996
25.718988999999997 25.556068999999997 44.954769
26.291828 25.962396 46.31398299999999
25.261447999999998 26.633188999999998 47.225493
27.499668999999997 28.820105999999996 39.375969999999995
26.512919999999998 29.494258 40.342203999999995
27.138813999999996 29.827462999999998 41.698915
26.144624999999998 30.481412999999996 42.659685999999994
26.736206999999997 30.845307999999996 44.022529999999996
25.718988999999997 31.506068999999997 44.954769
26.291828 31.912395999999998 46.31398299999999
25.261447999999998 32.583189 47.225493
21.549668999999998 22.870106 39.375969999999995
20.56292 23.544258 40.342203999999995
21.188813999999997 23.877463 41.698915
20.194625 24.531412999999997 42.659685999999994
20.786206999999997 24.895307999999996 44.022529999999996
19.768988999999998 25.556068999999997 44.954769
20.341828 25.962396 46.31398299999999
19.311448 26.633188999999998 47.225493
21.549668999999998 28.820105999999996 39.375969999999995
20.56292 29.494258 40.342203999999995
21.188813999999997 29.827462999999998 41.698915
20.194625 30.481412999999996 42.659685999999994
20.786206999999997 30.845307999999996 44.022529999999996
19.768988999999998 31.506068999999997 44.954769
20.341828 31.912395999999998 46.31398299999999
19.311448 32.583189 47.225493
34.142382999999995 22.870106 16.316081999999998
35.129132 23.544258 15.349847999999998
34.503237999999996 23.877463 13.993136999999997
35.497427 24.531412999999997 13.032365999999998
34.905845 24.895307999999996 11.669521999999997
35.923063 25.556068999999997 10.737282999999998
35.350224 25.962396 9.378068999999998
36.380604 26.633188999999998 8.466558999999998
34.142382999999995 34.770106 16.316081999999998
35.129132 35.444258 15.349847999999998
34.503237999999996 35.777463 13.993136999999997
35.497427 36.431413 13.032365999999998
34.905845 36.795308 11.669521999999997
35.923063 37.456069 10.737282999999998
35.350224 37.862396 9.378068999999998
36.380604 38.53318899999999 8.466558999999998
22.242382999999997 28.820105999999996 16.316081999999998
23.229132 29.494258 15.349847999999998
22.603237999999997 29.827462999999998 13.993136999999997
23.597426999999996 30.481412999999996 13.032365999999998
23.005844999999997 30.845307999999996 11.669521999999997
24.023062999999997 31.506068999999997 10.737282999999998
23.450224 31.912395999999998 9.378068999999998
24.480604 32.583189 8.466558999999998
28.192383 28.820105999999996 16.316081999999998
29.179131999999996 29.494258 15.349847999999998
28.553238 29.827462999999998 13.993136999999997
29.547427 30.481412999999996 13.032365999999998
28.955844999999997 30.845307999999996 11.669521999999997
29.973062999999996 31.506068999999997 10.737282999999998
29.400223999999998 31.912395999999998 9.378068999999998
30.430603999999995 32.583189 8.466558999999998
16.316081999999998 34.770106 21.549668999999998
15.349847999999998 35.444258 20.56292
13.993136999999997 35.777463 21.188813999999997
13.032365999999998 36.431413 20.194625
11.669521999999997 36.795308 20.786206999999997
10.737282999999998 37.456069 19.768988999999998
9.378068999999998 37.862396 20.341828
8.466558999999998 38.53318899999999 19.311448
16.316081999999998 34.770106 33.449669
15.349847999999998 35.444258 32.46292
13.993136999999997 35.777463 33.088814
13.032365999999998 36.431413 32.09462499999999
11.669521999999997 36.795308 32.686206999999996
10.737282999999998 37.456069 31.668988999999996
9.378068999999998 37.862396 32.241828
8.466558999999998 38.53318899999999 31.211447999999997
16.316081999999998 28.820105999999996 21.549668999999998
15.349847999999998 29.494258 20.56292
13.993136999999997 29.827462999999998 21.188813999999997
13.032365999999998 30.481412999999996 20.194625
11.669521999999997 30.845307999999996 20.786206999999997
10.737282999999998 31.506068999999997 19.768988999999998
9.378068999999998 31.912395999999998 20.341828
8.466558999999998 32.583189 19.311448
16.316081999999998 22.870106 21.549668999999998
15.349847999999998 23.544258 20.56292
13.993136999999997 23.877463 21.188813999999997
13.032365999999998 24.531412999999997 20.194625
11.669521999999997 24.895307999999996 20.786206999999997
10.737282999999998 25.556068999999997 19.768988999999998
9.378068999999998 25.962396 20.341828
8.466558999999998 26.633188999999998 19.311448
39.375969999999995 28.820105999999996 22.242382999999997
40.342203999999995 29.494258 23.229132
41.698915 29.827462999999998 22.603237999999997
42.659685999999994 30.481412999999996 23.597426999999996
44.022529999999996 30.845307999999996 23.005844999999997
44.954769 31.506068999999997 24.023062999999997
46.31398299999999 31.912395999999998 23.450224
47.225493 32.583189 24.480604
39.375969999999995 28.820105999999996 34.142382999999995
40.342203999999995 29.494258 35.129132
41.698915 29.827462999999998 34.503237999999996
42.659685999999994 30.481412999999996 35.497427
44.022529999999996 30.845307999999996 34.905845
44.954769 31.506068999999997 35.923063
46.31398299999999 31.912395999999998 35.350224
47.225493 32.583189 36.380604
39.375969999999995 34.770106 28.192383
40.342203999999995 35.444258 29.179131999999996
41.698915 35.777463 28.553238
42.659685999999994 36.431413 29.547427
44.022529999999996 36.795308 28.955844999999997
44.954769 37.456069 29.973062999999996
46.31398299999999 37.862396 29.400223999999998
47.225493 38.53318899999999 30.430603999999995
39.375969999999995 34.770106 22.242382999999997
40.342203999999995 35.444258 23.229132
41.698915 35.777463 22.603237999999997
42.659685999999994 36.431413 23.597426999999996
44.022529999999996 36.795308 23.005844999999997
44.954769 37.456069 24.023062999999997
46.31398299999999 37.862396 23.450224
47.225493 38.53318899999999 24.480604
21.549668999999998 16.316081999999998 28.820105999999996
20.56292 15.349847999999998 29.494258
21.188813999999997 13.993136999999997 29.827462999999998
20.194625 13.032365999999998 30.481412999999996
20.786206999999997 11.669521999999997 30.845307999999996
19.768988999999998 10.737282999999998 31.506068999999997
20.341828 9.378068999999998 31.912395999999998
19.311448 8.466558999999998 32.583189
33.449669 16.316081999999998 34.770106
32.46292 15.349847999999998 35.444258
33.088814 13.993136999999997 35.777463
32.09462499999999 13.032365999999998 36.431413
32.686206999999996 11.669521999999997 36.795308
31.668988999999996 10.737282999999998 37.456069
32.241828 9.378068999999998 37.862396
31.211447999999997 8.466558999999998 38.53318899999999
33.449669 16.316081999999998 28.820105999999996
32.46292 15.349847999999998 29.494258
33.088814 13.993136999999997 29.827462999999998
32.09462499999999 13.032365999999998 30.481412999999996
32.686206999999996 11.669521999999997 30.845307999999996
31.668988999999996 10.737282999999998 31.506068999999997
32.241828 9.378068999999998 31.912395999999998
31.211447999999997 8.466558999999998 32.583189
21.549668999999998 16.316081999999998 34.770106
20.56292 15.349847999999998 35.444258
21.188813999999997 13.993136999999997 35.777463
20.194625 13.032365999999998 36.431413
20.786206999999997 11.669521999999997 36.795308
19.768988999999998 10.737282999999998 37.456069
20.341828 9.378068999999998 37.862396
19.311448 8.466558999999998 38.53318899999999
21.549668999999998 39.375969999999995 20.921946
20.56292 40.342203999999995 20.247794
21.188813999999997 41.698915 19.914589
20.194625 42.659685999999994 19.260638999999998
20.786206999999997 44.022529999999996 18.896743999999998
19.768988999999998 44.954769 18.235982999999997
20.341828 46.31398299999999 17.829656
19.311448 47.225493 17.158862999999997
27.499668999999997 39.375969999999995 32.821946
26.512919999999998 40.342203999999995 32.147794
27.138813999999996 41.698915 31.814588999999998
26.144624999999998 42.659685999999994 31.160638999999996
26.736206999999997 44.022529999999996 30.796743999999997
25.718988999999997 44.954769 30.135982999999996
26.291828 46.31398299999999 29.729656
25.261447999999998 47.225493 29.058862999999995
21.549668999999998 39.375969999999995 32.821946
20.56292 40.342203999999995 32.147794
21.188813999999997 41.698915 31.814588999999998
20.194625 42.659685999999994 31.160638999999996
20.786206999999997 44.022529999999996 30.796743999999997
19.768988999999998 44.954769 30.135982999999996
20.341828 46.31398299999999 29.729656
19.311448 47.225493 29.058862999999995
33.449669 39.375969999999995 26.871945999999998
32.46292 40.342203999999995 26.197794
33.088814 41.698915 25.864589
32.09462499999999 42.659685999999994 25.210638999999997
32.686206999999996 44.022529999999996 24.846743999999997
31.668988999999996 44.954769 24.185982999999997
32.241828 46.31398299999999 23.779655999999996
31.211447999999997 47.225493 23.108863
17.877575999999998 17.877575999999998 30.821025999999996
17.877575999999998 24.871025999999997 17.877575999999998
17.877575999999998 24.871025999999997 37.814476
17.877575999999998 30.821025999999996 17.877575999999998
17.877575999999998 30.821025999999996 37.814476
24.871025999999997 24.871025999999997 38.246686999999994
24.871025999999997 30.821025999999996 17.445365
24.871025999999997 30.821025999999996 38.246686999999994
24.871025999999997 38.246686999999994 30.821025999999996
30.821025999999996 17.445365 30.821025999999996
30.821025999999996 17.877575999999998 37.814476
30.821025999999996 30.821025999999996 17.445365
30.821025999999996 38.246686999999994 24.871025999999997
37.814476 24.871025999999997 17.877575999999998
38.246686999999994 30.821025999999996 24.871025999999997
37.814476 30.821025999999996 37.814476
37.814476 37.814476 24.871025999999997
37.814476 37.814476 30.821025999999996
30.821025999999996 37.814476 37.814476
18.921025999999998 18.921025999999998 24.871025999999997
18.921025999999998 24.871025999999997 30.821025999999996
18.921025999999998 30.821025999999996 24.871025999999997
18.921025999999998 30.821025999999996 30.821025999999996
18.921025999999998 36.771026 24.871025999999997
24.871025999999997 18.921025999999998 18.921025999999998
24.871025999999997 18.921025999999998 24.871025999999997
24.871025999999997 18.921025999999998 30.821025999999996
24.871025999999997 18.921025999999998 36.771026
24.871025999999997 24.871025999999997 18.921025999999998
24.871025999999997 24.871025999999997 24.871025999999997
24.871025999999997 24.871025999999997 30.821025999999996
24.871025999999997 30.821025999999996 24.871025999999997
24.871025999999997 30.821025999999996 30.821025999999996
24.871025999999997 36.771026 18.921025999999998
24.871025999999997 36.771026 24.871025999999997
24.871025999999997 36.771026 36.771026
30.821025999999996 18.921025999999998 18.921025999999998
30.821025999999996 18.921025999999998 24.871025999999997
30.821025999999996 24.871025999999997 18.921025999999998
30.821025999999996 24.871025999999997 24.871025999999997
30.821025999999996 24.871025999999997 30.821025999999996
30.821025999999996 24.871025999999997 36.771026
30.821025999999996 30.821025999999996 24.871025999999997
30.821025999999996 30.821025999999996 30.821025999999996
30.821025999999996 30.821025999999996 36.771026
30.821025999999996 36.771026 18.921025999999998
30.821025999999996 36.771026 30.821025999999996
36.771026 18.921025999999998 24.871025999999997
36.771026 18.921025999999998 30.821025999999996
36.771026 24.871025999999997 24.871025999999997
36.771026 24.871025999999997 30.821025999999996
36.771026 24.871025999999997 36.771026
36.771026 30.821025999999996 18.921025999999998
36.771026 30.821025999999996 30.821025999999996
25.015683999999997 21.85881 38.651438
27.846026 21.896026 39.764165999999996
28.392776999999995 23.499064999999998 39.239065999999994
25.642003 22.881987 40.50839499999999
26.118553999999996 24.470426999999997 39.892461999999995
28.000163999999998 24.551862999999997 41.548131
27.543357 22.953477999999997 42.146232
25.287592999999998 23.851056999999997 42.806966
25.731423999999997 25.443938999999997 42.193659
27.139923999999997 23.987969999999997 44.505836
27.596801999999997 25.574237999999998 43.881831
24.865730999999997 24.870621999999997 45.113224
25.299369999999996 26.450347999999998 44.458394999999996
26.705153999999997 25.070878999999998 46.819496
27.145576999999996 26.645805999999997 46.157410999999996
24.411254 25.959113 47.42828299999999
24.853351999999997 27.545623 46.75686399999999
25.697656 26.920935999999998 48.192052
25.015683999999997 27.808809999999998 38.651438
27.846026 27.846026 39.764165999999996
28.392776999999995 29.449064999999997 39.239065999999994
25.642003 28.831986999999998 40.50839499999999
26.118553999999996 30.420426999999997 39.892461999999995
28.000163999999998 30.501863 41.548131
27.543357 28.903478 42.146232
25.287592999999998 29.801057 42.806966
25.731423999999997 31.393938999999996 42.193659
27.139923999999997 29.93797 44.505836
27.596801999999997 31.524237999999997 43.881831
24.865730999999997 30.820622 45.113224
25.299369999999996 32.400347999999994 44.458394999999996
26.705153999999997 31.020878999999997 46.819496
27.145576999999996 32.595805999999996 46.157410999999996
24.411254 31.909112999999998 47.42828299999999
24.853351999999997 33.495622999999995 46.75686399999999
25.697656 32.870936 48.192052
19.065683999999997 21.85881 38.651438
21.896026 21.896026 39.764165999999996
22.442777 23.499064999999998 39.239065999999994
19.692003 22.881987 40.50839499999999
20.168553999999997 24.470426999999997 39.892461999999995
22.050164 24.551862999999997 41.548131
21.593356999999997 22.953477999999997 42.146232
19.337593 23.851056999999997 42.806966
19.781423999999998 25.443938999999997 42.193659
21.189923999999998 23.987969999999997 44.505836
21.646801999999997 25.574237999999998 43.881831
18.915730999999997 24.870621999999997 45.113224
19.349369999999997 26.450347999999998 44.458394999999996
20.755153999999997 25.070878999999998 46.819496
21.195577 26.645805999999997 46.157410999999996
18.461253999999997 25.959113 47.42828299999999
18.903351999999998 27.545623 46.75686399999999
19.747656 26.920935999999998 48.192052
19.065683999999997 27.808809999999998 38.651438
21.896026 27.846026 39.764165999999996
22.442777 29.449064999999997 39.239065999999994
19.692003 28.831986999999998 40.50839499999999
20.168553999999997 30.420426999999997 39.892461999999995
22.050164 30.501863 41.548131
21.593356999999997 28.903478 42.146232
19.337593 29.801057 42.806966
19.781423999999998 31.393938999999996 42.193659
21.189923999999998 29.93797 44.505836
21.646801999999997 31.524237999999997 43.881831
18.915730999999997 30.820622 45.113224
19.349369999999997 32.400347999999994 44.458394999999996
20.755153999999997 31.020878999999997 46.819496
21.195577 32.595805999999996 46.157410999999996
18.461253999999997 31.909112999999998 47.42828299999999
18.903351999999998 33.495622999999995 46.75686399999999
19.747656 32.870936 48.192052
36.626368 21.85881 17.040613999999998
33.796026 21.896026 15.927885999999997
33.249275 23.499064999999998 16.452985999999996
36.000049 22.881987 15.183656999999997
35.523498 24.470426999999997 15.799589999999998
33.641887999999994 24.551862999999997 14.143920999999999
34.098695 22.953477999999997 13.545819999999997
36.354459 23.851056999999997 12.885085999999998
35.910628 25.443938999999997 13.498392999999997
34.502128 23.987969999999997 11.186215999999998
34.045249999999996 25.574237999999998 11.810220999999999
36.776320999999996 24.870621999999997 10.578827999999998
36.342681999999996 26.450347999999998 11.233656999999997
34.936898 25.070878999999998 8.872555999999998
34.496475 26.645805999999997 9.534640999999997
37.23079799999999 25.959113 8.263768999999998
36.7887 27.545623 8.935187999999998
35.944396 26.920935999999998 7.499999999999998
36.626368 33.75881 17.040613999999998
33.796026 33.796026 15.927885999999997
33.249275 35.39906499999999 16.452985999999996
36.000049 34.781987 15.183656999999997
35.523498 36.370427 15.799589999999998
33.641887999999994 36.451862999999996 14.143920999999999
34.098695 34.853477999999996 13.545819999999997
36.354459 35.751057 12.885085999999998
35.910628 37.343939 13.498392999999997
34.502128 35.887969999999996 11.186215999999998
34.045249999999996 37.474238 11.810220999999999
36.776320999999996 36.770621999999996 10.578827999999998
36.342681999999996 38.350348 11.233656999999997
34.936898 36.970879 8.872555999999998
34.496475 38.545806 9.534640999999997
37.23079799999999 37.859112999999994 8.263768999999998
36.7887 39.445623 8.935187999999998
35.944396 38.820935999999996 7.499999999999998
24.726367999999997 27.808809999999998 17.040613999999998
21.896026 27.846026 15.927885999999997
21.349275 29.449064999999997 16.452985999999996
24.100049 28.831986999999998 15.183656999999997
23.623497999999998 30.420426999999997 15.799589999999998
21.741887999999996 30.501863 14.143920999999999
22.198694999999997 28.903478 13.545819999999997
24.454458999999996 29.801057 12.885085999999998
24.010627999999997 31.393938999999996 13.498392999999997
22.602127999999997 29.93797 11.186215999999998
22.145249999999997 31.524237999999997 11.810220999999999
24.876320999999997 30.820622 10.578827999999998
24.442681999999998 32.400347999999994 11.233656999999997
23.036897999999997 31.020878999999997 8.872555999999998
22.596474999999998 32.595805999999996 9.534640999999997
25.330797999999998 31.909112999999998 8.263768999999998
24.888699999999996 33.495622999999995 8.935187999999998
24.044396 32.870936 7.499999999999998
30.676367999999997 27.808809999999998 17.040613999999998
27.846026 27.846026 15.927885999999997
27.299274999999998 29.449064999999997 16.452985999999996
30.050048999999998 28.831986999999998 15.183656999999997
29.573497999999997 30.420426999999997 15.799589999999998
27.691888 30.501863 14.143920999999999
28.148694999999996 28.903478 13.545819999999997
30.404458999999996 29.801057 12.885085999999998
29.960628 31.393938999999996 13.498392999999997
28.552127999999996 29.93797 11.186215999999998
28.09525 31.524237999999997 11.810220999999999
30.826321 30.820622 10.578827999999998
30.392681999999997 32.400347999999994 11.233656999999997
28.986897999999997 31.020878999999997 8.872555999999998
28.546474999999997 32.595805999999996 9.534640999999997
31.280797999999997 31.909112999999998 8.263768999999998
30.838699999999996 33.495622999999995 8.935187999999998
29.994396 32.870936 7.499999999999998
17.040613999999998 33.75881 19.065683999999997
15.927885999999997 33.796026 21.896026
16.452985999999996 35.39906499999999 22.442777
15.183656999999997 34.781987 19.692003
15.799589999999998 36.370427 20.168553999999997
14.143920999999999 36.451862999999996 22.050164
13.545819999999997 34.853477999999996 21.593356999999997
12.885085999999998 35.751057 19.337593
13.498392999999997 37.343939 19.781423999999998
11.186215999999998 35.887969999999996 21.189923999999998
11.810220999999999 37.474238 21.646801999999997
10.578827999999998 36.770621999999996 18.915730999999997
11.233656999999997 38.350348 19.349369999999997
8.872555999999998 36.970879 20.755153999999997
9.534640999999997 38.545806 21.195577
8.263768999999998 37.859112999999994 18.461253999999997
8.935187999999998 39.445623 18.903351999999998
7.499999999999998 38.820935999999996 19.747656
17.040613999999998 33.75881 30.965683999999996
15.927885999999997 33.796026 33.796026
16.452985999999996 35.39906499999999 34.342777
15.183656999999997 34.781987 31.592003
15.799589999999998 36.370427 32.068554
14.143920999999999 36.451862999999996 33.950164
13.545819999999997 34.853477999999996 33.493356999999996
12.885085999999998 35.751057 31.237592999999997
13.498392999999997 37.343939 31.681424
11.186215999999998 35.887969999999996 33.089923999999996
11.810220999999999 37.474238 33.546802
10.578827999999998 36.770621999999996 30.815731
11.233656999999997 38.350348 31.24937
8.872555999999998 36.970879 32.655153999999996
9.534640999999997 38.545806 33.095577
8.263768999999998 37.859112999999994 30.361253999999995
8.935187999999998 39.445623 30.803351999999997
7.499999999999998 38.820935999999996 31.647655999999998
17.040613999999998 27.808809999999998 19.065683999999997
15.927885999999997 27.846026 21.896026
16.452985999999996 29.449064999999997 22.442777
15.183656999999997 28.831986999999998 19.692003
15.799589999999998 30.420426999999997 20.168553999999997
14.143920999999999 30.501863 22.050164
13.545819999999997 28.903478 21.593356999999997
12.885085999999998 29.801057 19.337593
13.498392999999997 31.393938999999996 19.781423999999998
11.186215999999998 29.93797 21.189923999999998
11.810220999999999 31.524237999999997 21.646801999999997
10.578827999999998 30.820622 18.915730999999997
11.233656999999997 32.400347999999994 19.349369999999997
8.872555999999998 31.020878999999997 20.755153999999997
9.534640999999997 32.595805999999996 21.195577
8.263768999999998 31.909112999999998 18.461253999999997
8.935187999999998 33.495622999999995 18.903351999999998
7.499999999999998 32.870936 19.747656
17.040613999999998 21.85881 19.065683999999997
15.927885999999997 21.896026 21.896026
16.452985999999996 23.499064999999998 22.442777
15.183656999999997 22.881987 19.692003
15.799589999999998 24.470426999999997 20.168553999999997
14.143920999999999 24.551862999999997 22.050164
13.545819999999997 22.953477999999997 21.593356999999997
12.885085999999998 23.851056999999997 19.337593
13.498392999999997 25.443938999999997 19.781423999999998
11.186215999999998 23.987969999999997 21.189923999999998
11.810220999999999 25.574237999999998 21.646801999999997
10.578827999999998 24.870621999999997 18.915730999999997
11.233656999999997 26.450347999999998 19.349369999999997
8.872555999999998 25.070878999999998 20.755153999999997
9.534640999999997 26.645805999999997 21.195577
8.263768999999998 25.959113 18.461253999999997
8.935187999999998 27.545623 18.903351999999998
7.499999999999998 26.920935999999998 19.747656
38.651438 27.808809999999998 24.726367999999997
39.764165999999996 27.846026 21.896026
39.239065999999994 29.449064999999997 21.349275
40.50839499999999 28.831986999999998 24.100049
39.892461999999995 30.420426999999997 23.623497999999998
41.548131 30.501863 21.741887999999996
42.146232 28.903478 22.198694999999997
42.806966 29.801057 24.454458999999996
42.193659 31.393938999999996 24.010627999999997
44.505836 29.93797 22.602127999999997
43.881831 31.524237999999997 22.145249999999997
45.113224 30.820622 24.876320999999997
44.458394999999996 32.400347999999994 24.442681999999998
46.819496 31.020878999999997 23.036897999999997
46.157410999999996 32.595805999999996 22.596474999999998
47.42828299999999 31.909112999999998 25.330797999999998
46.75686399999999 33.495622999999995 24.888699999999996
48.192052 32.870936 24.044396
38.651438 27.808809999999998 36.626368
39.764165999999996 27.846026 33.796026
39.239065999999994 29.449064999999997 33.249275
40.50839499999999 28.831986999999998 36.000049
39.892461999999995 30.420426999999997 35.523498
41.548131 30.501863 33.641887999999994
42.146232 28.903478 34.098695
42.806966 29.801057 36.354459
42.193659 31.393938999999996 35.910628
44.505836 29.93797 34.502128
43.881831 31.524237999999997 34.045249999999996
45.113224 30.820622 36.776320999999996
44.458394999999996 32.400347999999994 36.342681999999996
46.819496 31.020878999999997 34.936898
46.157410999999996 32.595805999999996 34.496475
47.42828299999999 31.909112999999998 37.23079799999999
46.75686399999999 33.495622999999995 36.7887
48.192052 32.870936 35.944396
38.651438 33.75881 30.676367999999997
39.764165999999996 33.796026 27.846026
39.239065999999994 35.39906499999999 27.299274999999998
40.50839499999999 34.781987 30.050048999999998
39.892461999999995 36.370427 29.573497999999997
41.548131 36.451862999999996 27.691888
42.146232 34.853477999999996 28.148694999999996
42.806966 35.751057 30.404458999999996
42.193659 37.343939 29.960628
44.505836 35.887969999999996 28.552127999999996
43.881831 37.474238 28.09525
45.113224 36.770621999999996 30.826321
44.458394999999996 38.350348 30.392681999999997
46.819496 36.970879 28.986897999999997
46.157410999999996 38.545806 28.546474999999997
47.42828299999999 37.859112999999994 31.280797999999997
46.75686399999999 39.445623 30.838699999999996
48.192052 38.820935999999996 29.994396
38.651438 33.75881 24.726367999999997
39.764165999999996 33.796026 21.896026
39.239065999999994 35.39906499999999 21.349275
40.50839499999999 34.781987 24.100049
39.892461999999995 36.370427 23.623497999999998
41.548131 36.451862999999996 21.741887999999996
42.146232 34.853477999999996 22.198694999999997
42.806966 35.751057 24.454458999999996
42.193659 37.343939 24.010627999999997
44.505836 35.887969999999996 22.602127999999997
43.881831 37.474238 22.145249999999997
45.113224 36.770621999999996 24.876320999999997
44.458394999999996 38.350348 24.442681999999998
46.819496 36.970879 23.036897999999997
46.157410999999996 38.545806 22.596474999999998
47.42828299999999 37.859112999999994 25.330797999999998
46.75686399999999 39.445623 24.888699999999996
48.192052 38.820935999999996 24.044396
19.065683999999997 17.040613999999998 27.808809999999998
21.896026 15.927885999999997 27.846026
22.442777 16.452985999999996 29.449064999999997
19.692003 15.183656999999997 28.831986999999998
20.168553999999997 15.799589999999998 30.420426999999997
22.050164 14.143920999999999 30.501863
21.593356999999997 13.545819999999997 28.903478
19.337593 12.885085999999998 29.801057
19.781423999999998 13.498392999999997 31.393938999999996
21.189923999999998 11.186215999999998 29.93797
21.646801999999997 11.810220999999999 31.524237999999997
18.915730999999997 10.578827999999998 30.820622
19.349369999999997 11.233656999999997 32.400347999999994
20.755153999999997 8.872555999999998 31.020878999999997
21.195577 9.534640999999997 32.595805999999996
18.461253999999997 8.263768999999998 31.909112999999998
18.903351999999998 8.935187999999998 33.495622999999995
19.747656 7.499999999999998 32.870936
30.965683999999996 17.040613999999998 33.75881