3_train/281_cspbbr3_MA-GSH_3_0.40\281_cspbbr3_MA-GSH_3_0.40.xyz
1.0
59.211526 0 0
0 59.211526 0
0 0 59.211526
Br C Cs H N O Pb S 
84 260 34 528 92 144 27 24 
Cartesian
23.655763 23.655763 20.680763
23.655763 20.680763 23.655763
23.655763 23.655763 26.630762999999998
23.655763 20.680763 29.605763
20.680763 23.655763 29.605763
23.655763 23.655763 32.580763
23.655763 20.680763 35.555763
20.680763 23.655763 35.555763
23.655763 23.655763 38.530763
23.655763 26.630762999999998 23.655763
23.655763 29.605763 26.630762999999998
23.655763 26.630762999999998 29.605763
20.680763 29.605763 29.605763
23.655763 29.605763 32.580763
23.655763 26.630762999999998 35.555763
23.655763 35.555763 20.680763
23.655763 32.580763 23.655763
23.655763 35.555763 26.630762999999998
23.655763 32.580763 29.605763
20.680763 35.555763 29.605763
23.655763 35.555763 32.580763
23.655763 32.580763 35.555763
20.680763 35.555763 35.555763
23.655763 38.530763 23.655763
29.605763 23.655763 20.680763
26.630762999999998 23.655763 23.655763
29.605763 23.655763 26.630762999999998
26.630762999999998 23.655763 29.605763
29.605763 23.655763 32.580763
29.605763 20.680763 35.555763
26.630762999999998 23.655763 35.555763
29.605763 29.605763 20.680763
29.605763 26.630762999999998 23.655763
26.630762999999998 29.605763 23.655763
29.605763 29.605763 26.630762999999998
29.605763 26.630762999999998 29.605763
26.630762999999998 29.605763 29.605763
29.605763 29.605763 32.580763
29.605763 26.630762999999998 35.555763
26.630762999999998 29.605763 35.555763
29.605763 29.605763 38.530763
29.605763 35.555763 20.680763
29.605763 32.580763 23.655763
26.630762999999998 35.555763 23.655763
29.605763 35.555763 26.630762999999998
29.605763 32.580763 29.605763
26.630762999999998 35.555763 29.605763
29.605763 35.555763 32.580763
29.605763 32.580763 35.555763
26.630762999999998 35.555763 35.555763
29.605763 38.530763 29.605763
35.555763 20.680763 23.655763
32.580763 23.655763 23.655763
35.555763 23.655763 26.630762999999998
32.580763 23.655763 29.605763
35.555763 23.655763 32.580763
32.580763 23.655763 35.555763
35.555763 23.655763 38.530763
35.555763 26.630762999999998 23.655763
32.580763 29.605763 23.655763
35.555763 29.605763 26.630762999999998
35.555763 26.630762999999998 29.605763
32.580763 29.605763 29.605763
35.555763 29.605763 32.580763
35.555763 26.630762999999998 35.555763
32.580763 29.605763 35.555763
35.555763 29.605763 38.530763
35.555763 32.580763 23.655763
32.580763 35.555763 23.655763
35.555763 35.555763 26.630762999999998
35.555763 32.580763 29.605763
32.580763 35.555763 29.605763
35.555763 35.555763 32.580763
35.555763 32.580763 35.555763
32.580763 35.555763 35.555763
35.555763 35.555763 38.530763
35.555763 38.530763 23.655763
35.555763 38.530763 29.605763
35.555763 38.530763 35.555763
38.530763 29.605763 23.655763
38.530763 29.605763 29.605763
38.530763 29.605763 35.555763
38.530763 35.555763 23.655763
38.530763 35.555763 35.555763
23.061237 28.303787 40.491977
23.08587 28.646309 39.021249999999995
23.632562999999998 29.388489999999997 42.595310999999995
24.310713999999997 30.595474 43.262938
23.638361 31.940556 42.882920999999996
25.065927 31.060311 45.545006
24.950997 30.674757999999997 47.010982999999996
25.060647 31.895896 47.924645
24.906137 31.523985 49.409456
25.385018 32.697376 50.275962
23.061237 34.253787 40.491977
23.08587 34.596309 39.021249999999995
23.632562999999998 35.33849 42.595310999999995
24.310713999999997 36.545474 43.262938
23.638361 37.890556000000004 42.882920999999996
25.065927 37.010311 45.545006
24.950997 36.624758 47.010982999999996
25.060647 37.845895999999996 47.924645
24.906137 37.473985 49.409456
25.385018 38.647375999999994 50.275962
29.011237 34.253787 40.491977
29.03587 34.596309 39.021249999999995
29.582563 35.33849 42.595310999999995
30.260714 36.545474 43.262938
29.588361 37.890556000000004 42.882920999999996
31.015926999999998 37.010311 45.545006
30.900996999999997 36.624758 47.010982999999996
31.010647 37.845895999999996 47.924645
30.856136999999997 37.473985 49.409456
31.335017999999998 38.647375999999994 50.275962
29.011237 22.353786999999997 40.491977
29.03587 22.696309 39.021249999999995
29.582563 23.438489999999998 42.595310999999995
30.260714 24.645474 43.262938
29.588361 25.990555999999998 42.882920999999996
31.015926999999998 25.110311 45.545006
30.900996999999997 24.724757999999998 47.010982999999996
31.010647 25.945895999999998 47.924645
30.856136999999997 25.573985 49.409456
31.335017999999998 26.747376 50.275962
36.150289 22.353786999999997 18.719549
36.125656 22.696309 20.190275999999997
35.578963 23.438489999999998 16.616214999999997
34.900812 24.645474 15.948587999999999
35.573165 25.990555999999998 16.328605
34.145599 25.110311 13.666519999999998
34.260529 24.724757999999998 12.200543
34.150879 25.945895999999998 11.286881
34.305389 25.573985 9.802069999999999
33.826508 26.747376 8.935564
24.250289 28.303787 18.719549
24.225656 28.646309 20.190275999999997
23.678963 29.388489999999997 16.616214999999997
23.000812 30.595474 15.948587999999999
23.673164999999997 31.940556 16.328605
22.245599 31.060311 13.666519999999998
22.360529 30.674757999999997 12.200543
22.250878999999998 31.895896 11.286881
22.405389 31.523985 9.802069999999999
21.926508 32.697376 8.935564
36.150289 28.303787 18.719549
36.125656 28.646309 20.190275999999997
35.578963 29.388489999999997 16.616214999999997
34.900812 30.595474 15.948587999999999
35.573165 31.940556 16.328605
34.145599 31.060311 13.666519999999998
34.260529 30.674757999999997 12.200543
34.150879 31.895896 11.286881
34.305389 31.523985 9.802069999999999
33.826508 32.697376 8.935564
36.150289 34.253787 18.719549
36.125656 34.596309 20.190275999999997
35.578963 35.33849 16.616214999999997
34.900812 36.545474 15.948587999999999
35.573165 37.890556000000004 16.328605
34.145599 37.010311 13.666519999999998
34.260529 36.624758 12.200543
34.150879 37.845895999999996 11.286881
34.305389 37.473985 9.802069999999999
33.826508 38.647375999999994 8.935564
18.719549 22.353786999999997 23.061237
20.190275999999997 22.696309 23.08587
16.616214999999997 23.438489999999998 23.632562999999998
15.948587999999999 24.645474 24.310713999999997
16.328605 25.990555999999998 23.638361
13.666519999999998 25.110311 25.065927
12.200543 24.724757999999998 24.950997
11.286881 25.945895999999998 25.060647
9.802069999999999 25.573985 24.906137
8.935564 26.747376 25.385018
18.719549 28.303787 23.061237
20.190275999999997 28.646309 23.08587
16.616214999999997 29.388489999999997 23.632562999999998
15.948587999999999 30.595474 24.310713999999997
16.328605 31.940556 23.638361
13.666519999999998 31.060311 25.065927
12.200543 30.674757999999997 24.950997
11.286881 31.895896 25.060647
9.802069999999999 31.523985 24.906137
8.935564 32.697376 25.385018
18.719549 34.253787 23.061237
20.190275999999997 34.596309 23.08587
16.616214999999997 35.33849 23.632562999999998
15.948587999999999 36.545474 24.310713999999997
16.328605 37.890556000000004 23.638361
13.666519999999998 37.010311 25.065927
12.200543 36.624758 24.950997
11.286881 37.845895999999996 25.060647
9.802069999999999 37.473985 24.906137
8.935564 38.647375999999994 25.385018
18.719549 28.303787 34.961237
20.190275999999997 28.646309 34.98587
16.616214999999997 29.388489999999997 35.532562999999996
15.948587999999999 30.595474 36.210713999999996
16.328605 31.940556 35.538360999999995
13.666519999999998 31.060311 36.965927
12.200543 30.674757999999997 36.850997
11.286881 31.895896 36.960646999999994
9.802069999999999 31.523985 36.806137
8.935564 32.697376 37.285017999999994
40.491977 22.353786999999997 24.250289
39.021249999999995 22.696309 24.225656
42.595310999999995 23.438489999999998 23.678963
43.262938 24.645474 23.000812
42.882920999999996 25.990555999999998 23.673164999999997
45.545006 25.110311 22.245599
47.010982999999996 24.724757999999998 22.360529
47.924645 25.945895999999998 22.250878999999998
49.409456 25.573985 22.405389
50.275962 26.747376 21.926508
40.491977 22.353786999999997 36.150289
39.021249999999995 22.696309 36.125656
42.595310999999995 23.438489999999998 35.578963
43.262938 24.645474 34.900812
42.882920999999996 25.990555999999998 35.573165
45.545006 25.110311 34.145599
47.010982999999996 24.724757999999998 34.260529
47.924645 25.945895999999998 34.150879
49.409456 25.573985 34.305389
50.275962 26.747376 33.826508
40.491977 34.253787 30.200288999999998
39.021249999999995 34.596309 30.175655999999996
42.595310999999995 35.33849 29.628963
43.262938 36.545474 28.950812
42.882920999999996 37.890556000000004 29.623165
45.545006 37.010311 28.195598999999998
47.010982999999996 36.624758 28.310529
47.924645 37.845895999999996 28.200879
49.409456 37.473985 28.355389
50.275962 38.647375999999994 27.876507999999998
40.491977 22.353786999999997 30.200288999999998
39.021249999999995 22.696309 30.175655999999996
42.595310999999995 23.438489999999998 29.628963
43.262938 24.645474 28.950812
42.882920999999996 25.990555999999998 29.623165
45.545006 25.110311 28.195598999999998
47.010982999999996 24.724757999999998 28.310529
47.924645 25.945895999999998 28.200879
49.409456 25.573985 28.355389
50.275962 26.747376 27.876507999999998
34.961237 18.719549 28.303787
34.98587 20.190275999999997 28.646309
35.532562999999996 16.616214999999997 29.388489999999997
36.210713999999996 15.948587999999999 30.595474
35.538360999999995 16.328605 31.940556
36.965927 13.666519999999998 31.060311
36.850997 12.200543 30.674757999999997
36.960646999999994 11.286881 31.895896
36.806137 9.802069999999999 31.523985
37.285017999999994 8.935564 32.697376
29.011237 18.719549 28.303787
29.03587 20.190275999999997 28.646309
29.582563 16.616214999999997 29.388489999999997
30.260714 15.948587999999999 30.595474
29.588361 16.328605 31.940556
31.015926999999998 13.666519999999998 31.060311
30.900996999999997 12.200543 30.674757999999997
31.010647 11.286881 31.895896
30.856136999999997 9.802069999999999 31.523985
31.335017999999998 8.935564 32.697376
34.961237 18.719549 34.253787
34.98587 20.190275999999997 34.596309
35.532562999999996 16.616214999999997 35.33849
36.210713999999996 15.948587999999999 36.545474
35.538360999999995 16.328605 37.890556000000004
36.965927 13.666519999999998 37.010311
36.850997 12.200543 36.624758
36.960646999999994 11.286881 37.845895999999996
36.806137 9.802069999999999 37.473985
37.285017999999994 8.935564 38.647375999999994
29.011237 18.719549 22.353786999999997
29.03587 20.190275999999997 22.696309
29.582563 16.616214999999997 23.438489999999998
30.260714 15.948587999999999 24.645474
29.588361 16.328605 25.990555999999998
31.015926999999998 13.666519999999998 25.110311
30.900996999999997 12.200543 24.724757999999998
31.010647 11.286881 25.945895999999998
30.856136999999997 9.802069999999999 25.573985
31.335017999999998 8.935564 26.747376
29.011237 40.491977 36.857738999999995
29.03587 39.021249999999995 36.515217
29.582563 42.595310999999995 35.773036
30.260714 43.262938 34.566052
29.588361 42.882920999999996 33.22097
31.015926999999998 45.545006 34.101214999999996
30.900996999999997 47.010982999999996 34.486768
31.010647 47.924645 33.26563
30.856136999999997 49.409456 33.637541
31.335017999999998 50.275962 32.46415
23.061237 40.491977 30.907739
23.08587 39.021249999999995 30.565216999999997
23.632562999999998 42.595310999999995 29.823036
24.310713999999997 43.262938 28.616052
23.638361 42.882920999999996 27.27097
25.065927 45.545006 28.151215
24.950997 47.010982999999996 28.536768
25.060647 47.924645 27.31563
24.906137 49.409456 27.687541
25.385018 50.275962 26.51415
29.011237 40.491977 24.957739
29.03587 39.021249999999995 24.615217
29.582563 42.595310999999995 23.873036
30.260714 43.262938 22.666052
29.588361 42.882920999999996 21.32097
31.015926999999998 45.545006 22.201214999999998
30.900996999999997 47.010982999999996 22.586768
31.010647 47.924645 21.36563
30.856136999999997 49.409456 21.737541
31.335017999999998 50.275962 20.564149999999998
23.061237 40.491977 36.857738999999995
23.08587 39.021249999999995 36.515217
23.632562999999998 42.595310999999995 35.773036
24.310713999999997 43.262938 34.566052
23.638361 42.882920999999996 33.22097
25.065927 45.545006 34.101214999999996
24.950997 47.010982999999996 34.486768
25.060647 47.924645 33.26563
24.906137 49.409456 33.637541
25.385018 50.275962 32.46415
19.637313 26.630762999999998 19.637313
19.205102 26.630762999999998 32.580763
19.637313 26.630762999999998 39.574213
19.637313 32.580763 19.637313
19.637313 32.580763 39.574213
19.637313 39.574213 32.580763
26.630762999999998 19.637313 19.637313
26.630762999999998 19.205102 26.630762999999998
26.630762999999998 19.637313 39.574213
26.630762999999998 26.630762999999998 19.205102
26.630762999999998 32.580763 40.006423999999996
26.630762999999998 40.006423999999996 26.630762999999998
26.630762999999998 39.574213 39.574213
32.580763 19.205102 26.630762999999998
32.580763 19.205102 32.580763
39.574213 19.637313 26.630762999999998
39.574213 19.637313 32.580763
39.574213 26.630762999999998 19.637313
39.574213 32.580763 19.637313
40.006423999999996 32.580763 32.580763
20.680763 20.680763 26.630762999999998
20.680763 20.680763 32.580763
20.680763 26.630762999999998 26.630762999999998
20.680763 32.580763 26.630762999999998
20.680763 32.580763 32.580763
20.680763 38.530763 26.630762999999998
26.630762999999998 20.680763 32.580763
26.630762999999998 26.630762999999998 26.630762999999998
26.630762999999998 26.630762999999998 32.580763
26.630762999999998 26.630762999999998 38.530763
26.630762999999998 32.580763 26.630762999999998
26.630762999999998 32.580763 32.580763
26.630762999999998 38.530763 20.680763
26.630762999999998 38.530763 32.580763
32.580763 20.680763 20.680763
32.580763 20.680763 38.530763
32.580763 26.630762999999998 20.680763
32.580763 26.630762999999998 26.630762999999998
32.580763 26.630762999999998 32.580763
32.580763 26.630762999999998 38.530763
32.580763 32.580763 26.630762999999998
32.580763 32.580763 32.580763
32.580763 32.580763 38.530763
32.580763 38.530763 20.680763
32.580763 38.530763 26.630762999999998
32.580763 38.530763 32.580763
32.580763 38.530763 38.530763
38.530763 26.630762999999998 26.630762999999998
38.530763 26.630762999999998 32.580763
38.530763 26.630762999999998 38.530763
38.530763 32.580763 26.630762999999998
38.530763 32.580763 38.530763
38.530763 38.530763 26.630762999999998
38.530763 38.530763 32.580763
23.537591 27.316161 40.628311999999994
22.451127 28.003598 37.358365
22.017508999999997 28.179119 40.827109
24.147076 30.115763 40.726608
25.370272999999997 30.652092 42.959418
22.542948 31.836492999999997 42.879654
23.91256 32.683045 43.641883
25.353156 32.930392999999995 41.576429
23.655763 29.605763 44.991256
25.783051999999998 29.981746 47.230250999999996
24.017773 30.127259 47.210802
24.278492999999997 32.630179999999996 47.66191
26.026787 32.393957 47.766469
25.631559 30.718195 49.628052999999994
22.872177999999998 31.738849 49.534782
23.480168 30.705219999999997 50.648134
24.880159 33.816517 51.711526
23.537591 33.266161 40.628311999999994
22.451127 33.953598 37.358365
22.017508999999997 34.129119 40.827109
24.147076 36.065763 40.726608
25.370272999999997 36.602092 42.959418
22.542948 37.786493 42.879654
23.91256 38.633044999999996 43.641883
25.353156 38.880393 41.576429
23.655763 35.555763 44.991256
25.783051999999998 35.931746 47.230250999999996
24.017773 36.077259 47.210802
24.278492999999997 38.58018 47.66191
26.026787 38.343957 47.766469
25.631559 36.668195 49.628052999999994
22.872177999999998 37.688849 49.534782
23.480168 36.65522 50.648134
24.880159 39.766517 51.711526
29.487591 33.266161 40.628311999999994
28.401127 33.953598 37.358365
27.967509 34.129119 40.827109
30.097076 36.065763 40.726608
31.320273 36.602092 42.959418
28.492948 37.786493 42.879654
29.86256 38.633044999999996 43.641883
31.303156 38.880393 41.576429
29.605763 35.555763 44.991256
31.733052 35.931746 47.230250999999996
29.967773 36.077259 47.210802
30.228493 38.58018 47.66191
31.976786999999998 38.343957 47.766469
31.581559 36.668195 49.628052999999994
28.822178 37.688849 49.534782
29.430168 36.65522 50.648134
30.830159 39.766517 51.711526
29.487591 21.366160999999998 40.628311999999994
28.401127 22.053598 37.358365
27.967509 22.229118999999997 40.827109
30.097076 24.165763 40.726608
31.320273 24.702092 42.959418
28.492948 25.886492999999998 42.879654
29.86256 26.733044999999997 43.641883
31.303156 26.980393 41.576429
29.605763 23.655763 44.991256
31.733052 24.031746 47.230250999999996
29.967773 24.177259 47.210802
30.228493 26.68018 47.66191
31.976786999999998 26.443956999999997 47.766469
31.581559 24.768195 49.628052999999994
28.822178 25.788849 49.534782
29.430168 24.755219999999998 50.648134
30.830159 27.866516999999998 51.711526
35.673935 21.366160999999998 18.583213999999998
36.760399 22.053598 21.853161
37.194017 22.229118999999997 18.384417
35.06445 24.165763 18.484918
33.841252999999995 24.702092 16.252108
36.668578 25.886492999999998 16.331871999999997
35.298966 26.733044999999997 15.569643
33.85837 26.980393 17.635097
35.555763 23.655763 14.22027
33.428474 24.031746 11.981274999999998
35.193753 24.177259 12.000723999999998
34.933032999999995 26.68018 11.549615999999999
33.184739 26.443956999999997 11.445056999999998
33.579966999999996 24.768195 9.583473
36.339348 25.788849 9.676744
35.731358 24.755219999999998 8.563391999999999
34.331367 27.866516999999998 7.499999999999998
23.773934999999998 27.316161 18.583213999999998
24.860399 28.003598 21.853161
25.294017 28.179119 18.384417
23.16445 30.115763 18.484918
21.941253 30.652092 16.252108
24.768577999999998 31.836492999999997 16.331871999999997
23.398965999999998 32.683045 15.569643
21.95837 32.930392999999995 17.635097
23.655763 29.605763 14.22027
21.528474 29.981746 11.981274999999998
23.293753 30.127259 12.000723999999998
23.033033 32.630179999999996 11.549615999999999
21.284739 32.393957 11.445056999999998
21.679966999999998 30.718195 9.583473
24.439348 31.738849 9.676744
23.831357999999998 30.705219999999997 8.563391999999999
22.431366999999998 33.816517 7.499999999999998
35.673935 27.316161 18.583213999999998
36.760399 28.003598 21.853161
37.194017 28.179119 18.384417
35.06445 30.115763 18.484918
33.841252999999995 30.652092 16.252108
36.668578 31.836492999999997 16.331871999999997
35.298966 32.683045 15.569643
33.85837 32.930392999999995 17.635097
35.555763 29.605763 14.22027
33.428474 29.981746 11.981274999999998
35.193753 30.127259 12.000723999999998
34.933032999999995 32.630179999999996 11.549615999999999
33.184739 32.393957 11.445056999999998
33.579966999999996 30.718195 9.583473
36.339348 31.738849 9.676744
35.731358 30.705219999999997 8.563391999999999
34.331367 33.816517 7.499999999999998
35.673935 33.266161 18.583213999999998
36.760399 33.953598 21.853161
37.194017 34.129119 18.384417
35.06445 36.065763 18.484918
33.841252999999995 36.602092 16.252108
36.668578 37.786493 16.331871999999997
35.298966 38.633044999999996 15.569643
33.85837 38.880393 17.635097
35.555763 35.555763 14.22027
33.428474 35.931746 11.981274999999998
35.193753 36.077259 12.000723999999998
34.933032999999995 38.58018 11.549615999999999
33.184739 38.343957 11.445056999999998
33.579966999999996 36.668195 9.583473
36.339348 37.688849 9.676744
35.731358 36.65522 8.563391999999999
34.331367 39.766517 7.499999999999998
18.583213999999998 21.366160999999998 23.537591
21.853161 22.053598 22.451127
18.384417 22.229118999999997 22.017508999999997
18.484918 24.165763 24.147076
16.252108 24.702092 25.370272999999997
16.331871999999997 25.886492999999998 22.542948
15.569643 26.733044999999997 23.91256
17.635097 26.980393 25.353156
14.22027 23.655763 23.655763
11.981274999999998 24.031746 25.783051999999998
12.000723999999998 24.177259 24.017773
11.549615999999999 26.68018 24.278492999999997
11.445056999999998 26.443956999999997 26.026787
9.583473 24.768195 25.631559
9.676744 25.788849 22.872177999999998
8.563391999999999 24.755219999999998 23.480168
7.499999999999998 27.866516999999998 24.880159
18.583213999999998 27.316161 23.537591
21.853161 28.003598 22.451127
18.384417 28.179119 22.017508999999997
18.484918 30.115763 24.147076
16.252108 30.652092 25.370272999999997
16.331871999999997 31.836492999999997 22.542948
15.569643 32.683045 23.91256
17.635097 32.930392999999995 25.353156
14.22027 29.605763 23.655763
11.981274999999998 29.981746 25.783051999999998
12.000723999999998 30.127259 24.017773
11.549615999999999 32.630179999999996 24.278492999999997
11.445056999999998 32.393957 26.026787
9.583473 30.718195 25.631559
9.676744 31.738849 22.872177999999998
8.563391999999999 30.705219999999997 23.480168
7.499999999999998 33.816517 24.880159
18.583213999999998 33.266161 23.537591
21.853161 33.953598 22.451127
18.384417 34.129119 22.017508999999997
18.484918 36.065763 24.147076
16.252108 36.602092 25.370272999999997
16.331871999999997 37.786493 22.542948
15.569643 38.633044999999996 23.91256
17.635097 38.880393 25.353156
14.22027 35.555763 23.655763
11.981274999999998 35.931746 25.783051999999998
12.000723999999998 36.077259 24.017773
11.549615999999999 38.58018 24.278492999999997
11.445056999999998 38.343957 26.026787
9.583473 36.668195 25.631559
9.676744 37.688849 22.872177999999998
8.563391999999999 36.65522 23.480168
7.499999999999998 39.766517 24.880159
18.583213999999998 27.316161 35.437591
21.853161 28.003598 34.351127
18.384417 28.179119 33.917508999999995
18.484918 30.115763 36.047076
16.252108 30.652092 37.270273
16.331871999999997 31.836492999999997 34.442948
15.569643 32.683045 35.81256
17.635097 32.930392999999995 37.253156000000004
14.22027 29.605763 35.555763
11.981274999999998 29.981746 37.683052
12.000723999999998 30.127259 35.917773
11.549615999999999 32.630179999999996 36.178493
11.445056999999998 32.393957 37.926787
9.583473 30.718195 37.531559
9.676744 31.738849 34.772178
8.563391999999999 30.705219999999997 35.380168
7.499999999999998 33.816517 36.780159
40.628311999999994 21.366160999999998 23.773934999999998
37.358365 22.053598 24.860399
40.827109 22.229118999999997 25.294017
40.726608 24.165763 23.16445
42.959418 24.702092 21.941253
42.879654 25.886492999999998 24.768577999999998
43.641883 26.733044999999997 23.398965999999998
41.576429 26.980393 21.95837
44.991256 23.655763 23.655763
47.230250999999996 24.031746 21.528474
47.210802 24.177259 23.293753
47.66191 26.68018 23.033033
47.766469 26.443956999999997 21.284739
49.628052999999994 24.768195 21.679966999999998
49.534782 25.788849 24.439348
50.648134 24.755219999999998 23.831357999999998
51.711526 27.866516999999998 22.431366999999998
40.628311999999994 21.366160999999998 35.673935
37.358365 22.053598 36.760399
40.827109 22.229118999999997 37.194017
40.726608 24.165763 35.06445
42.959418 24.702092 33.841252999999995
42.879654 25.886492999999998 36.668578
43.641883 26.733044999999997 35.298966
41.576429 26.980393 33.85837
44.991256 23.655763 35.555763
47.230250999999996 24.031746 33.428474
47.210802 24.177259 35.193753
47.66191 26.68018 34.933032999999995
47.766469 26.443956999999997 33.184739
49.628052999999994 24.768195 33.579966999999996
49.534782 25.788849 36.339348
50.648134 24.755219999999998 35.731358
51.711526 27.866516999999998 34.331367
40.628311999999994 33.266161 29.723934999999997
37.358365 33.953598 30.810398999999997
40.827109 34.129119 31.244017
40.726608 36.065763 29.114449999999998
42.959418 36.602092 27.891253
42.879654 37.786493 30.718578
43.641883 38.633044999999996 29.348965999999997
41.576429 38.880393 27.908369999999998
44.991256 35.555763 29.605763
47.230250999999996 35.931746 27.478474
47.210802 36.077259 29.243752999999998
47.66191 38.58018 28.983033
47.766469 38.343957 27.234738999999998
49.628052999999994 36.668195 27.629967
49.534782 37.688849 30.389348
50.648134 36.65522 29.781357999999997
51.711526 39.766517 28.381366999999997
40.628311999999994 21.366160999999998 29.723934999999997
37.358365 22.053598 30.810398999999997
40.827109 22.229118999999997 31.244017
40.726608 24.165763 29.114449999999998
42.959418 24.702092 27.891253
42.879654 25.886492999999998 30.718578
43.641883 26.733044999999997 29.348965999999997
41.576429 26.980393 27.908369999999998
44.991256 23.655763 29.605763
47.230250999999996 24.031746 27.478474
47.210802 24.177259 29.243752999999998
47.66191 26.68018 28.983033
47.766469 26.443956999999997 27.234738999999998
49.628052999999994 24.768195 27.629967
49.534782 25.788849 30.389348
50.648134 24.755219999999998 29.781357999999997
51.711526 27.866516999999998 28.381366999999997
35.437591 18.583213999999998 27.316161
34.351127 21.853161 28.003598
33.917508999999995 18.384417 28.179119
36.047076 18.484918 30.115763
37.270273 16.252108 30.652092
34.442948 16.331871999999997 31.836492999999997
35.81256 15.569643 32.683045
37.253156000000004 17.635097 32.930392999999995
35.555763 14.22027 29.605763
37.683052 11.981274999999998 29.981746
35.917773 12.000723999999998 30.127259
36.178493 11.549615999999999 32.630179999999996
37.926787 11.445056999999998 32.393957
37.531559 9.583473 30.718195
34.772178 9.676744 31.738849
35.380168 8.563391999999999 30.705219999999997
36.780159 7.499999999999998 33.816517
29.487591 18.583213999999998 27.316161
28.401127 21.853161 28.003598
27.967509 18.384417 28.179119
30.097076 18.484918 30.115763
31.320273 16.252108 30.652092
28.492948 16.331871999999997 31.836492999999997
29.86256 15.569643 32.683045
31.303156 17.635097 32.930392999999995
29.605763 14.22027 29.605763
31.733052 11.981274999999998 29.981746
29.967773 12.000723999999998 30.127259
30.228493 11.549615999999999 32.630179999999996
31.976786999999998 11.445056999999998 32.393957
31.581559 9.583473 30.718195
28.822178 9.676744 31.738849
29.430168 8.563391999999999 30.705219999999997
30.830159 7.499999999999998 33.816517
35.437591 18.583213999999998 33.266161
34.351127 21.853161 33.953598
33.917508999999995 18.384417 34.129119
36.047076 18.484918 36.065763
37.270273 16.252108 36.602092
34.442948 16.331871999999997 37.786493
35.81256 15.569643 38.633044999999996
37.253156000000004 17.635097 38.880393
35.555763 14.22027 35.555763
37.683052 11.981274999999998 35.931746
35.917773 12.000723999999998 36.077259
36.178493 11.549615999999999 38.58018
37.926787 11.445056999999998 38.343957
37.531559 9.583473 36.668195
34.772178 9.676744 37.688849
35.380168 8.563391999999999 36.65522
36.780159 7.499999999999998 39.766517
29.487591 18.583213999999998 21.366160999999998
28.401127 21.853161 22.053598
27.967509 18.384417 22.229118999999997
30.097076 18.484918 24.165763
31.320273 16.252108 24.702092
28.492948 16.331871999999997 25.886492999999998
29.86256 15.569643 26.733044999999997
31.303156 17.635097 26.980393
29.605763 14.22027 23.655763
31.733052 11.981274999999998 24.031746
29.967773 12.000723999999998 24.177259
30.228493 11.549615999999999 26.68018
31.976786999999998 11.445056999999998 26.443956999999997
31.581559 9.583473 24.768195
28.822178 9.676744 25.788849
29.430168 8.563391999999999 24.755219999999998
30.830159 7.499999999999998 27.866516999999998
29.487591 40.628311999999994 37.845365
28.401127 37.358365 37.157928
27.967509 40.827109 36.982406999999995
30.097076 40.726608 35.045763
31.320273 42.959418 34.509434
28.492948 42.879654 33.325033
29.86256 43.641883 32.478481
31.303156 41.576429 32.231133
29.605763 44.991256 35.555763
31.733052 47.230250999999996 35.17978
29.967773 47.210802 35.034267
30.228493 47.66191 32.531346
31.976786999999998 47.766469 32.767568999999995
31.581559 49.628052999999994 34.443331
28.822178 49.534782 33.422677
29.430168 50.648134 34.456306
30.830159 51.711526 31.345008999999997
23.537591 40.628311999999994 31.895364999999998
22.451127 37.358365 31.207928
22.017508999999997 40.827109 31.032407
24.147076 40.726608 29.095762999999998
25.370272999999997 42.959418 28.559434
22.542948 42.879654 27.375033
23.91256 43.641883 26.528481
25.353156 41.576429 26.281132999999997
23.655763 44.991256 29.605763
25.783051999999998 47.230250999999996 29.229779999999998
24.017773 47.210802 29.084266999999997
24.278492999999997 47.66191 26.581346
26.026787 47.766469 26.817569
25.631559 49.628052999999994 28.493330999999998
22.872177999999998 49.534782 27.472676999999997
23.480168 50.648134 28.506306
24.880159 51.711526 25.395008999999998
29.487591 40.628311999999994 25.945365
28.401127 37.358365 25.257928
27.967509 40.827109 25.082407
30.097076 40.726608 23.145763
31.320273 42.959418 22.609434
28.492948 42.879654 21.425033
29.86256 43.641883 20.578481
31.303156 41.576429 20.331132999999998
29.605763 44.991256 23.655763
31.733052 47.230250999999996 23.27978
29.967773 47.210802 23.134267
30.228493 47.66191 20.631346
31.976786999999998 47.766469 20.867569
31.581559 49.628052999999994 22.543331
28.822178 49.534782 21.522676999999998
29.430168 50.648134 22.556306
30.830159 51.711526 19.445009
23.537591 40.628311999999994 37.845365
22.451127 37.358365 37.157928
22.017508999999997 40.827109 36.982406999999995
24.147076 40.726608 35.045763
25.370272999999997 42.959418 34.509434
22.542948 42.879654 33.325033
23.91256 43.641883 32.478481
25.353156 41.576429 32.231133
23.655763 44.991256 35.555763
25.783051999999998 47.230250999999996 35.17978
24.017773 47.210802 35.034267
24.278492999999997 47.66191 32.531346