3_train/279_cspbbr3_MA-Cys_4_0.60\279_cspbbr3_MA-Cys_4_0.60.xyz
1.0
47.396326 0 0
0 47.396326 0
0 0 47.396326
Br C Cs H N O Pb S 
180 231 61 726 111 120 64 60 
Cartesian
14.773163 14.773163 17.748162999999998
14.773163 14.773163 23.698163
11.798163 14.773163 26.673163000000002
14.773163 14.773163 29.648163000000004
14.773163 11.798163 32.623163
11.798163 14.773163 32.623163
14.773163 17.748162999999998 14.773163
14.773163 20.723163 17.748162999999998
14.773163 17.748162999999998 20.723163
14.773163 20.723163 23.698163
14.773163 17.748162999999998 26.673163000000002
11.798163 20.723163 26.673163000000002
14.773163 20.723163 29.648163000000004
14.773163 17.748162999999998 32.623163
11.798163 20.723163 32.623163
14.773163 20.723163 35.598163
14.773163 23.698163 14.773163
14.773163 26.673163000000002 17.748162999999998
14.773163 23.698163 20.723163
14.773163 26.673163000000002 23.698163
14.773163 23.698163 26.673163000000002
11.798163 26.673163000000002 26.673163000000002
14.773163 26.673163000000002 29.648163000000004
14.773163 23.698163 32.623163
11.798163 26.673163000000002 32.623163
14.773163 26.673163000000002 35.598163
14.773163 29.648163000000004 14.773163
14.773163 32.623163 17.748162999999998
14.773163 29.648163000000004 20.723163
14.773163 32.623163 23.698163
14.773163 29.648163000000004 26.673163000000002
14.773163 32.623163 29.648163000000004
14.773163 29.648163000000004 32.623163
14.773163 32.623163 35.598163
14.773163 35.598163 20.723163
14.773163 35.598163 32.623163
17.748162999999998 14.773163 14.773163
20.723163 14.773163 17.748162999999998
20.723163 11.798163 20.723163
17.748162999999998 14.773163 20.723163
20.723163 14.773163 23.698163
20.723163 11.798163 26.673163000000002
17.748162999999998 14.773163 26.673163000000002
20.723163 14.773163 29.648163000000004
17.748162999999998 14.773163 32.623163
20.723163 20.723163 11.798163
20.723163 17.748162999999998 14.773163
17.748162999999998 20.723163 14.773163
20.723163 20.723163 17.748162999999998
20.723163 17.748162999999998 20.723163
17.748162999999998 20.723163 20.723163
20.723163 20.723163 23.698163
20.723163 17.748162999999998 26.673163000000002
17.748162999999998 20.723163 26.673163000000002
20.723163 20.723163 29.648163000000004
20.723163 17.748162999999998 32.623163
17.748162999999998 20.723163 32.623163
20.723163 23.698163 14.773163
17.748162999999998 26.673163000000002 14.773163
20.723163 26.673163000000002 17.748162999999998
20.723163 23.698163 20.723163
17.748162999999998 26.673163000000002 20.723163
20.723163 26.673163000000002 23.698163
20.723163 23.698163 26.673163000000002
17.748162999999998 26.673163000000002 26.673163000000002
20.723163 26.673163000000002 29.648163000000004
20.723163 23.698163 32.623163
17.748162999999998 26.673163000000002 32.623163
20.723163 32.623163 11.798163
20.723163 29.648163000000004 14.773163
17.748162999999998 32.623163 14.773163
20.723163 32.623163 17.748162999999998
20.723163 29.648163000000004 20.723163
17.748162999999998 32.623163 20.723163
20.723163 32.623163 23.698163
20.723163 29.648163000000004 26.673163000000002
17.748162999999998 32.623163 26.673163000000002
20.723163 32.623163 29.648163000000004
20.723163 29.648163000000004 32.623163
17.748162999999998 32.623163 32.623163
20.723163 35.598163 26.673163000000002
26.673163000000002 14.773163 11.798163
23.698163 14.773163 14.773163
26.673163000000002 14.773163 17.748162999999998
26.673163000000002 11.798163 20.723163
23.698163 14.773163 20.723163
26.673163000000002 14.773163 23.698163
23.698163 14.773163 26.673163000000002
26.673163000000002 14.773163 29.648163000000004
26.673163000000002 11.798163 32.623163
23.698163 14.773163 32.623163
26.673163000000002 14.773163 35.598163
26.673163000000002 20.723163 11.798163
26.673163000000002 17.748162999999998 14.773163
23.698163 20.723163 14.773163
26.673163000000002 20.723163 17.748162999999998
26.673163000000002 17.748162999999998 20.723163
23.698163 20.723163 20.723163
26.673163000000002 20.723163 23.698163
26.673163000000002 17.748162999999998 26.673163000000002
23.698163 20.723163 26.673163000000002
26.673163000000002 20.723163 29.648163000000004
26.673163000000002 17.748162999999998 32.623163
23.698163 20.723163 32.623163
26.673163000000002 23.698163 14.773163
23.698163 26.673163000000002 14.773163
26.673163000000002 26.673163000000002 17.748162999999998
26.673163000000002 23.698163 20.723163
23.698163 26.673163000000002 20.723163
26.673163000000002 26.673163000000002 23.698163
26.673163000000002 23.698163 26.673163000000002
23.698163 26.673163000000002 26.673163000000002
26.673163000000002 26.673163000000002 29.648163000000004
26.673163000000002 23.698163 32.623163
23.698163 26.673163000000002 32.623163
26.673163000000002 29.648163000000004 14.773163
23.698163 32.623163 14.773163
26.673163000000002 32.623163 17.748162999999998
26.673163000000002 29.648163000000004 20.723163
23.698163 32.623163 20.723163
26.673163000000002 32.623163 23.698163
26.673163000000002 29.648163000000004 26.673163000000002
23.698163 32.623163 26.673163000000002
26.673163000000002 32.623163 29.648163000000004
26.673163000000002 29.648163000000004 32.623163
23.698163 32.623163 32.623163
26.673163000000002 35.598163 20.723163
29.648163000000004 14.773163 14.773163
32.623163 14.773163 17.748162999999998
32.623163 11.798163 20.723163
29.648163000000004 14.773163 20.723163
32.623163 14.773163 23.698163
29.648163000000004 14.773163 26.673163000000002
32.623163 14.773163 29.648163000000004
29.648163000000004 14.773163 32.623163
32.623163 14.773163 35.598163
32.623163 20.723163 11.798163
32.623163 17.748162999999998 14.773163
29.648163000000004 20.723163 14.773163
32.623163 20.723163 17.748162999999998
32.623163 17.748162999999998 20.723163
29.648163000000004 20.723163 20.723163
32.623163 20.723163 23.698163
32.623163 17.748162999999998 26.673163000000002
29.648163000000004 20.723163 26.673163000000002
32.623163 20.723163 29.648163000000004
32.623163 17.748162999999998 32.623163
29.648163000000004 20.723163 32.623163
32.623163 20.723163 35.598163
32.623163 23.698163 14.773163
29.648163000000004 26.673163000000002 14.773163
32.623163 26.673163000000002 17.748162999999998
32.623163 23.698163 20.723163
29.648163000000004 26.673163000000002 20.723163
32.623163 26.673163000000002 23.698163
32.623163 23.698163 26.673163000000002
29.648163000000004 26.673163000000002 26.673163000000002
32.623163 26.673163000000002 29.648163000000004
32.623163 23.698163 32.623163
29.648163000000004 26.673163000000002 32.623163
32.623163 32.623163 11.798163
32.623163 29.648163000000004 14.773163
29.648163000000004 32.623163 14.773163
32.623163 32.623163 17.748162999999998
32.623163 29.648163000000004 20.723163
29.648163000000004 32.623163 20.723163
32.623163 32.623163 23.698163
32.623163 29.648163000000004 26.673163000000002
29.648163000000004 32.623163 26.673163000000002
32.623163 32.623163 29.648163000000004
32.623163 29.648163000000004 32.623163
29.648163000000004 32.623163 32.623163
32.623163 35.598163 20.723163
32.623163 35.598163 26.673163000000002
35.598163 14.773163 26.673163000000002
35.598163 14.773163 32.623163
35.598163 26.673163000000002 32.623163
35.598163 32.623163 20.723163
35.598163 32.623163 26.673163000000002
35.598163 32.623163 32.623163
20.723163 14.773163 38.045739
20.401271 14.247910000000001 36.649784000000004
21.840882999999998 15.822812 37.977453000000004
26.673163000000002 26.673163000000002 38.045739
26.351271000000004 26.147910000000003 36.649784000000004
27.790883 27.722812000000005 37.977453000000004
26.673163000000002 32.623163 38.045739
26.351271000000004 32.09791 36.649784000000004
27.790883 33.672812 37.977453000000004
32.623163 26.673163000000002 38.045739
32.301271 26.147910000000003 36.649784000000004
33.740883000000004 27.722812000000005 37.977453000000004
26.673163000000002 20.723163 38.045739
26.351271000000004 20.19791 36.649784000000004
27.790883 21.772812000000002 37.977453000000004
32.623163 32.623163 38.045739
32.301271 32.09791 36.649784000000004
33.740883000000004 33.672812 37.977453000000004
14.773163 14.773163 38.045739
14.451271 14.247910000000001 36.649784000000004
15.890883 15.822812 37.977453000000004
20.723163 32.623163 38.045739
20.401271 32.09791 36.649784000000004
21.840882999999998 33.672812 37.977453000000004
20.723163 26.673163000000002 38.045739
20.401271 26.147910000000003 36.649784000000004
21.840882999999998 27.722812000000005 37.977453000000004
20.723163 20.723163 38.045739
20.401271 20.19791 36.649784000000004
21.840882999999998 21.772812000000002 37.977453000000004
14.773163 20.723163 9.350587
15.095055 20.19791 10.746542000000002
13.655443 21.772812000000002 9.418873000000001
14.773163 26.673163000000002 9.350587
15.095055 26.147910000000003 10.746542000000002
13.655443 27.722812000000005 9.418873000000001
14.773163 14.773163 9.350587
15.095055 14.247910000000001 10.746542000000002
13.655443 15.822812 9.418873000000001
26.673163000000002 32.623163 9.350587
26.995055 32.09791 10.746542000000002
25.555443000000004 33.672812 9.418873000000001
32.623163 26.673163000000002 9.350587
32.945055 26.147910000000003 10.746542000000002
31.505443 27.722812000000005 9.418873000000001
26.673163000000002 26.673163000000002 9.350587
26.995055 26.147910000000003 10.746542000000002
25.555443000000004 27.722812000000005 9.418873000000001
32.623163 14.773163 9.350587
32.945055 14.247910000000001 10.746542000000002
31.505443 15.822812 9.418873000000001
20.723163 26.673163000000002 9.350587
21.045055000000005 26.147910000000003 10.746542000000002
19.605443 27.722812000000005 9.418873000000001
14.773163 32.623163 9.350587
15.095055 32.09791 10.746542000000002
13.655443 33.672812 9.418873000000001
20.723163 14.773163 9.350587
21.045055000000005 14.247910000000001 10.746542000000002
19.605443 15.822812 9.418873000000001
9.350587 20.723163 20.723163
10.746542000000002 20.19791 20.401271
9.418873000000001 21.772812000000002 21.840882999999998
9.350587 20.723163 14.773163
10.746542000000002 20.19791 14.451271
9.418873000000001 21.772812000000002 15.890883
9.350587 26.673163000000002 20.723163
10.746542000000002 26.147910000000003 20.401271
9.418873000000001 27.722812000000005 21.840882999999998
9.350587 32.623163 32.623163
10.746542000000002 32.09791 32.301271
9.418873000000001 33.672812 33.740883000000004
9.350587 32.623163 14.773163
10.746542000000002 32.09791 14.451271
9.418873000000001 33.672812 15.890883
9.350587 14.773163 14.773163
10.746542000000002 14.247910000000001 14.451271
9.418873000000001 15.822812 15.890883
9.350587 32.623163 20.723163
10.746542000000002 32.09791 20.401271
9.418873000000001 33.672812 21.840882999999998
9.350587 14.773163 20.723163
10.746542000000002 14.247910000000001 20.401271
9.418873000000001 15.822812 21.840882999999998
9.350587 32.623163 26.673163000000002
10.746542000000002 32.09791 26.351271000000004
9.418873000000001 33.672812 27.790883
9.350587 26.673163000000002 14.773163
10.746542000000002 26.147910000000003 14.451271
9.418873000000001 27.722812000000005 15.890883
38.045739 32.623163 14.773163
36.649784000000004 32.09791 15.095055
37.977453000000004 33.672812 13.655443
38.045739 14.773163 20.723163
36.649784000000004 14.247910000000001 21.045055000000005
37.977453000000004 15.822812 19.605443
38.045739 20.723163 26.673163000000002
36.649784000000004 20.19791 26.995055
37.977453000000004 21.772812000000002 25.555443000000004
38.045739 20.723163 32.623163
36.649784000000004 20.19791 32.945055
37.977453000000004 21.772812000000002 31.505443
38.045739 20.723163 14.773163
36.649784000000004 20.19791 15.095055
37.977453000000004 21.772812000000002 13.655443
38.045739 14.773163 14.773163
36.649784000000004 14.247910000000001 15.095055
37.977453000000004 15.822812 13.655443
38.045739 26.673163000000002 26.673163000000002
36.649784000000004 26.147910000000003 26.995055
37.977453000000004 27.722812000000005 25.555443000000004
38.045739 20.723163 20.723163
36.649784000000004 20.19791 21.045055000000005
37.977453000000004 21.772812000000002 19.605443
38.045739 26.673163000000002 20.723163
36.649784000000004 26.147910000000003 21.045055000000005
37.977453000000004 27.722812000000005 19.605443
38.045739 26.673163000000002 14.773163
36.649784000000004 26.147910000000003 15.095055
37.977453000000004 27.722812000000005 13.655443
32.623163 9.350587 26.673163000000002
32.301271 10.746542000000002 26.147910000000003
33.740883000000004 9.418873000000001 27.722812000000005
14.773163 9.350587 14.773163
14.451271 10.746542000000002 14.247910000000001
15.890883 9.418873000000001 15.822812
14.773163 9.350587 26.673163000000002
14.451271 10.746542000000002 26.147910000000003
15.890883 9.418873000000001 27.722812000000005
26.673163000000002 9.350587 14.773163
26.351271000000004 10.746542000000002 14.247910000000001
27.790883 9.418873000000001 15.822812
20.723163 9.350587 32.623163
20.401271 10.746542000000002 32.09791
21.840882999999998 9.418873000000001 33.672812
20.723163 9.350587 14.773163
20.401271 10.746542000000002 14.247910000000001
21.840882999999998 9.418873000000001 15.822812
14.773163 9.350587 20.723163
14.451271 10.746542000000002 20.19791
15.890883 9.418873000000001 21.772812000000002
32.623163 9.350587 32.623163
32.301271 10.746542000000002 32.09791
33.740883000000004 9.418873000000001 33.672812
32.623163 9.350587 14.773163
32.301271 10.746542000000002 14.247910000000001
33.740883000000004 9.418873000000001 15.822812
26.673163000000002 9.350587 26.673163000000002
26.351271000000004 10.746542000000002 26.147910000000003
27.790883 9.418873000000001 27.722812000000005
14.773163 38.045739 26.673163000000002
14.451271 36.649784000000004 27.198416
15.890883 37.977453000000004 25.623514
26.673163000000002 38.045739 26.673163000000002
26.351271000000004 36.649784000000004 27.198416
27.790883 37.977453000000004 25.623514
32.623163 38.045739 14.773163
32.301271 36.649784000000004 15.298416000000001
33.740883000000004 37.977453000000004 13.723514
14.773163 38.045739 14.773163
14.451271 36.649784000000004 15.298416000000001
15.890883 37.977453000000004 13.723514
20.723163 38.045739 20.723163
20.401271 36.649784000000004 21.248416
21.840882999999998 37.977453000000004 19.673514
20.723163 38.045739 32.623163
20.401271 36.649784000000004 33.148416
21.840882999999998 37.977453000000004 31.573514000000003
32.623163 38.045739 32.623163
32.301271 36.649784000000004 33.148416
33.740883000000004 37.977453000000004 31.573514000000003
26.673163000000002 38.045739 14.773163
26.351271000000004 36.649784000000004 15.298416000000001
27.790883 37.977453000000004 13.723514
20.723163 38.045739 14.773163
20.401271 36.649784000000004 15.298416000000001
21.840882999999998 37.977453000000004 13.723514
26.673163000000002 38.045739 32.623163
26.351271000000004 36.649784000000004 33.148416
27.790883 37.977453000000004 31.573514000000003
23.698163 36.64161300000001 10.754713
37.073824 23.698163 29.648163000000004
37.073824 23.698163 17.748162999999998
17.748162999999998 37.073824 17.748162999999998
23.698163 37.073824 17.748162999999998
23.698163 23.698163 37.073824
23.698163 37.073824 23.698163
29.648163000000004 29.648163000000004 37.073824
29.648163000000004 29.648163000000004 10.322502
10.322502 23.698163 23.698163
17.748162999999998 37.073824 23.698163
36.64161300000001 36.64161300000001 17.748162999999998
23.698163 36.64161300000001 36.64161300000001
29.648163000000004 10.754713 36.64161300000001
36.64161300000001 17.748162999999998 36.64161300000001
23.698163 10.754713 36.64161300000001
23.698163 17.748162999999998 37.073824
36.64161300000001 29.648163000000004 10.754713
10.754713 29.648163000000004 10.754713
23.698163 10.754713 10.754713
17.748162999999998 29.648163000000004 37.073824
10.322502 23.698163 17.748162999999998
29.648163000000004 10.322502 29.648163000000004
23.698163 10.322502 17.748162999999998
23.698163 29.648163000000004 37.073824
10.322502 29.648163000000004 23.698163
37.073824 17.748162999999998 29.648163000000004
23.698163 10.322502 29.648163000000004
36.64161300000001 36.64161300000001 29.648163000000004
29.648163000000004 23.698163 37.073824
29.648163000000004 37.073824 23.698163
10.322502 29.648163000000004 29.648163000000004
36.64161300000001 23.698163 10.754713
17.748162999999998 10.754713 10.754713
36.64161300000001 10.754713 29.648163000000004
10.754713 36.64161300000001 17.748162999999998
29.648163000000004 37.073824 29.648163000000004
37.073824 23.698163 23.698163
17.748162999999998 36.64161300000001 10.754713
17.748162999999998 17.748162999999998 10.322502
17.748162999999998 36.64161300000001 36.64161300000001
10.754713 17.748162999999998 36.64161300000001
17.748162999999998 17.748162999999998 37.073824
17.748162999999998 10.322502 23.698163
10.754713 10.754713 17.748162999999998
29.648163000000004 37.073824 17.748162999999998
36.64161300000001 23.698163 36.64161300000001
29.648163000000004 36.64161300000001 36.64161300000001
17.748162999999998 29.648163000000004 10.322502
37.073824 29.648163000000004 17.748162999999998
29.648163000000004 17.748162999999998 10.322502
11.798163 11.798163 29.648163000000004
11.798163 17.748162999999998 11.798163
11.798163 17.748162999999998 17.748162999999998
11.798163 17.748162999999998 23.698163
11.798163 17.748162999999998 29.648163000000004
11.798163 23.698163 11.798163
11.798163 23.698163 29.648163000000004
11.798163 23.698163 35.598163
11.798163 29.648163000000004 17.748162999999998
11.798163 35.598163 29.648163000000004
17.748162999999998 11.798163 17.748162999999998
17.748162999999998 11.798163 29.648163000000004
17.748162999999998 11.798163 35.598163
17.748162999999998 17.748162999999998 17.748162999999998
17.748162999999998 17.748162999999998 23.698163
17.748162999999998 17.748162999999998 29.648163000000004
17.748162999999998 23.698163 17.748162999999998
17.748162999999998 23.698163 23.698163
17.748162999999998 23.698163 29.648163000000004
17.748162999999998 23.698163 35.598163
17.748162999999998 29.648163000000004 17.748162999999998
17.748162999999998 29.648163000000004 23.698163
17.748162999999998 29.648163000000004 29.648163000000004
17.748162999999998 35.598163 29.648163000000004
23.698163 11.798163 23.698163
23.698163 17.748162999999998 11.798163
23.698163 17.748162999999998 17.748162999999998
23.698163 17.748162999999998 23.698163
23.698163 17.748162999999998 29.648163000000004
23.698163 23.698163 11.798163
23.698163 23.698163 17.748162999999998
23.698163 23.698163 23.698163
23.698163 23.698163 29.648163000000004
23.698163 29.648163000000004 11.798163
23.698163 29.648163000000004 17.748162999999998
23.698163 29.648163000000004 23.698163
23.698163 29.648163000000004 29.648163000000004
23.698163 35.598163 29.648163000000004
29.648163000000004 11.798163 11.798163
29.648163000000004 11.798163 17.748162999999998
29.648163000000004 17.748162999999998 17.748162999999998
29.648163000000004 17.748162999999998 23.698163
29.648163000000004 17.748162999999998 29.648163000000004
29.648163000000004 17.748162999999998 35.598163
29.648163000000004 23.698163 11.798163
29.648163000000004 23.698163 17.748162999999998
29.648163000000004 23.698163 23.698163
29.648163000000004 23.698163 29.648163000000004
29.648163000000004 29.648163000000004 17.748162999999998
29.648163000000004 29.648163000000004 23.698163
29.648163000000004 29.648163000000004 29.648163000000004
29.648163000000004 35.598163 11.798163
35.598163 11.798163 17.748162999999998
35.598163 11.798163 23.698163
35.598163 17.748162999999998 11.798163
35.598163 17.748162999999998 17.748162999999998
35.598163 17.748162999999998 23.698163
35.598163 29.648163000000004 23.698163
35.598163 29.648163000000004 29.648163000000004
35.598163 29.648163000000004 35.598163
35.598163 35.598163 23.698163
19.792383 15.279888000000001 38.381767
19.502648999999998 12.827349 35.772337
20.514700000000005 12.871522 38.820585
21.118101000000003 13.969373000000001 39.896326
22.68405 15.41713 37.403007
22.20039 16.031925 38.992665
21.284231 18.117429 38.361152000000004
25.742383000000004 27.179888 38.381767
25.452649 24.727349000000004 35.772337
26.4647 24.771522000000004 38.820585
27.068101 25.869373000000003 39.896326
28.634050000000002 27.31713 37.403007
28.15039 27.931925 38.992665
27.234231 30.017429 38.361152000000004
25.742383000000004 33.129888 38.381767
25.452649 30.677349 35.772337
26.4647 30.721522 38.820585
27.068101 31.819373 39.896326
28.634050000000002 33.26713 37.403007
28.15039 33.881925 38.992665
27.234231 35.967429 38.361152000000004
31.692383 27.179888 38.381767
31.402649000000004 24.727349000000004 35.772337
32.4147 24.771522000000004 38.820585
33.018101 25.869373000000003 39.896326
34.58405 27.31713 37.403007
34.10039 27.931925 38.992665
33.184231000000004 30.017429 38.361152000000004
25.742383000000004 21.229888000000003 38.381767
25.452649 18.777349 35.772337
26.4647 18.821522 38.820585
27.068101 19.919373 39.896326
28.634050000000002 21.367130000000003 37.403007
28.15039 21.981925000000004 38.992665
27.234231 24.067429000000004 38.361152000000004
31.692383 33.129888 38.381767
31.402649000000004 30.677349 35.772337
32.4147 30.721522 38.820585
33.018101 31.819373 39.896326
34.58405 33.26713 37.403007
34.10039 33.881925 38.992665
33.184231000000004 35.967429 38.361152000000004
13.842383 15.279888000000001 38.381767
13.552649 12.827349 35.772337
14.5647 12.871522 38.820585
15.168101 13.969373000000001 39.896326
16.734050000000003 15.41713 37.403007
16.250390000000003 16.031925 38.992665
15.334231 18.117429 38.361152000000004
19.792383 33.129888 38.381767
19.502648999999998 30.677349 35.772337
20.514700000000005 30.721522 38.820585
21.118101000000003 31.819373 39.896326
22.68405 33.26713 37.403007
22.20039 33.881925 38.992665
21.284231 35.967429 38.361152000000004
19.792383 27.179888 38.381767
19.502648999999998 24.727349000000004 35.772337
20.514700000000005 24.771522000000004 38.820585
21.118101000000003 25.869373000000003 39.896326
22.68405 27.31713 37.403007
22.20039 27.931925 38.992665
21.284231 30.017429 38.361152000000004
19.792383 21.229888000000003 38.381767
19.502648999999998 18.777349 35.772337
20.514700000000005 18.821522 38.820585
21.118101000000003 19.919373 39.896326
22.68405 21.367130000000003 37.403007
22.20039 21.981925000000004 38.992665
21.284231 24.067429000000004 38.361152000000004
15.703943 21.229888000000003 9.014559
15.993677 18.777349 11.623989000000002
14.981626 18.821522 8.575741
14.378225 19.919373 7.500000000000001
12.812276 21.367130000000003 9.993319
13.295936000000001 21.981925000000004 8.403661
14.212095 24.067429000000004 9.035174000000001
15.703943 27.179888 9.014559
15.993677 24.727349000000004 11.623989000000002
14.981626 24.771522000000004 8.575741
14.378225 25.869373000000003 7.500000000000001
12.812276 27.31713 9.993319
13.295936000000001 27.931925 8.403661
14.212095 30.017429 9.035174000000001
15.703943 15.279888000000001 9.014559
15.993677 12.827349 11.623989000000002
14.981626 12.871522 8.575741
14.378225 13.969373000000001 7.500000000000001
12.812276 15.41713 9.993319
13.295936000000001 16.031925 8.403661
14.212095 18.117429 9.035174000000001
27.603943 33.129888 9.014559
27.893677000000004 30.677349 11.623989000000002
26.881626000000004 30.721522 8.575741
26.278225 31.819373 7.500000000000001
24.712276000000003 33.26713 9.993319
25.195936000000003 33.881925 8.403661
26.112095000000004 35.967429 9.035174000000001
33.553943000000004 27.179888 9.014559
33.843677 24.727349000000004 11.623989000000002
32.831626 24.771522000000004 8.575741
32.228225 25.869373000000003 7.500000000000001
30.662276 27.31713 9.993319
31.145936 27.931925 8.403661
32.062095 30.017429 9.035174000000001
27.603943 27.179888 9.014559
27.893677000000004 24.727349000000004 11.623989000000002
26.881626000000004 24.771522000000004 8.575741
26.278225 25.869373000000003 7.500000000000001
24.712276000000003 27.31713 9.993319
25.195936000000003 27.931925 8.403661
26.112095000000004 30.017429 9.035174000000001
33.553943000000004 15.279888000000001 9.014559
33.843677 12.827349 11.623989000000002
32.831626 12.871522 8.575741
32.228225 13.969373000000001 7.500000000000001
30.662276 15.41713 9.993319
31.145936 16.031925 8.403661
32.062095 18.117429 9.035174000000001
21.653942999999998 27.179888 9.014559
21.943677 24.727349000000004 11.623989000000002
20.931626 24.771522000000004 8.575741
20.328225000000003 25.869373000000003 7.500000000000001
18.762276 27.31713 9.993319
19.245936 27.931925 8.403661
20.162095 30.017429 9.035174000000001
15.703943 33.129888 9.014559
15.993677 30.677349 11.623989000000002
14.981626 30.721522 8.575741
14.378225 31.819373 7.500000000000001
12.812276 33.26713 9.993319
13.295936000000001 33.881925 8.403661
14.212095 35.967429 9.035174000000001
21.653942999999998 15.279888000000001 9.014559
21.943677 12.827349 11.623989000000002
20.931626 12.871522 8.575741
20.328225000000003 13.969373000000001 7.500000000000001
18.762276 15.41713 9.993319
19.245936 16.031925 8.403661
20.162095 18.117429 9.035174000000001
9.014559 21.229888000000003 19.792383
11.623989000000002 18.777349 19.502648999999998
8.575741 18.821522 20.514700000000005
7.500000000000001 19.919373 21.118101000000003
9.993319 21.367130000000003 22.68405
8.403661 21.981925000000004 22.20039
9.035174000000001 24.067429000000004 21.284231
9.014559 21.229888000000003 13.842383
11.623989000000002 18.777349 13.552649
8.575741 18.821522 14.5647
7.500000000000001 19.919373 15.168101
9.993319 21.367130000000003 16.734050000000003
8.403661 21.981925000000004 16.250390000000003
9.035174000000001 24.067429000000004 15.334231
9.014559 27.179888 19.792383
11.623989000000002 24.727349000000004 19.502648999999998
8.575741 24.771522000000004 20.514700000000005
7.500000000000001 25.869373000000003 21.118101000000003
9.993319 27.31713 22.68405
8.403661 27.931925 22.20039
9.035174000000001 30.017429 21.284231
9.014559 33.129888 31.692383
11.623989000000002 30.677349 31.402649000000004
8.575741 30.721522 32.4147
7.500000000000001 31.819373 33.018101
9.993319 33.26713 34.58405
8.403661 33.881925 34.10039
9.035174000000001 35.967429 33.184231000000004
9.014559 33.129888 13.842383
11.623989000000002 30.677349 13.552649
8.575741 30.721522 14.5647
7.500000000000001 31.819373 15.168101
9.993319 33.26713 16.734050000000003
8.403661 33.881925 16.250390000000003
9.035174000000001 35.967429 15.334231
9.014559 15.279888000000001 13.842383
11.623989000000002 12.827349 13.552649
8.575741 12.871522 14.5647
7.500000000000001 13.969373000000001 15.168101
9.993319 15.41713 16.734050000000003
8.403661 16.031925 16.250390000000003
9.035174000000001 18.117429 15.334231
9.014559 33.129888 19.792383
11.623989000000002 30.677349 19.502648999999998
8.575741 30.721522 20.514700000000005
7.500000000000001 31.819373 21.118101000000003
9.993319 33.26713 22.68405
8.403661 33.881925 22.20039
9.035174000000001 35.967429 21.284231
9.014559 15.279888000000001 19.792383
11.623989000000002 12.827349 19.502648999999998
8.575741 12.871522 20.514700000000005
7.500000000000001 13.969373000000001 21.118101000000003
9.993319 15.41713 22.68405
8.403661 16.031925 22.20039
9.035174000000001 18.117429 21.284231
9.014559 33.129888 25.742383000000004
11.623989000000002 30.677349 25.452649
8.575741 30.721522 26.4647
7.500000000000001 31.819373 27.068101
9.993319 33.26713 28.634050000000002
8.403661 33.881925 28.15039
9.035174000000001 35.967429 27.234231
9.014559 27.179888 13.842383
11.623989000000002 24.727349000000004 13.552649
8.575741 24.771522000000004 14.5647
7.500000000000001 25.869373000000003 15.168101
9.993319 27.31713 16.734050000000003
8.403661 27.931925 16.250390000000003
9.035174000000001 30.017429 15.334231
38.381767 33.129888 15.703943
35.772337 30.677349 15.993677
38.820585 30.721522 14.981626
39.896326 31.819373 14.378225
37.403007 33.26713 12.812276
38.992665 33.881925 13.295936000000001
38.361152000000004 35.967429 14.212095
38.381767 15.279888000000001 21.653942999999998
35.772337 12.827349 21.943677
38.820585 12.871522 20.931626
39.896326 13.969373000000001 20.328225000000003
37.403007 15.41713 18.762276
38.992665 16.031925 19.245936
38.361152000000004 18.117429 20.162095
38.381767 21.229888000000003 27.603943
35.772337 18.777349 27.893677000000004
38.820585 18.821522 26.881626000000004
39.896326 19.919373 26.278225
37.403007 21.367130000000003 24.712276000000003
38.992665 21.981925000000004 25.195936000000003
38.361152000000004 24.067429000000004 26.112095000000004
38.381767 21.229888000000003 33.553943000000004
35.772337 18.777349 33.843677
38.820585 18.821522 32.831626
39.896326 19.919373 32.228225
37.403007 21.367130000000003 30.662276
38.992665 21.981925000000004 31.145936
38.361152000000004 24.067429000000004 32.062095
38.381767 21.229888000000003 15.703943
35.772337 18.777349 15.993677
38.820585 18.821522 14.981626
39.896326 19.919373 14.378225
37.403007 21.367130000000003 12.812276
38.992665 21.981925000000004 13.295936000000001
38.361152000000004 24.067429000000004 14.212095
38.381767 15.279888000000001 15.703943
35.772337 12.827349 15.993677
38.820585 12.871522 14.981626
39.896326 13.969373000000001 14.378225
37.403007 15.41713 12.812276
38.992665 16.031925 13.295936000000001
38.361152000000004 18.117429 14.212095
38.381767 27.179888 27.603943
35.772337 24.727349000000004 27.893677000000004
38.820585 24.771522000000004 26.881626000000004