1_train/35_cspbbr3_methylammonium_3_0.50\35_cspbbr3_methylammonium_3_0.50.xyz
1.0
41.918401 0 0
0 41.918401 0
0 0 41.918401
Br C Cs H N Pb 
108 23 31 138 23 27 
Cartesian
30.077676499999995 26.755722499999997 26.7670125
26.807030499999996 12.009765499999999 21.1794625
27.052716499999995 14.884611499999998 17.9896795
29.8735085 15.204514499999998 26.7103685
24.1301355 14.884777499999998 14.9460155
26.7777215 11.8475025 14.837342499999998
29.7868755 20.8087515 14.918382499999998
26.946048499999996 14.784298499999998 12.019796499999998
29.8933435 21.1815755 20.789539499999997
21.105852499999997 29.687307499999996 27.077118499999997
21.0954165 30.061060499999996 20.837404499999998
21.0033205 29.9053835 15.2893485
20.8374325 23.851065499999997 14.859853499999998
23.934602499999997 15.259896499999998 20.901886499999996
20.958648499999995 27.086257499999995 29.760386499999996
18.0935555 26.7415745 26.8474785
20.988001499999996 23.831956499999997 27.1305555
29.755216499999996 20.844275499999995 26.820119499999997
30.0633635 26.8855505 15.1367085
18.148681499999995 26.8487315 20.772839499999996
20.8521585 24.1806335 20.8811415
20.779275499999997 27.0053355 17.895000500000002
29.7087705 26.803887499999995 20.920454499999998
17.9799725 26.789938499999998 14.760062499999998
29.7227835 14.892365499999999 21.1141935
23.7165265 27.0069875 20.9421855
26.6701295 15.076996499999998 23.780925499999995
26.7554065 23.840680499999998 21.144560499999997
26.7385565 26.789108499999998 17.826654499999997
26.8076875 23.8769305 27.092715499999997
23.744139499999996 26.8905435 14.9727775
27.0112285 23.930252499999995 15.1795315
26.9279765 27.180378499999996 12.026603499999998
23.710434499999998 26.8669395 26.9896065
27.0805145 26.749360499999995 29.861566500000002
27.147526499999998 21.0418465 29.787026499999996
23.819706499999995 21.161314499999996 26.7287695
26.7746445 18.127008499999995 26.918496499999996
26.784823499999995 30.0519375 15.2160175
27.072036499999996 21.053250499999997 23.887085499999998
24.0592885 21.163669499999997 21.1376565
27.018845499999998 18.176430499999995 21.0315095
21.1129545 27.0087045 12.1069365
26.986594499999995 21.0419865 18.219018499999997
27.0247975 30.0484735 21.0265025
23.858413499999997 21.1946685 15.036052499999998
27.057917499999995 18.0095315 15.130590499999998
26.6794065 20.9151485 11.8747335
26.884018499999996 29.764539499999998 26.7766095
26.922678499999996 15.213581499999998 30.017059500000002
24.1202885 14.890487499999999 26.9888725
26.771803499999997 12.131285499999999 27.073215499999996
26.7566255 26.7235655 24.0447845
29.7557555 15.058035499999999 14.885525499999998
20.917753499999996 27.041656499999995 23.781180499999998
18.099264499999997 20.9519855 26.7199295
15.2690855 14.979236499999999 23.797813499999997
14.809676499999998 29.7653075 21.0052265
14.819222499999999 30.0329915 14.9283595
15.045498499999999 26.7173565 29.9962565
15.149898499999999 11.9648235 27.0693075
12.2735335 26.963587499999996 26.9245425
11.876289499999999 15.1544575 27.023829499999998
14.782679499999999 23.8101075 27.0242225
15.0110005 27.150318499999997 23.814704499999998
14.8598345 15.186971499999999 29.7957295
12.0218835 26.939038499999995 21.2150215
15.096914499999999 23.777181499999998 20.932979499999995
15.036366499999998 26.843205499999996 18.158893499999998
15.1690975 20.8315645 12.1770915
12.226623499999999 27.1221355 14.990038499999999
14.869315499999999 24.048671499999998 15.133137499999998
15.013770499999998 17.950861500000002 14.797398499999998
15.0816565 26.7702185 11.873519499999999
21.0111475 20.760765499999998 29.760639499999996
14.848950499999999 20.816252499999997 29.8144525
11.991712499999998 21.115201499999998 15.096762499999999
12.056116499999998 20.9291815 27.140344499999998
14.7335465 17.9161615 26.9847405
15.0615875 20.873693499999995 23.7293595
11.951165499999998 20.676359499999997 20.9185795
14.8513305 17.975623499999998 21.152151499999995
11.8639225 15.2165875 20.9312385
14.915080499999998 29.9578815 26.7396205
21.164229499999998 11.962724499999998 15.1942025
20.931155499999996 17.770359499999998 27.0061045
20.797486499999998 20.819109499999996 24.049155499999998
14.914373499999998 15.277066499999998 11.9686945
17.8269055 20.887604499999995 20.9014265
21.142494499999998 18.013043500000002 20.8292985
21.0721875 21.0373235 18.102633499999996
15.195656499999998 11.9246655 15.040039499999999
18.1918655 20.8017825 14.8962855
20.938143499999995 17.7970855 14.7821345
20.9602925 15.169924499999999 11.886087499999999
20.881130499999998 20.714557499999998 11.988844499999999
20.7836645 14.9558165 29.697115500000002
11.921261499999998 14.886656499999999 15.2125925
21.181760499999996 11.964245499999999 20.9325105
17.783852500000002 15.142035499999999 14.851040499999998
14.943950499999998 12.1739035 20.7054435
21.169760499999995 15.075393499999999 17.827101499999998
18.047566500000002 14.8313315 21.035242499999995
21.108788499999996 15.1757035 23.843410499999997
15.2975935 20.943724499999995 18.0329295
21.104707499999996 12.182902499999999 26.772113499999996
14.954964499999999 15.2211865 18.117442499999996
17.951378499999997 15.1944185 27.010786499999995
23.889242499999995 31.024125499999997 11.0107235
18.0311855 10.474394499999999 23.887615499999995
30.873546499999996 24.011998499999997 30.931872499999997
17.949768499999998 30.8370205 11.0200865
10.480661499999998 17.962062500000002 23.976589499999996
18.0003065 17.9307255 31.426097499999997
17.9897955 23.8594705 10.502034499999999
30.9644585 30.8379885 18.028811499999996
31.4396865 17.9128295 17.9954235
30.882842500000002 10.998189499999999 17.9168015
17.926984499999996 31.274190499999996 23.901267499999996
11.0318235 17.936578499999996 10.919186499999999
30.996297499999997 17.9542735 10.9566655
11.0458565 30.861970499999998 17.9430445
11.048264499999998 10.927199499999999 23.978274499999998
23.905218499999997 30.8284735 30.9405365
18.0071095 17.934478499999997 10.4999215
23.9294705 18.0628665 31.3168645
23.9187265 10.642164499999998 23.9109195
30.976529499999998 17.891782499999998 30.8963075
23.9670085 10.5997905 17.917122499999998
18.050667499999996 30.977740499999996 30.9150075
23.8646125 17.972275500000002 10.5241645
30.285016499999998 23.722539499999996 24.2428745
29.8906895 23.947607499999997 11.5189525
23.841890499999998 23.495797499999995 29.9645965
29.578432499999998 30.1786405 24.0877785
29.6736615 11.700222499999999 24.025409499999995
12.445962499999998 12.0140275 17.9452315
12.061771499999999 18.211918499999996 17.4743875
29.9979705 23.659001499999995 17.615930499999997
23.6099045 30.304644500000002 17.720442499999997
12.120735499999999 23.418603499999996 11.7520645
23.6271385 24.140978499999996 18.388558500000002
23.819514499999997 24.215622499999995 24.1975945
18.360715499999998 17.7869825 24.0457065
17.729398500000002 24.1488565 23.679737499999995
18.485136499999996 17.924704499999997 18.242439499999996
17.490103499999996 23.9178625 29.7634745
18.155271499999998 29.456902499999998 17.7903995
18.1872975 12.449918499999999 29.502939499999997
23.630452499999997 12.1342135 11.5386925
17.956866499999997 12.320589499999999 18.245444499999998
18.283953499999996 23.7781175 17.626586500000002
12.3987345 29.710539499999996 24.154784499999998
18.117852499999998 12.2936065 12.4775795
23.428329499999997 24.068323499999998 12.123569499999999
12.379638499999999 24.2429555 18.0809455
24.123430499999998 17.531504499999997 23.7139325
11.8222875 18.1794005 30.184028499999997
11.590391499999999 23.6189435 24.018136499999997
23.974554499999996 18.318008499999998 18.2595145
11.5873645 23.671730499999995 30.0399515
24.2602325 12.431132499999999 30.040453499999998
23.2881595 18.716539499999996 12.428659499999998
12.1322695 18.897611499999996 12.468129499999998
11.285708499999998 18.775442499999997 10.236751499999999
10.020230499999998 18.181172499999995 11.493435499999999
12.9619325 17.7403745 11.6705715
11.8018205 17.3092045 12.7646295
30.645635499999997 18.656426500000002 10.1969175
10.934545499999999 16.975564499999997 10.5196505
18.7220535 29.157743500000002 30.091944499999997
18.9639315 29.5349615 23.9830185
29.477537499999997 17.081461499999996 18.325114499999998
17.0549465 18.1160285 12.4306755
22.980391499999996 10.242051499999999 24.420533499999998
24.016543499999997 10.2241775 22.865410499999996
24.793173499999995 10.197948499999999 24.4876455
24.7856375 12.378573499999998 23.5418565
24.885400499999996 18.236926499999996 12.420285499999999
23.895210499999997 12.390461499999999 24.8614885
23.666486499999998 17.0918915 12.427443499999999
18.496461499999995 31.7122175 24.8357175
18.5413815 31.685883499999996 23.0095405
16.9370185 31.679851499999998 23.861898499999995
17.5533215 29.4788955 23.1009635
17.496598499999998 29.538937499999996 24.7292245
23.117777499999995 12.384553499999999 23.3777585
31.885099499999995 18.325081499999996 11.436760499999998
30.6891095 10.3107835 17.2247385
30.108821499999998 17.3511405 12.815097499999998
11.464819499999999 10.014432499999998 23.9505465
12.613299499999998 11.986151499999998 23.1234885
12.669938499999999 11.932770499999998 24.7288755
11.631029499999999 13.005790499999998 23.941193499999997
24.3413555 30.4794695 31.8467215
24.515080499999996 31.7376085 30.5303015
10.365081499999999 11.1608085 23.056568499999997
22.9210725 31.253550499999996 31.0713505
23.3576895 29.0751115 30.1430425
24.890877499999995 29.5919805 29.7056725
17.544669499999998 18.9545295 10.231601499999998
19.044521500000002 17.8646855 10.246129499999999
17.4028895 17.1596015 10.2450155
18.3652065 17.116707499999997 12.365420499999999
23.544326499999997 30.217440500000002 28.984350499999998
10.435843499999999 11.1227115 24.851572499999996
24.6457355 17.2654875 10.230051499999998
12.960422499999998 30.235837500000002 17.7642845
29.006147499999997 17.6802895 11.652284499999999
29.7237905 18.9238705 12.378862499999999
24.250141499999998 19.004976499999998 10.2447395
29.5143675 18.718000499999995 18.6076645
31.869885500000002 11.5015355 17.778605499999998
30.9059015 10.4694735 18.9396075
30.0313085 12.759041499999999 18.7091895
28.978713499999998 11.6075115 18.170292499999995
29.8151845 12.5414695 17.1074415
22.886191499999995 17.730773499999998 10.243255499999998
11.230926499999999 31.646235499999996 18.7272635
10.997945499999998 31.3477695 16.986033499999998
10.0725155 30.444869499999996 18.2365735
11.865207499999999 29.166349499999995 17.2808645
12.099477499999999 29.409400499999997 18.925647499999997
30.996483499999997 16.979048499999998 10.6183255
29.5462025 18.122023499999997 17.025991499999996
24.766757499999997 29.913512499999996 12.643131499999999
31.733047499999998 17.156307499999997 17.351223499999996
29.9898965 29.2812045 18.8168195
29.962962499999996 29.2975725 17.1153295
28.9594435 30.2599265 18.010751499999998
18.249128499999998 10.255441499999998 24.911795499999997
16.9776005 10.188938499999999 23.668930499999995
18.6936915 10.199140499999999 23.199090499999997
31.9386315 30.421743499999998 17.963733499999996
17.7288505 12.3799935 22.978652499999995
17.339561500000002 12.401353499999999 24.629726499999997
24.7709575 12.436327499999999 17.5610665
30.4517015 23.9300415 31.8737055
31.493948500000002 23.0466325 30.773185499999997
31.5292935 24.854631499999996 30.7606295
30.3007415 23.9134855 28.9198425
18.9025065 12.4246825 24.150214499999997
30.842578500000002 31.534800499999996 18.880421499999997
30.746613500000002 31.538973499999997 17.1226125
24.556827499999997 18.7397285 29.538911499999998
18.181242499999996 30.255433500000002 28.935886500000002
17.0470415 29.4055345 29.7975505
17.729763499999997 30.4496295 31.864123499999998
31.2227235 19.047244499999998 31.0674105
30.466016500000002 17.6037435 31.808266500000002
31.780328499999996 17.367920499999997 30.5629565
29.509344499999997 17.0084375 29.705029500000002
30.256490499999998 18.327566499999996 29.012969499999997
29.092136500000002 18.546668499999996 30.1979075
17.2416855 31.6287375 30.651059500000002
24.945567499999996 17.838620499999998 31.727205499999997
23.526405499999996 18.928582499999997 31.677051499999997
23.285725499999998 17.194798499999997 31.6969275
22.9942985 18.1404085 29.4789915
24.3020955 17.1375355 29.507313500000002
29.3045415 24.739600499999995 29.954246499999996
29.296245499999998 23.087106499999997 29.985639499999998
23.1399265 12.4260665 17.4983875
19.0019695 31.112652499999996 10.7453785
24.7950685 10.247302499999998 18.5734955
19.008621499999997 23.6135745 10.232935499999998
17.178175500000002 23.230852499999997 10.201426499999998
17.747812500000002 24.961380499999997 10.202524499999999
17.060694499999997 24.2472245 12.438357499999999
18.7291545 24.550540499999997 12.3978825
18.1514855 23.015780499999998 12.404427499999999
23.9530515 10.2407825 16.9642575
24.8465565 30.7967965 10.351943499999999
23.055119499999996 30.7753715 10.402189499999999
23.925768499999997 31.924308500000002 11.518879499999999
23.0873055 29.946707500000002 12.660314499999998
18.963094499999997 31.364386500000002 30.9045105
23.9261135 28.924150499999996 11.594519499999999
31.712734499999996 17.8583475 19.0307155
18.824164500000002 18.4270705 29.4765205
31.6855665 18.9270865 17.577526499999998
17.9173855 17.037349499999998 29.481998499999996
17.063858500000002 17.5532265 31.682326500000002
17.476569499999997 30.533271499999998 10.1034885
17.493964499999997 31.829207499999995 11.379408499999998
17.0537285 29.611172500000002 12.319866499999998
18.4504655 30.171747500000002 12.897696499999999
18.450469499999997 29.0010915 11.7304515
23.864597499999995 12.4116255 18.923866499999995
10.245377499999998 16.9710625 24.131201499999996
10.2123975 18.6587265 24.724960499999995
10.258360499999998 18.3186095 22.925112499999997
12.437211499999998 18.889002499999997 23.719114499999996
12.438022499999999 17.3658895 23.222204499999997
12.416971499999999 17.667564499999997 24.830169499999997
23.007354499999998 10.1905185 18.467578500000002
18.8201855 17.4394335 31.694678500000002
18.048308499999997 19.044450499999996 31.717749499999996
17.1667025 18.4780265 29.479659499999997
18.582666500000002 18.733174499999997 12.439829499999998
11.979680499999999 12.0295355 23.873538499999995
29.942480500000002 23.8800625 29.829362500000002
17.931720499999997 23.9941385 12.008730499999999
18.064566499999998 12.047091499999999 23.9950635
12.0116065 18.0108795 23.846247499999997
17.9177375 17.9937035 29.856812499999997
18.0520865 29.845181500000002 23.9950435
29.9415755 29.8595745 18.0436295
17.9810035 29.8025905 29.918766499999997
12.090226499999998 29.944598499999998 17.9418485
24.0025135 29.814634499999997 29.917173499999997
23.8552215 29.874523500000002 12.004607499999999
24.002196499999997 18.0012525 12.094184499999999
24.0154905 17.9285525 29.9181175
29.839349499999997 17.9285565 17.9795785
23.9874955 12.0795695 17.943771499999997
29.927201500000002 18.0504695 29.872713499999996
29.877956499999996 18.0677775 12.0371765
24.0056855 12.0204685 23.9886835
18.040564499999995 17.9866635 11.9666375
29.7843715 12.0149675 17.976901499999997
17.9136495 29.934352499999996 12.0702895
12.0871325 17.922658499999997 12.070710499999999
15.019174499999998 15.246103499999998 15.1688955
26.741217499999998 26.8040315 21.1336345
15.0134855 26.976913499999995 15.252722499999999
26.9501225 27.014838499999996 15.2426705
14.728123499999999 27.097247499999995 20.949617499999995
26.951189499999998 20.728978499999997 26.885113499999996
26.742408499999996 20.9975485 21.218228499999995
26.7842985 21.148796499999996 15.1346885
21.1302315 15.027077499999999 14.7409965
15.246494499999999 20.993385499999995 26.700084499999996
27.103427499999995 15.0344875 27.1813705
27.071898499999996 15.1202925 20.849098499999997
20.9987675 15.210659499999998 27.1954195
26.741420499999997 15.194213499999998 14.9940875
20.9372445 21.0370385 14.7585965
20.870250499999997 26.586330499999995 26.768117499999995
20.892284499999995 20.7671445 20.820561499999997
20.971044499999998 26.644141499999996 21.2074535
20.6482995 21.052963499999997 26.8595095
20.900419499999998 14.875714499999999 20.754352499999996
27.0263695 27.045995499999997 27.068712499999997
14.7711685 26.8598785 27.0751025
21.0772805 26.7327005 15.1863765
15.085514499999999 15.2077975 26.8239405
14.9513585 21.193493499999995 15.126628499999999
14.9153995 14.810773499999998 20.936893499999996
14.699747499999999 21.014013499999997 20.855112499999997
