3_train/216_cspbbr3_MA-TPC_4_0.60\216_cspbbr3_MA-TPC_4_0.60.xyz
1.0
48.324594000000005 0 0
0 48.324594000000005 0
0 0 48.324594000000005
Br C Cs H N O Pb S 
180 351 61 486 51 120 64 60 
Cartesian
15.237297000000002 15.237297000000002 12.262297000000002
15.237297000000002 15.237297000000002 18.212297
15.237297000000002 12.262297000000002 21.187297
15.237297000000002 15.237297000000002 24.162297000000002
15.237297000000002 15.237297000000002 30.112297000000005
15.237297000000002 15.237297000000002 36.062297
15.237297000000002 18.212297 15.237297000000002
12.262297000000002 21.187297 15.237297000000002
15.237297000000002 21.187297 18.212297
15.237297000000002 18.212297 21.187297
15.237297000000002 21.187297 24.162297000000002
15.237297000000002 18.212297 27.137297000000004
12.262297000000002 21.187297 27.137297000000004
15.237297000000002 21.187297 30.112297000000005
15.237297000000002 18.212297 33.087297
12.262297000000002 21.187297 33.087297
15.237297000000002 27.137297000000004 12.262297000000002
15.237297000000002 24.162297000000002 15.237297000000002
12.262297000000002 27.137297000000004 15.237297000000002
15.237297000000002 27.137297000000004 18.212297
15.237297000000002 24.162297000000002 21.187297
15.237297000000002 27.137297000000004 24.162297000000002
15.237297000000002 24.162297000000002 27.137297000000004
15.237297000000002 27.137297000000004 30.112297000000005
15.237297000000002 24.162297000000002 33.087297
15.237297000000002 27.137297000000004 36.062297
15.237297000000002 33.087297 12.262297000000002
15.237297000000002 30.112297000000005 15.237297000000002
15.237297000000002 33.087297 18.212297
15.237297000000002 30.112297000000005 21.187297
15.237297000000002 33.087297 24.162297000000002
15.237297000000002 30.112297000000005 27.137297000000004
12.262297000000002 33.087297 27.137297000000004
15.237297000000002 33.087297 30.112297000000005
15.237297000000002 30.112297000000005 33.087297
12.262297000000002 33.087297 33.087297
15.237297000000002 36.062297 27.137297000000004
15.237297000000002 36.062297 33.087297
21.187297 15.237297000000002 12.262297000000002
18.212297 15.237297000000002 15.237297000000002
21.187297 15.237297000000002 18.212297
21.187297 12.262297000000002 21.187297
18.212297 15.237297000000002 21.187297
21.187297 15.237297000000002 24.162297000000002
21.187297 12.262297000000002 27.137297000000004
18.212297 15.237297000000002 27.137297000000004
21.187297 15.237297000000002 30.112297000000005
18.212297 15.237297000000002 33.087297
21.187297 18.212297 15.237297000000002
18.212297 21.187297 15.237297000000002
21.187297 21.187297 18.212297
21.187297 18.212297 21.187297
18.212297 21.187297 21.187297
21.187297 21.187297 24.162297000000002
21.187297 18.212297 27.137297000000004
18.212297 21.187297 27.137297000000004
21.187297 21.187297 30.112297000000005
21.187297 18.212297 33.087297
18.212297 21.187297 33.087297
21.187297 21.187297 36.062297
21.187297 24.162297000000002 15.237297000000002
18.212297 27.137297000000004 15.237297000000002
21.187297 27.137297000000004 18.212297
21.187297 24.162297000000002 21.187297
18.212297 27.137297000000004 21.187297
21.187297 27.137297000000004 24.162297000000002
21.187297 24.162297000000002 27.137297000000004
18.212297 27.137297000000004 27.137297000000004
21.187297 27.137297000000004 30.112297000000005
21.187297 24.162297000000002 33.087297
18.212297 27.137297000000004 33.087297
21.187297 30.112297000000005 15.237297000000002
18.212297 33.087297 15.237297000000002
21.187297 33.087297 18.212297
21.187297 30.112297000000005 21.187297
18.212297 33.087297 21.187297
21.187297 33.087297 24.162297000000002
21.187297 30.112297000000005 27.137297000000004
18.212297 33.087297 27.137297000000004
21.187297 33.087297 30.112297000000005
21.187297 30.112297000000005 33.087297
18.212297 33.087297 33.087297
21.187297 33.087297 36.062297
24.162297000000002 15.237297000000002 15.237297000000002
27.137297000000004 15.237297000000002 18.212297
27.137297000000004 12.262297000000002 21.187297
24.162297000000002 15.237297000000002 21.187297
27.137297000000004 15.237297000000002 24.162297000000002
27.137297000000004 12.262297000000002 27.137297000000004
24.162297000000002 15.237297000000002 27.137297000000004
27.137297000000004 15.237297000000002 30.112297000000005
27.137297000000004 12.262297000000002 33.087297
24.162297000000002 15.237297000000002 33.087297
27.137297000000004 18.212297 15.237297000000002
24.162297000000002 21.187297 15.237297000000002
27.137297000000004 21.187297 18.212297
27.137297000000004 18.212297 21.187297
24.162297000000002 21.187297 21.187297
27.137297000000004 21.187297 24.162297000000002
27.137297000000004 18.212297 27.137297000000004
24.162297000000002 21.187297 27.137297000000004
27.137297000000004 21.187297 30.112297000000005
27.137297000000004 18.212297 33.087297
24.162297000000002 21.187297 33.087297
27.137297000000004 24.162297000000002 15.237297000000002
24.162297000000002 27.137297000000004 15.237297000000002
27.137297000000004 27.137297000000004 18.212297
27.137297000000004 24.162297000000002 21.187297
24.162297000000002 27.137297000000004 21.187297
27.137297000000004 27.137297000000004 24.162297000000002
27.137297000000004 24.162297000000002 27.137297000000004
24.162297000000002 27.137297000000004 27.137297000000004
27.137297000000004 27.137297000000004 30.112297000000005
27.137297000000004 24.162297000000002 33.087297
24.162297000000002 27.137297000000004 33.087297
27.137297000000004 33.087297 12.262297000000002
27.137297000000004 30.112297000000005 15.237297000000002
24.162297000000002 33.087297 15.237297000000002
27.137297000000004 33.087297 18.212297
27.137297000000004 30.112297000000005 21.187297
24.162297000000002 33.087297 21.187297
27.137297000000004 33.087297 24.162297000000002
27.137297000000004 30.112297000000005 27.137297000000004
24.162297000000002 33.087297 27.137297000000004
27.137297000000004 33.087297 30.112297000000005
27.137297000000004 30.112297000000005 33.087297
24.162297000000002 33.087297 33.087297
27.137297000000004 33.087297 36.062297
27.137297000000004 36.062297 27.137297000000004
33.087297 15.237297000000002 12.262297000000002
30.112297000000005 15.237297000000002 15.237297000000002
33.087297 15.237297000000002 18.212297
30.112297000000005 15.237297000000002 21.187297
33.087297 15.237297000000002 24.162297000000002
30.112297000000005 15.237297000000002 27.137297000000004
33.087297 15.237297000000002 30.112297000000005
30.112297000000005 15.237297000000002 33.087297
33.087297 18.212297 15.237297000000002
30.112297000000005 21.187297 15.237297000000002
33.087297 21.187297 18.212297
33.087297 18.212297 21.187297
30.112297000000005 21.187297 21.187297
33.087297 21.187297 24.162297000000002
33.087297 18.212297 27.137297000000004
30.112297000000005 21.187297 27.137297000000004
33.087297 21.187297 30.112297000000005
33.087297 18.212297 33.087297
30.112297000000005 21.187297 33.087297
33.087297 21.187297 36.062297
33.087297 24.162297000000002 15.237297000000002
30.112297000000005 27.137297000000004 15.237297000000002
33.087297 27.137297000000004 18.212297
33.087297 24.162297000000002 21.187297
30.112297000000005 27.137297000000004 21.187297
33.087297 27.137297000000004 24.162297000000002
33.087297 24.162297000000002 27.137297000000004
30.112297000000005 27.137297000000004 27.137297000000004
33.087297 27.137297000000004 30.112297000000005
33.087297 24.162297000000002 33.087297
30.112297000000005 27.137297000000004 33.087297
33.087297 30.112297000000005 15.237297000000002
30.112297000000005 33.087297 15.237297000000002
33.087297 33.087297 18.212297
33.087297 30.112297000000005 21.187297
30.112297000000005 33.087297 21.187297
33.087297 33.087297 24.162297000000002
33.087297 30.112297000000005 27.137297000000004
30.112297000000005 33.087297 27.137297000000004
33.087297 33.087297 30.112297000000005
33.087297 30.112297000000005 33.087297
30.112297000000005 33.087297 33.087297
33.087297 36.062297 15.237297000000002
33.087297 36.062297 21.187297
33.087297 36.062297 27.137297000000004
36.062297 15.237297000000002 15.237297000000002
36.062297 15.237297000000002 27.137297000000004
36.062297 27.137297000000004 15.237297000000002
36.062297 27.137297000000004 27.137297000000004
36.062297 33.087297 15.237297000000002
36.062297 33.087297 21.187297
32.451402 27.502812000000006 39.71858400000001
32.128906 27.682318000000002 38.354884000000006
33.087297 27.137297000000004 37.5129
33.643564000000005 26.826968 39.889759000000005
33.087297 27.137297000000004 36.062297
14.930086000000001 33.753319000000005 39.71858400000001
14.770888000000001 34.086309 38.354884000000006
15.237297000000002 33.087297 37.5129
15.511486000000001 32.512356000000004 39.889759000000005
15.237297000000002 33.087297 36.062297
14.626601000000003 21.593516 39.71858400000001
14.316502000000002 21.793678 38.354884000000006
15.237297000000002 21.187297 37.5129
15.772134000000003 20.841341 39.889759000000005
15.237297000000002 21.187297 36.062297
21.284049000000003 15.964348000000003 39.71858400000001
21.327690000000004 16.330847000000002 38.354884000000006
21.187297 15.237297000000002 37.5129
21.111371000000005 14.604864000000001 39.889759000000005
21.187297 15.237297000000002 36.062297
32.749655000000004 32.436174 39.71858400000001
32.58428 32.106208 38.354884000000006
33.087297 33.087297 37.5129
33.373251 33.656478 39.889759000000005
33.087297 33.087297 36.062297
27.087427000000005 14.505534000000003 39.71858400000001
27.067408 14.136989000000002 38.354884000000006
27.137297000000004 15.237297000000002 37.5129
27.172459000000003 15.873300000000002 39.889759000000005
27.137297000000004 15.237297000000002 36.062297
20.846435 26.487854000000006 39.71858400000001
20.679428 26.158711000000004 38.354884000000006
21.187297 27.137297000000004 37.5129
21.476067 27.705055 39.889759000000005
21.187297 27.137297000000004 36.062297
26.509700000000002 20.80771 39.71858400000001
26.196546000000005 20.612363000000002 38.354884000000006
27.137297000000004 21.187297 37.5129
27.678065000000004 21.523908000000006 39.889759000000005
27.137297000000004 21.187297 36.062297
33.569807000000004 15.789699000000002 39.71858400000001
33.80876 16.070995000000003 38.354884000000006
33.087297 15.237297000000002 37.5129
32.674443000000004 14.752232000000001 39.889759000000005
33.087297 15.237297000000002 36.062297
26.656033 27.690785000000005 39.71858400000001
26.410039000000005 27.965945000000005 38.354884000000006
27.137297000000004 27.137297000000004 37.5129
27.561377 26.662015000000004 39.889759000000005
27.137297000000004 27.137297000000004 36.062297
32.397676000000004 26.887523 8.606010000000001
32.048950000000005 26.766627 9.969710000000003
33.087297 27.137297000000004 10.811694000000003
33.68893 27.346520000000005 8.434835000000001
33.087297 27.137297000000004 12.262297000000002
20.561793 26.754272 8.606010000000001
20.244404000000003 26.565883 9.969710000000003
21.187297 27.137297000000004 10.811694000000003
21.734735 27.462947 8.434835000000001
21.187297 27.137297000000004 12.262297000000002
21.887712 20.969622 8.606010000000001
22.238629000000003 20.855238 9.969710000000003
21.187297 21.187297 10.811694000000003
20.581493000000002 21.384117000000003 8.434835000000001
21.187297 21.187297 12.262297000000002
26.404816000000004 21.149412000000005 8.606010000000001
26.035993000000005 21.135428000000005 9.969710000000003
27.137297000000004 21.187297 10.811694000000003
27.773791000000003 21.212044000000006 8.434835000000001
27.137297000000004 21.187297 12.262297000000002
14.554392000000002 20.919707000000002 8.606010000000001
14.208921000000002 20.789799000000002 9.969710000000003
15.237297000000002 21.187297 10.811694000000003
15.833296000000002 21.412067 8.434835000000001
15.237297000000002 21.187297 12.262297000000002
26.428625000000004 26.948227000000003 8.606010000000001
26.070733000000004 26.858008000000005 9.969710000000003
27.137297000000004 27.137297000000004 10.811694000000003
27.754798 27.293594000000006 8.434835000000001
27.137297000000004 27.137297000000004 12.262297000000002
33.246005000000004 20.471214000000003 8.606010000000001
33.320896000000005 20.109803 9.969710000000003
33.087297 21.187297 10.811694000000003
32.957448 21.810896 8.434835000000001
33.087297 21.187297 12.262297000000002
21.843081000000005 32.7588 8.606010000000001
22.170773000000004 32.588963 9.969710000000003
21.187297 33.087297 10.811694000000003
20.621483 33.379856000000004 8.434835000000001
21.187297 33.087297 12.262297000000002
32.353858 33.081783 8.606010000000001
31.984777 33.084094 9.969710000000003
33.087297 33.087297 10.811694000000003
33.724263 33.083923 8.434835000000001
33.087297 33.087297 12.262297000000002
26.528787 15.646783000000001 8.606010000000001
26.225444000000003 15.857043000000003 9.969710000000003
27.137297000000004 15.237297000000002 10.811694000000003
27.661158 14.874935000000002 8.434835000000001
27.137297000000004 15.237297000000002 12.262297000000002
8.606010000000001 27.200706000000004 32.356583
9.969710000000003 27.227545000000006 31.988472
10.811694000000003 27.137297000000004 33.087297
8.434835000000001 27.090366000000003 33.72254
12.262297000000002 27.137297000000004 33.087297
8.606010000000001 15.815041000000003 20.735439
9.969710000000003 16.102609 20.504072
10.811694000000003 15.237297000000002 21.187297
8.434835000000001 14.740625000000001 21.586112
12.262297000000002 15.237297000000002 21.187297
8.606010000000001 27.054775 26.408494000000005
9.969710000000003 27.008199000000005 26.042356000000005
10.811694000000003 27.137297000000004 27.137297000000004
8.434835000000001 27.217069000000002 27.769257000000003
12.262297000000002 27.137297000000004 27.137297000000004
8.606010000000001 33.81195 21.300619000000005
9.969710000000003 34.177357 21.352614000000003
10.811694000000003 33.087297 21.187297
8.434835000000001 32.456761 21.096956000000006
12.262297000000002 33.087297 21.187297
8.606010000000001 27.797208000000005 20.867171000000006
9.969710000000003 28.127034000000002 20.701518
10.811694000000003 27.137297000000004 21.187297
8.434835000000001 26.567806000000004 21.472633000000002
12.262297000000002 27.137297000000004 21.187297
8.606010000000001 14.854415000000001 33.712888
9.969710000000003 14.666098000000002 34.030321
10.811694000000003 15.237297000000002 33.087297
8.434835000000001 15.562822000000002 32.539784000000004
12.262297000000002 15.237297000000002 33.087297
8.606010000000001 21.707421000000004 20.670156000000002
9.969710000000003 21.965544 20.406341
10.811694000000003 21.187297 21.187297
8.434835000000001 20.741387000000003 21.642161
12.262297000000002 21.187297 21.187297
8.606010000000001 33.448080000000004 15.875889000000003
9.969710000000003 33.634042 16.194706000000004
10.811694000000003 33.087297 15.237297000000002
8.434835000000001 32.766893 14.686772000000003
12.262297000000002 33.087297 15.237297000000002
8.606010000000001 15.673151000000002 14.647386000000003
9.969710000000003 15.888368000000002 14.347540000000002
10.811694000000003 15.237297000000002 15.237297000000002
8.434835000000001 14.865376000000003 15.754415000000002
12.262297000000002 15.237297000000002 15.237297000000002
8.606010000000001 15.618411000000002 26.510627
9.969710000000003 15.805830000000002 26.192664
10.811694000000003 15.237297000000002 27.137297000000004
8.434835000000001 14.913319000000003 27.685727
12.262297000000002 15.237297000000002 27.137297000000004
39.71858400000001 21.885221 15.011761000000002
38.354884000000006 22.237957 14.903118000000001
37.5129 21.187297 15.237297000000002
39.889759000000005 20.578724 15.425380000000002
36.062297 21.187297 15.237297000000002
39.71858400000001 33.26737 33.798308
38.354884000000006 33.353047000000004 34.157315000000004
37.5129 33.087297 33.087297
39.889759000000005 32.938838000000004 32.467865
36.062297 33.087297 33.087297
39.71858400000001 33.244782 26.420944000000006
38.354884000000006 33.328991 26.061590000000002
37.5129 33.087297 27.137297000000004
39.889759000000005 32.942567000000004 27.757611000000004
36.062297 33.087297 27.137297000000004
39.71858400000001 26.436 21.402112000000002
38.354884000000006 26.08164 21.505337000000004
37.5129 27.137297000000004 21.187297
39.889759000000005 27.748681000000005 21.008561
36.062297 27.137297000000004 21.187297
39.71858400000001 21.569185000000004 20.561098
38.354884000000006 21.765681 20.248663
37.5129 21.187297 21.187297
39.889759000000005 20.848704000000005 21.726826000000003
36.062297 21.187297 21.187297
39.71858400000001 26.672865 32.519612
38.354884000000006 26.443115000000006 32.23075
37.5129 27.137297000000004 33.087297
39.889759000000005 27.534282000000005 33.585433
36.062297 27.137297000000004 33.087297
39.71858400000001 15.911852000000001 33.375289
38.354884000000006 16.249269 33.524875
37.5129 15.237297000000002 33.087297
39.889759000000005 14.654732000000001 32.829703
36.062297 15.237297000000002 33.087297
39.71858400000001 20.508456000000002 33.365034
38.354884000000006 20.164959000000003 33.500076
37.5129 21.187297 33.087297
39.889759000000005 21.779881000000003 32.853671
36.062297 21.187297 33.087297
39.71858400000001 20.768765000000002 26.534972000000003
38.354884000000006 20.562350000000002 26.229000000000006
37.5129 21.187297 27.137297000000004
39.889759000000005 21.544038 27.665002
36.062297 21.187297 27.137297000000004
39.71858400000001 15.970657000000001 21.19941
38.354884000000006 16.339576 21.210590000000003
37.5129 15.237297000000002 21.187297
39.889759000000005 14.600596000000001 21.168616
36.062297 15.237297000000002 21.187297
33.600080000000005 8.606010000000001 14.712876000000001
33.861732 9.969710000000003 14.452560000000002
33.087297 10.811694000000003 15.237297000000002
32.63617 8.434835000000001 15.686987000000002
33.087297 12.262297000000002 15.237297000000002
15.308826000000002 8.606010000000001 27.867261000000006
15.339756000000003 9.969710000000003 28.235051000000006
15.237297000000002 10.811694000000003 27.137297000000004
15.183307000000001 8.434835000000001 26.502615000000006
15.237297000000002 12.262297000000002 27.137297000000004
15.068693000000001 8.606010000000001 33.801115
14.978908000000002 9.969710000000003 34.159116000000004
15.237297000000002 10.811694000000003 33.087297
15.391654000000003 8.434835000000001 32.469308000000005
15.237297000000002 12.262297000000002 33.087297
27.161478000000002 8.606010000000001 14.504236000000002
27.178728 9.969710000000003 14.135551000000001
27.137297000000004 10.811694000000003 15.237297000000002
27.108140000000006 8.434835000000001 15.873604000000002
27.137297000000004 12.262297000000002 15.237297000000002
32.994611 8.606010000000001 27.864877
32.942929 9.969710000000003 28.230329000000005
33.087297 10.811694000000003 27.137297000000004
33.175881000000004 8.434835000000001 26.506512
33.087297 12.262297000000002 27.137297000000004
20.463741000000002 8.606010000000001 15.117173000000003
20.100503000000003 9.969710000000003 15.051714000000002
21.187297 10.811694000000003 15.237297000000002
21.814282000000006 8.434835000000001 15.349663000000001
21.187297 12.262297000000002 15.237297000000002
21.084575 8.606010000000001 33.813528000000005
21.027852000000003 9.969710000000003 34.178232
21.187297 10.811694000000003 33.087297
21.284582 8.434835000000001 32.457795000000004
21.187297 12.262297000000002 33.087297
32.929178 8.606010000000001 33.803511
32.844651 9.969710000000003 34.16279
33.087297 10.811694000000003 33.087297
33.232576 8.434835000000001 32.467111
33.087297 12.262297000000002 33.087297
33.684794000000004 8.606010000000001 21.612692000000003
33.982485000000004 9.969710000000003 21.830881000000005
33.087297 10.811694000000003 21.187297
32.573177 8.434835000000001 20.811242
33.087297 12.262297000000002 21.187297
15.845968000000001 8.606010000000001 14.828050000000003
16.155069000000005 9.969710000000003 14.626351000000001
15.237297000000002 10.811694000000003 15.237297000000002
14.704184000000001 8.434835000000001 15.585905000000002
15.237297000000002 12.262297000000002 15.237297000000002
27.868699 39.71858400000001 33.142202000000005
28.237098000000003 38.354884000000006 33.164757
27.137297000000004 37.5129 33.087297
26.501551000000006 39.889759000000005 33.047759
27.137297000000004 36.062297 33.087297
21.254447000000006 39.71858400000001 20.456917000000004
21.283170000000005 38.354884000000006 20.088948000000002
21.187297 37.5129 21.187297
21.137114000000004 39.889759000000005 21.822292000000004
21.187297 36.062297 21.187297
21.197556000000006 39.71858400000001 32.353909
21.197632000000006 38.354884000000006 31.98482
21.187297 37.5129 33.087297
21.186551 39.889759000000005 33.724271
21.187297 36.062297 33.087297
20.782868 39.71858400000001 14.625414000000001
20.57513 38.354884000000006 14.320339000000002
21.187297 37.5129 15.237297000000002
21.545305000000006 39.889759000000005 15.764143000000002
21.187297 36.062297 15.237297000000002
32.608035 39.71858400000001 33.642519
32.370736 38.354884000000006 33.925212
33.087297 37.5129 33.087297
33.497299000000005 39.889759000000005 32.599819000000004
33.087297 36.062297 33.087297
21.587453000000004 39.71858400000001 27.751983000000003
21.793060000000004 38.354884000000006 28.058499000000005
21.187297 37.5129 27.137297000000004
20.832968 39.889759000000005 26.607969000000004
21.187297 36.062297 27.137297000000004
15.907268000000002 39.71858400000001 20.888797000000004
16.242306 38.354884000000006 20.733956000000003
15.237297000000002 37.5129 21.187297
14.658829000000003 39.889759000000005 21.453965000000004
15.237297000000002 36.062297 21.187297
27.562693000000003 39.71858400000001 14.639801000000002
27.772595000000003 38.354884000000006 14.336210000000003
27.137297000000004 37.5129 15.237297000000002
26.774541000000006 39.889759000000005 15.760885000000002
27.137297000000004 36.062297 15.237297000000002
15.239295000000002 39.71858400000001 15.970754000000001
15.245386000000002 38.354884000000006 16.339792000000003
15.237297000000002 37.5129 15.237297000000002
15.227399000000002 39.889759000000005 14.600399000000001
15.237297000000002 36.062297 15.237297000000002
27.841689000000002 39.71858400000001 21.391737000000006
28.197534000000005 38.354884000000006 21.489720000000005
27.137297000000004 37.5129 21.187297
26.523342 39.889759000000005 21.017605000000003
27.137297000000004 36.062297 21.187297
18.212297 37.537958 18.212297
10.786636000000001 30.112297000000005 18.212297
18.212297 37.10574700000001 37.10574700000001
37.537958 24.162297000000002 18.212297
10.786636000000001 24.162297000000002 24.162297000000002
30.112297000000005 18.212297 37.537958
37.10574700000001 37.10574700000001 30.112297000000005
30.112297000000005 37.10574700000001 11.218847000000002
24.162297000000002 24.162297000000002 10.786636000000001
30.112297000000005 37.10574700000001 37.10574700000001
18.212297 30.112297000000005 37.537958
10.786636000000001 30.112297000000005 24.162297000000002
18.212297 24.162297000000002 37.537958
24.162297000000002 30.112297000000005 10.786636000000001
37.10574700000001 30.112297000000005 37.10574700000001
24.162297000000002 11.218847000000002 37.10574700000001
18.212297 11.218847000000002 11.218847000000002
11.218847000000002 24.162297000000002 37.10574700000001
37.10574700000001 18.212297 37.10574700000001
11.218847000000002 37.10574700000001 30.112297000000005
24.162297000000002 18.212297 37.537958
11.218847000000002 30.112297000000005 11.218847000000002
11.218847000000002 11.218847000000002 24.162297000000002
30.112297000000005 10.786636000000001 24.162297000000002
18.212297 10.786636000000001 24.162297000000002
10.786636000000001 24.162297000000002 18.212297
37.10574700000001 11.218847000000002 30.112297000000005
10.786636000000001 18.212297 24.162297000000002
24.162297000000002 10.786636000000001 30.112297000000005
30.112297000000005 24.162297000000002 37.537958
37.10574700000001 24.162297000000002 37.10574700000001
30.112297000000005 30.112297000000005 10.786636000000001
24.162297000000002 10.786636000000001 18.212297
18.212297 10.786636000000001 18.212297
11.218847000000002 37.10574700000001 24.162297000000002
11.218847000000002 24.162297000000002 11.218847000000002
30.112297000000005 10.786636000000001 30.112297000000005
24.162297000000002 37.537958 18.212297
37.537958 18.212297 18.212297
37.537958 18.212297 30.112297000000005
11.218847000000002 30.112297000000005 37.10574700000001
37.537958 30.112297000000005 18.212297
10.786636000000001 24.162297000000002 30.112297000000005
18.212297 24.162297000000002 10.786636000000001
11.218847000000002 37.10574700000001 18.212297
24.162297000000002 10.786636000000001 24.162297000000002
37.537958 24.162297000000002 24.162297000000002
30.112297000000005 18.212297 10.786636000000001
24.162297000000002 37.10574700000001 37.10574700000001
37.10574700000001 37.10574700000001 24.162297000000002
18.212297 18.212297 37.537958
12.262297000000002 12.262297000000002 18.212297
12.262297000000002 12.262297000000002 30.112297000000005
12.262297000000002 18.212297 12.262297000000002
12.262297000000002 18.212297 18.212297
12.262297000000002 18.212297 36.062297
12.262297000000002 30.112297000000005 30.112297000000005
18.212297 12.262297000000002 36.062297
18.212297 18.212297 12.262297000000002
18.212297 18.212297 18.212297
18.212297 18.212297 24.162297000000002
18.212297 18.212297 30.112297000000005
18.212297 24.162297000000002 18.212297
18.212297 24.162297000000002 24.162297000000002
18.212297 24.162297000000002 30.112297000000005
18.212297 30.112297000000005 12.262297000000002
18.212297 30.112297000000005 18.212297
18.212297 30.112297000000005 24.162297000000002
18.212297 30.112297000000005 30.112297000000005
18.212297 36.062297 12.262297000000002
18.212297 36.062297 30.112297000000005
24.162297000000002 12.262297000000002 12.262297000000002
24.162297000000002 18.212297 12.262297000000002
24.162297000000002 18.212297 18.212297
24.162297000000002 18.212297 24.162297000000002
24.162297000000002 18.212297 30.112297000000005
24.162297000000002 24.162297000000002 18.212297
24.162297000000002 24.162297000000002 24.162297000000002
24.162297000000002 24.162297000000002 30.112297000000005
24.162297000000002 24.162297000000002 36.062297
24.162297000000002 30.112297000000005 18.212297
24.162297000000002 30.112297000000005 24.162297000000002
24.162297000000002 30.112297000000005 30.112297000000005
24.162297000000002 30.112297000000005 36.062297
24.162297000000002 36.062297 12.262297000000002
24.162297000000002 36.062297 24.162297000000002
24.162297000000002 36.062297 30.112297000000005
30.112297000000005 12.262297000000002 12.262297000000002
30.112297000000005 12.262297000000002 36.062297
30.112297000000005 18.212297 18.212297
30.112297000000005 18.212297 24.162297000000002
30.112297000000005 18.212297 30.112297000000005
30.112297000000005 24.162297000000002 12.262297000000002
30.112297000000005 24.162297000000002 18.212297
30.112297000000005 24.162297000000002 24.162297000000002
30.112297000000005 24.162297000000002 30.112297000000005
30.112297000000005 30.112297000000005 18.212297
30.112297000000005 30.112297000000005 24.162297000000002
30.112297000000005 30.112297000000005 30.112297000000005
30.112297000000005 36.062297 18.212297
30.112297000000005 36.062297 24.162297000000002
30.112297000000005 36.062297 30.112297000000005
36.062297 12.262297000000002 18.212297
36.062297 12.262297000000002 24.162297000000002
36.062297 18.212297 12.262297000000002
36.062297 18.212297 24.162297000000002
36.062297 24.162297000000002 12.262297000000002
36.062297 24.162297000000002 30.112297000000005
36.062297 30.112297000000005 12.262297000000002
36.062297 30.112297000000005 24.162297000000002
36.062297 30.112297000000005 30.112297000000005
36.062297 36.062297 18.212297
34.12795 26.553283 40.824594000000005
31.837097 27.85461 40.546312
31.237303000000004 28.187717000000006 37.984476
15.748244000000001 32.008889 40.824594000000005
14.632549000000003 34.395662 40.546312
14.336035000000003 35.014363 37.984476
16.237634 20.536639 40.824594000000005
14.036555000000002 21.984640000000006 40.546312
13.459769000000001 22.356165000000004 37.984476
21.042058000000004 14.052841000000003 40.824594000000005
21.376308 16.666217000000003 40.546312
21.456783 17.347566 37.984476
33.625709 34.152259 40.824594000000005
32.424783000000005 31.807214000000002 40.546312
32.117956 31.193561000000003 37.984476
27.206186000000002 16.428635 40.824594000000005
27.040423000000004 13.799189000000002 40.546312
27.003863000000003 13.114079000000002 37.984476
21.730976000000005 28.199579 40.824594000000005
20.518452000000003 25.860510000000005 40.546312
20.20859 25.248384 37.984476
28.151980000000002 21.815348 40.824594000000005
25.904555000000002 20.440379 40.546312
25.322790000000005 20.076701 37.984476
32.311546 14.330522000000002 40.824594000000005
34.034654 16.323599 40.546312
34.478337 16.846913 37.984476
27.929526000000003 26.244882000000004 40.824594000000005
26.190683 28.224246 40.546312
25.732927000000004 28.735296000000005 37.984476
34.213419 27.532113000000003 7.500000000000002
31.731697000000004 26.647516000000003 7.778282000000002
31.083248000000005 26.423403 10.340118000000002
22.211338000000005 27.749973000000004 7.500000000000002
19.95749 26.385557000000006 7.778282000000002
19.367174000000002 26.03593 10.340118000000002
20.051436000000002 21.553153000000002 7.500000000000002
22.563388000000003 20.758450000000003 7.778282000000002