3_train/276_cspbbr3_MA-Cys_3_0.60\276_cspbbr3_MA-Cys_3_0.60.xyz
1.0
41.446326 0 0
0 41.446326 0
0 0 41.446326
Br C Cs H N O Pb S 
72 136 26 420 64 72 27 36 
Cartesian
11.798162999999999 14.773162999999998 14.773162999999998
14.773162999999998 14.773162999999998 17.748162999999998
11.798162999999999 14.773162999999998 20.723163
14.773162999999998 14.773162999999998 23.698162999999997
14.773162999999998 11.798162999999999 26.673163
11.798162999999999 14.773162999999998 26.673163
14.773162999999998 17.748162999999998 14.773162999999998
14.773162999999998 20.723163 17.748162999999998
14.773162999999998 17.748162999999998 20.723163
14.773162999999998 20.723163 23.698162999999997
14.773162999999998 17.748162999999998 26.673163
14.773162999999998 26.673163 11.798162999999999
14.773162999999998 23.698162999999997 14.773162999999998
14.773162999999998 26.673163 17.748162999999998
14.773162999999998 23.698162999999997 20.723163
14.773162999999998 26.673163 23.698162999999997
14.773162999999998 23.698162999999997 26.673163
14.773162999999998 26.673163 29.648163
14.773162999999998 29.648163 14.773162999999998
14.773162999999998 29.648163 20.723163
17.748162999999998 14.773162999999998 14.773162999999998
20.723163 14.773162999999998 17.748162999999998
17.748162999999998 14.773162999999998 20.723163
20.723163 14.773162999999998 23.698162999999997
17.748162999999998 14.773162999999998 26.673163
20.723163 17.748162999999998 14.773162999999998
17.748162999999998 20.723163 14.773162999999998
20.723163 20.723163 17.748162999999998
20.723163 17.748162999999998 20.723163
17.748162999999998 20.723163 20.723163
20.723163 20.723163 23.698162999999997
20.723163 17.748162999999998 26.673163
17.748162999999998 20.723163 26.673163
20.723163 20.723163 29.648163
20.723163 26.673163 11.798162999999999
20.723163 23.698162999999997 14.773162999999998
17.748162999999998 26.673163 14.773162999999998
20.723163 26.673163 17.748162999999998
20.723163 23.698162999999997 20.723163
17.748162999999998 26.673163 20.723163
20.723163 26.673163 23.698162999999997
20.723163 23.698162999999997 26.673163
17.748162999999998 26.673163 26.673163
20.723163 29.648163 14.773162999999998
26.673163 11.798162999999999 14.773162999999998
23.698162999999997 14.773162999999998 14.773162999999998
26.673163 14.773162999999998 17.748162999999998
23.698162999999997 14.773162999999998 20.723163
26.673163 14.773162999999998 23.698162999999997
26.673163 11.798162999999999 26.673163
23.698162999999997 14.773162999999998 26.673163
26.673163 14.773162999999998 29.648163
26.673163 17.748162999999998 14.773162999999998
23.698162999999997 20.723163 14.773162999999998
26.673163 20.723163 17.748162999999998
26.673163 17.748162999999998 20.723163
23.698162999999997 20.723163 20.723163
26.673163 20.723163 23.698162999999997
26.673163 17.748162999999998 26.673163
23.698162999999997 20.723163 26.673163
26.673163 26.673163 11.798162999999999
26.673163 23.698162999999997 14.773162999999998
23.698162999999997 26.673163 14.773162999999998
26.673163 26.673163 17.748162999999998
26.673163 23.698162999999997 20.723163
23.698162999999997 26.673163 20.723163
26.673163 26.673163 23.698162999999997
26.673163 23.698162999999997 26.673163
23.698162999999997 26.673163 26.673163
29.648163 20.723163 20.723163
29.648163 20.723163 26.673163
29.648163 26.673163 14.773162999999998
14.773162999999998 14.773162999999998 32.095738999999995
14.451270999999998 14.24791 30.699783999999998
15.890882999999999 15.822811999999999 32.027452999999994
26.673163 26.673163 32.095738999999995
26.351271 26.14791 30.699783999999998
27.790882999999997 27.722812 32.027452999999994
14.773162999999998 20.723163 32.095738999999995
14.451270999999998 20.19791 30.699783999999998
15.890882999999999 21.772812 32.027452999999994
26.673163 20.723163 32.095738999999995
26.351271 20.19791 30.699783999999998
27.790882999999997 21.772812 32.027452999999994
20.723163 26.673163 32.095738999999995
20.401270999999998 26.14791 30.699783999999998
21.840882999999998 27.722812 32.027452999999994
20.723163 14.773162999999998 32.095738999999995
20.401270999999998 14.24791 30.699783999999998
21.840882999999998 15.822811999999999 32.027452999999994
14.773162999999998 14.773162999999998 9.350586999999999
15.095054999999999 14.24791 10.746541999999998
13.655442999999998 15.822811999999999 9.418872999999998
26.673163 20.723163 9.350586999999999
26.995054999999997 20.19791 10.746541999999998
25.555443 21.772812 9.418872999999998
14.773162999999998 20.723163 9.350586999999999
15.095054999999999 20.19791 10.746541999999998
13.655442999999998 21.772812 9.418872999999998
20.723163 20.723163 9.350586999999999
21.045055 20.19791 10.746541999999998
19.605443 21.772812 9.418872999999998
26.673163 14.773162999999998 9.350586999999999
26.995054999999997 14.24791 10.746541999999998
25.555443 15.822811999999999 9.418872999999998
20.723163 14.773162999999998 9.350586999999999
21.045055 14.24791 10.746541999999998
19.605443 15.822811999999999 9.418872999999998
9.350586999999999 26.673163 20.723163
10.746541999999998 26.14791 20.401270999999998
9.418872999999998 27.722812 21.840882999999998
9.350586999999999 26.673163 14.773162999999998
10.746541999999998 26.14791 14.451270999999998
9.418872999999998 27.722812 15.890882999999999
9.350586999999999 20.723163 14.773162999999998
10.746541999999998 20.19791 14.451270999999998
9.418872999999998 21.772812 15.890882999999999
9.350586999999999 20.723163 20.723163
10.746541999999998 20.19791 20.401270999999998
9.418872999999998 21.772812 21.840882999999998
9.350586999999999 26.673163 26.673163
10.746541999999998 26.14791 26.351271
9.418872999999998 27.722812 27.790882999999997
9.350586999999999 20.723163 26.673163
10.746541999999998 20.19791 26.351271
9.418872999999998 21.772812 27.790882999999997
32.095738999999995 14.773162999999998 20.723163
30.699783999999998 14.24791 21.045055
32.027452999999994 15.822811999999999 19.605443
32.095738999999995 14.773162999999998 26.673163
30.699783999999998 14.24791 26.995054999999997
32.027452999999994 15.822811999999999 25.555443
32.095738999999995 26.673163 20.723163
30.699783999999998 26.14791 21.045055
32.027452999999994 27.722812 19.605443
32.095738999999995 14.773162999999998 14.773162999999998
30.699783999999998 14.24791 15.095054999999999
32.027452999999994 15.822811999999999 13.655442999999998
32.095738999999995 26.673163 26.673163
30.699783999999998 26.14791 26.995054999999997
32.027452999999994 27.722812 25.555443
32.095738999999995 20.723163 14.773162999999998
30.699783999999998 20.19791 15.095054999999999
32.027452999999994 21.772812 13.655442999999998
14.773162999999998 9.350586999999999 14.773162999999998
14.451270999999998 10.746541999999998 14.24791
15.890882999999999 9.418872999999998 15.822811999999999
14.773162999999998 9.350586999999999 20.723163
14.451270999999998 10.746541999999998 20.19791
15.890882999999999 9.418872999999998 21.772812
20.723163 9.350586999999999 14.773162999999998
20.401270999999998 10.746541999999998 14.24791
21.840882999999998 9.418872999999998 15.822811999999999
20.723163 9.350586999999999 20.723163
20.401270999999998 10.746541999999998 20.19791
21.840882999999998 9.418872999999998 21.772812
26.673163 9.350586999999999 20.723163
26.351271 10.746541999999998 20.19791
27.790882999999997 9.418872999999998 21.772812
20.723163 9.350586999999999 26.673163
20.401270999999998 10.746541999999998 26.14791
21.840882999999998 9.418872999999998 27.722812
20.723163 32.095738999999995 26.673163
20.401270999999998 30.699783999999998 27.198415999999998
21.840882999999998 32.027452999999994 25.623513999999997
26.673163 32.095738999999995 20.723163
26.351271 30.699783999999998 21.248416
27.790882999999997 32.027452999999994 19.673513999999997
20.723163 32.095738999999995 20.723163
20.401270999999998 30.699783999999998 21.248416
21.840882999999998 32.027452999999994 19.673513999999997
26.673163 32.095738999999995 26.673163
26.351271 30.699783999999998 27.198415999999998
27.790882999999997 32.027452999999994 25.623513999999997
26.673163 32.095738999999995 14.773162999999998
26.351271 30.699783999999998 15.298416
27.790882999999997 32.027452999999994 13.723513999999998
14.773162999999998 32.095738999999995 26.673163
14.451270999999998 30.699783999999998 27.198415999999998
15.890882999999999 32.027452999999994 25.623513999999997
23.698162999999997 17.748162999999998 10.322502
31.123824 17.748162999999998 17.748162999999998
10.754712999999999 30.691613 17.748162999999998
17.748162999999998 10.754712999999999 30.691613
30.691613 17.748162999999998 30.691613
23.698162999999997 10.754712999999999 30.691613
17.748162999999998 31.123824 17.748162999999998
17.748162999999998 23.698162999999997 31.123824
23.698162999999997 10.322502 17.748162999999998
23.698162999999997 23.698162999999997 10.322502
23.698162999999997 10.754712999999999 10.754712999999999
31.123824 17.748162999999998 23.698162999999997
23.698162999999997 30.691613 10.754712999999999
30.691613 10.754712999999999 23.698162999999997
10.754712999999999 30.691613 23.698162999999997
23.698162999999997 23.698162999999997 31.123824
10.754712999999999 23.698162999999997 10.754712999999999
23.698162999999997 10.322502 23.698162999999997
30.691613 30.691613 23.698162999999997
31.123824 23.698162999999997 23.698162999999997
10.322502 23.698162999999997 17.748162999999998
30.691613 17.748162999999998 10.754712999999999
17.748162999999998 10.754712999999999 10.754712999999999
10.754712999999999 17.748162999999998 10.754712999999999
30.691613 30.691613 17.748162999999998
30.691613 23.698162999999997 10.754712999999999
10.322502 17.748162999999998 17.748162999999998
17.748162999999998 10.322502 23.698162999999997
11.798162999999999 11.798162999999999 17.748162999999998
11.798162999999999 11.798162999999999 23.698162999999997
11.798162999999999 17.748162999999998 23.698162999999997
11.798162999999999 17.748162999999998 29.648163
11.798162999999999 23.698162999999997 29.648163
17.748162999999998 11.798162999999999 17.748162999999998
17.748162999999998 17.748162999999998 17.748162999999998
17.748162999999998 17.748162999999998 23.698162999999997
17.748162999999998 17.748162999999998 29.648163
17.748162999999998 23.698162999999997 11.798162999999999
17.748162999999998 23.698162999999997 17.748162999999998
17.748162999999998 23.698162999999997 23.698162999999997
17.748162999999998 29.648163 11.798162999999999
17.748162999999998 29.648163 23.698162999999997
17.748162999999998 29.648163 29.648163
23.698162999999997 17.748162999999998 17.748162999999998
23.698162999999997 17.748162999999998 23.698162999999997
23.698162999999997 17.748162999999998 29.648163
23.698162999999997 23.698162999999997 17.748162999999998
23.698162999999997 23.698162999999997 23.698162999999997
23.698162999999997 29.648163 17.748162999999998
23.698162999999997 29.648163 23.698162999999997
23.698162999999997 29.648163 29.648163
29.648163 11.798162999999999 17.748162999999998
29.648163 23.698162999999997 17.748162999999998
29.648163 23.698162999999997 29.648163
13.842382999999998 15.279888 32.431766999999994
13.552648999999999 12.827348999999998 29.822336999999997
14.564699999999998 12.871521999999999 32.870585
15.168100999999998 13.969373 33.946326
16.73405 15.417129999999998 31.453007
16.25039 16.031924999999998 33.042665
15.334230999999999 18.117428999999998 32.411152
25.742383 27.179888 32.431766999999994
25.452648999999997 24.727349 29.822336999999997
26.464699999999997 24.771522 32.870585
27.068101 25.869373 33.946326
28.63405 27.31713 31.453007
28.150389999999998 27.931925 33.042665
27.234230999999998 30.017429 32.411152
13.842382999999998 21.229888 32.431766999999994
13.552648999999999 18.777349 29.822336999999997
14.564699999999998 18.821521999999998 32.870585
15.168100999999998 19.919373 33.946326
16.73405 21.36713 31.453007
16.25039 21.981925 33.042665
15.334230999999999 24.067429 32.411152
25.742383 21.229888 32.431766999999994
25.452648999999997 18.777349 29.822336999999997
26.464699999999997 18.821521999999998 32.870585
27.068101 19.919373 33.946326
28.63405 21.36713 31.453007
28.150389999999998 21.981925 33.042665
27.234230999999998 24.067429 32.411152
19.792383 27.179888 32.431766999999994
19.502648999999998 24.727349 29.822336999999997
20.5147 24.771522 32.870585
21.118101 25.869373 33.946326
22.68405 27.31713 31.453007
22.20039 27.931925 33.042665
21.284231 30.017429 32.411152
19.792383 15.279888 32.431766999999994
19.502648999999998 12.827348999999998 29.822336999999997
20.5147 12.871521999999999 32.870585
21.118101 13.969373 33.946326
22.68405 15.417129999999998 31.453007
22.20039 16.031924999999998 33.042665
21.284231 18.117428999999998 32.411152
15.703942999999999 15.279888 9.014558999999998
15.993676999999998 12.827348999999998 11.623988999999998
14.981625999999999 12.871521999999999 8.575740999999999
14.378224999999999 13.969373 7.499999999999999
12.812275999999999 15.417129999999998 9.993319
13.295936 16.031924999999998 8.403661
14.212094999999998 18.117428999999998 9.035173999999998
27.603942999999997 21.229888 9.014558999999998
27.893677 18.777349 11.623988999999998
26.881626 18.821521999999998 8.575740999999999
26.278225 19.919373 7.499999999999999
24.712276 21.36713 9.993319
25.195936 21.981925 8.403661
26.112095 24.067429 9.035173999999998
15.703942999999999 21.229888 9.014558999999998
15.993676999999998 18.777349 11.623988999999998
14.981625999999999 18.821521999999998 8.575740999999999
14.378224999999999 19.919373 7.499999999999999
12.812275999999999 21.36713 9.993319
13.295936 21.981925 8.403661
14.212094999999998 24.067429 9.035173999999998
21.653942999999998 21.229888 9.014558999999998
21.943676999999997 18.777349 11.623988999999998
20.931625999999998 18.821521999999998 8.575740999999999
20.328225 19.919373 7.499999999999999
18.762276 21.36713 9.993319
19.245936 21.981925 8.403661
20.162095 24.067429 9.035173999999998
27.603942999999997 15.279888 9.014558999999998
27.893677 12.827348999999998 11.623988999999998
26.881626 12.871521999999999 8.575740999999999
26.278225 13.969373 7.499999999999999
24.712276 15.417129999999998 9.993319
25.195936 16.031924999999998 8.403661
26.112095 18.117428999999998 9.035173999999998
21.653942999999998 15.279888 9.014558999999998
21.943676999999997 12.827348999999998 11.623988999999998
20.931625999999998 12.871521999999999 8.575740999999999
20.328225 13.969373 7.499999999999999
18.762276 15.417129999999998 9.993319
19.245936 16.031924999999998 8.403661
20.162095 18.117428999999998 9.035173999999998
9.014558999999998 27.179888 19.792383
11.623988999999998 24.727349 19.502648999999998
8.575740999999999 24.771522 20.5147
7.499999999999999 25.869373 21.118101
9.993319 27.31713 22.68405
8.403661 27.931925 22.20039
9.035173999999998 30.017429 21.284231
9.014558999999998 27.179888 13.842382999999998
11.623988999999998 24.727349 13.552648999999999
8.575740999999999 24.771522 14.564699999999998
7.499999999999999 25.869373 15.168100999999998
9.993319 27.31713 16.73405
8.403661 27.931925 16.25039
9.035173999999998 30.017429 15.334230999999999
9.014558999999998 21.229888 13.842382999999998
11.623988999999998 18.777349 13.552648999999999
8.575740999999999 18.821521999999998 14.564699999999998
7.499999999999999 19.919373 15.168100999999998
9.993319 21.36713 16.73405
8.403661 21.981925 16.25039
9.035173999999998 24.067429 15.334230999999999
9.014558999999998 21.229888 19.792383
11.623988999999998 18.777349 19.502648999999998
8.575740999999999 18.821521999999998 20.5147
7.499999999999999 19.919373 21.118101
9.993319 21.36713 22.68405
8.403661 21.981925 22.20039
9.035173999999998 24.067429 21.284231
9.014558999999998 27.179888 25.742383
11.623988999999998 24.727349 25.452648999999997
8.575740999999999 24.771522 26.464699999999997
7.499999999999999 25.869373 27.068101
9.993319 27.31713 28.63405
8.403661 27.931925 28.150389999999998
9.035173999999998 30.017429 27.234230999999998
9.014558999999998 21.229888 25.742383
11.623988999999998 18.777349 25.452648999999997
8.575740999999999 18.821521999999998 26.464699999999997
7.499999999999999 19.919373 27.068101
9.993319 21.36713 28.63405
8.403661 21.981925 28.150389999999998
9.035173999999998 24.067429 27.234230999999998
32.431766999999994 15.279888 21.653942999999998
29.822336999999997 12.827348999999998 21.943676999999997
32.870585 12.871521999999999 20.931625999999998
33.946326 13.969373 20.328225
31.453007 15.417129999999998 18.762276
33.042665 16.031924999999998 19.245936
32.411152 18.117428999999998 20.162095
32.431766999999994 15.279888 27.603942999999997
29.822336999999997 12.827348999999998 27.893677
32.870585 12.871521999999999 26.881626
33.946326 13.969373 26.278225
31.453007 15.417129999999998 24.712276
33.042665 16.031924999999998 25.195936
32.411152 18.117428999999998 26.112095
32.431766999999994 27.179888 21.653942999999998
29.822336999999997 24.727349 21.943676999999997
32.870585 24.771522 20.931625999999998
33.946326 25.869373 20.328225
31.453007 27.31713 18.762276
33.042665 27.931925 19.245936
32.411152 30.017429 20.162095
32.431766999999994 15.279888 15.703942999999999
29.822336999999997 12.827348999999998 15.993676999999998
32.870585 12.871521999999999 14.981625999999999
33.946326 13.969373 14.378224999999999
31.453007 15.417129999999998 12.812275999999999
33.042665 16.031924999999998 13.295936
32.411152 18.117428999999998 14.212094999999998
32.431766999999994 27.179888 27.603942999999997
29.822336999999997 24.727349 27.893677
32.870585 24.771522 26.881626
33.946326 25.869373 26.278225
31.453007 27.31713 24.712276
33.042665 27.931925 25.195936
32.411152 30.017429 26.112095
32.431766999999994 21.229888 15.703942999999999
29.822336999999997 18.777349 15.993676999999998
32.870585 18.821521999999998 14.981625999999999
33.946326 19.919373 14.378224999999999
31.453007 21.36713 12.812275999999999
33.042665 21.981925 13.295936
32.411152 24.067429 14.212094999999998
13.842382999999998 9.014558999999998 15.279888
13.552648999999999 11.623988999999998 12.827348999999998
14.564699999999998 8.575740999999999 12.871521999999999
15.168100999999998 7.499999999999999 13.969373
16.73405 9.993319 15.417129999999998
16.25039 8.403661 16.031924999999998
15.334230999999999 9.035173999999998 18.117428999999998
13.842382999999998 9.014558999999998 21.229888
13.552648999999999 11.623988999999998 18.777349
14.564699999999998 8.575740999999999 18.821521999999998
15.168100999999998 7.499999999999999 19.919373
16.73405 9.993319 21.36713
16.25039 8.403661 21.981925
15.334230999999999 9.035173999999998 24.067429
19.792383 9.014558999999998 15.279888
19.502648999999998 11.623988999999998 12.827348999999998
20.5147 8.575740999999999 12.871521999999999
21.118101 7.499999999999999 13.969373
22.68405 9.993319 15.417129999999998
22.20039 8.403661 16.031924999999998
21.284231 9.035173999999998 18.117428999999998
19.792383 9.014558999999998 21.229888
19.502648999999998 11.623988999999998 18.777349
20.5147 8.575740999999999 18.821521999999998
21.118101 7.499999999999999 19.919373
22.68405 9.993319 21.36713
22.20039 8.403661 21.981925
21.284231 9.035173999999998 24.067429
25.742383 9.014558999999998 21.229888
25.452648999999997 11.623988999999998 18.777349
26.464699999999997 8.575740999999999 18.821521999999998
27.068101 7.499999999999999 19.919373
28.63405 9.993319 21.36713
28.150389999999998 8.403661 21.981925
27.234230999999998 9.035173999999998 24.067429
19.792383 9.014558999999998 27.179888
19.502648999999998 11.623988999999998 24.727349
20.5147 8.575740999999999 24.771522
21.118101 7.499999999999999 25.869373
22.68405 9.993319 27.31713
22.20039 8.403661 27.931925
21.284231 9.035173999999998 30.017429
19.792383 32.431766999999994 26.166438
19.502648999999998 29.822336999999997 28.618976999999997
20.5147 32.870585 28.574804
21.118101 33.946326 27.476952999999998
22.68405 31.453007 26.029196
22.20039 33.042665 25.414400999999998
21.284231 32.411152 23.328897
25.742383 32.431766999999994 20.216437999999997
25.452648999999997 29.822336999999997 22.668976999999998
26.464699999999997 32.870585 22.624804
27.068101 33.946326 21.526953
28.63405 31.453007 20.079196
28.150389999999998 33.042665 19.464401
27.234230999999998 32.411152 17.378897
19.792383 32.431766999999994 20.216437999999997
19.502648999999998 29.822336999999997 22.668976999999998
20.5147 32.870585 22.624804
21.118101 33.946326 21.526953
22.68405 31.453007 20.079196
22.20039 33.042665 19.464401
21.284231 32.411152 17.378897
25.742383 32.431766999999994 26.166438
25.452648999999997 29.822336999999997 28.618976999999997
26.464699999999997 32.870585 28.574804
27.068101 33.946326 27.476952999999998
28.63405 31.453007 26.029196
28.150389999999998 33.042665 25.414400999999998
27.234230999999998 32.411152 23.328897
25.742383 32.431766999999994 14.266437999999999
25.452648999999997 29.822336999999997 16.718977
26.464699999999997 32.870585 16.674803999999998
27.068101 33.946326 15.576953
28.63405 31.453007 14.129195999999999
28.150389999999998 33.042665 13.514401
27.234230999999998 32.411152 11.428897
13.842382999999998 32.431766999999994 26.166438
13.552648999999999 29.822336999999997 28.618976999999997
14.564699999999998 32.870585 28.574804
15.168100999999998 33.946326 27.476952999999998
16.73405 31.453007 26.029196
16.25039 33.042665 25.414400999999998
15.334230999999999 32.411152 23.328897
24.093712999999997 16.787087999999997 9.988581
22.668073 17.886143999999998 9.988581
24.332704 18.571257 9.988581
23.333622 18.633895 12.172905
24.647499999999997 17.620998999999998 12.172905
23.113367 16.989596 12.172905
31.457745 16.787087999999997 18.143712999999998
31.457745 17.886143999999998 16.718072999999997
31.457745 18.571257 18.382703999999997
29.273421 18.633895 17.383622
29.273421 17.620998999999998 18.697499999999998
29.273421 16.989596 17.163367
9.840283 30.249418 18.148049999999998
11.102630999999999 31.511765999999998 18.378979
10.612872 31.022007 16.71746
12.688282 30.008316999999998 17.379624999999997
11.524894999999999 28.844929999999998 17.1668
11.97626 29.296294999999997 18.698064
17.352612999999998 9.839012999999998 30.248148
18.778253 10.616162999999998 31.025298
17.113622 11.10061 31.509746
18.112704 12.689452999999999 30.009487
16.798826 11.973226999999998 29.293260999999998
18.332959 11.526758 28.846791999999997
30.648035 16.787087999999997 31.207427
31.656114 17.886143999999998 30.199347
30.479042999999997 18.571257 31.376419
29.640949 18.633895 29.125411
28.711897999999998 17.620998999999998 30.054463
29.796692999999998 16.989596 28.969666999999998
23.302612999999997 9.839012999999998 30.248148
24.728253 10.616162999999998 31.025298
23.063622 11.10061 31.509746
24.062704 12.689452999999999 30.009487
22.748825999999998 11.973226999999998 29.293260999999998
24.282958999999998 11.526758 28.846791999999997
17.352612999999998 31.457745 18.709238
18.778253 31.457745 17.610182
17.113622 31.457745 16.925069
18.112704 29.273421 16.862431
16.798826 29.273421 17.875327
18.332959 29.273421 18.506729999999997
17.352612999999998 22.737087999999996 31.457745
18.778253 23.836144 31.457745
17.113622 24.521257 31.457745
18.112704 24.583895 29.273421
16.798826 23.570998999999997 29.273421
18.332959 22.939595999999998 29.273421
23.302612999999997 9.988581 16.787087999999997
24.728253 9.988581 17.886143999999998
23.063622 9.988581 18.571257
24.062704 12.172905 18.633895
22.748825999999998 12.172905 17.620998999999998
24.282958999999998 12.172905 16.989596
24.093712999999997 22.737087999999996 9.988581
22.668073 23.836144 9.988581
24.332704 24.521257 9.988581
23.333622 24.583895 12.172905
24.647499999999997 23.570998999999997 12.172905
23.113367 22.939595999999998 12.172905
23.302612999999997 11.198177999999999 9.839012999999998
24.728253 10.421028 10.616162999999998
23.063622 9.93658 11.10061
24.062704 11.436838999999999 12.689452999999999
22.748825999999998 12.153064999999998 11.973226999999998
24.282958999999998 12.599533999999998 11.526758
31.457745 16.787087999999997 24.093712999999997
31.457745 17.886143999999998 22.668073
31.457745 18.571257 24.332704
29.273421 18.633895 23.333622
29.273421 17.620998999999998 24.647499999999997
29.273421 16.989596 23.113367
23.302612999999997 31.607312999999998 11.198177999999999
24.728253 30.830163 10.421028
23.063622 30.345716 9.93658
24.062704 28.756873 11.436838999999999
22.748825999999998 29.473098999999998 12.153064999999998
24.282958999999998 29.919567999999998 12.599533999999998
30.249418 9.840283 23.298275999999998
31.511765999999998 11.102630999999999 23.067346999999998
31.022007 10.612872 24.728866
30.008316999999998 12.688282 24.066701
28.844929999999998 11.524894999999999 24.279526
29.296294999999997 11.97626 22.748262
9.840283 30.249418 24.098049999999997
11.102630999999999 31.511765999999998 24.328979
10.612872 31.022007 22.66746
12.688282 30.008316999999998 23.329624999999997
11.524894999999999 28.844929999999998 23.1168
11.97626 29.296294999999997 24.648063999999998
23.302612999999997 22.737087999999996 31.457745
24.728253 23.836144 31.457745
23.063622 24.521257 31.457745
24.062704 24.583895 29.273421
22.748825999999998 23.570998999999997 29.273421
24.282958999999998 22.939595999999998 29.273421
10.798290999999999 22.737087999999996 10.238899
9.790211999999999 23.836144 11.246979
10.967282999999998 24.521257 10.069906999999999
11.805377 24.583895 12.320915
12.734428 23.570998999999997 11.391862999999999
11.649632999999998 22.939595999999998 12.476658999999998
23.302612999999997 9.988581 22.737087999999996
24.728253 9.988581 23.836144
23.063622 9.988581 24.521257
24.062704 12.172905 24.583895
22.748825999999998 12.172905 23.570998999999997
24.282958999999998 12.172905 22.939595999999998
31.210493 30.644968 24.657442
31.373784999999998 30.481676 22.872212
30.198914 31.656547999999997 23.564836
29.122584999999997 29.643776 22.814086999999997
28.972094 29.794266 24.459363999999997
30.054862 28.711499 23.821037999999998
31.457745 22.737087999999996 24.093712999999997
31.457745 23.836144 22.668073
31.457745 24.521257 24.332704
29.273421 24.583895 23.333622
29.273421 23.570998999999997 24.647499999999997
29.273421 22.939595999999998 23.113367
9.988581 22.737087999999996 17.352612999999998
9.988581 23.836144 18.778253
9.988581 24.521257 17.113622
12.172905 24.583895 18.112704
12.172905 23.570998999999997 16.798826
12.172905 22.939595999999998 18.332959
31.207427 16.787087999999997 10.798290999999999
30.199347 17.886143999999998 9.790211999999999
31.376419 18.571257 10.967282999999998
29.125411 18.633895 11.805377
30.054463 17.620998999999998 12.734428
28.969666999999998 16.989596 11.649632999999998
17.352612999999998 11.198177999999999 9.839012999999998
18.778253 10.421028 10.616162999999998
17.113622 9.93658 11.10061
18.112704 11.436838999999999 12.689452999999999
16.798826 12.153064999999998 11.973226999999998
18.332959 12.599533999999998 11.526758
10.798290999999999 16.787087999999997 10.238899
9.790211999999999 17.886143999999998 11.246979
10.967282999999998 18.571257 10.069906999999999
11.805377 18.633895 12.320915
12.734428 17.620998999999998 11.391862999999999
11.649632999999998 16.989596 12.476658999999998
31.210493 30.644968 18.707442
31.373784999999998 30.481676 16.922212
30.198914 31.656547999999997 17.614835999999997
29.122584999999997 29.643776 16.864086999999998
28.972094 29.794266 18.509363999999998
30.054862 28.711499 17.871038
31.207427 22.737087999999996 10.798290999999999
30.199347 23.836144 9.790211999999999
31.376419 24.521257 10.967282999999998
29.125411 24.583895 11.805377
30.054463 23.570998999999997 12.734428
28.969666999999998 22.939595999999998 11.649632999999998
9.988581 16.787087999999997 17.352612999999998
9.988581 17.886143999999998 18.778253
9.988581 18.571257 17.113622
12.172905 18.633895 18.112704
12.172905 17.620998999999998 16.798826
12.172905 16.989596 18.332959
17.352612999999998 9.988581 22.737087999999996
18.778253 9.988581 23.836144
17.113622 9.988581 24.521257
18.112704 12.172905 24.583895
16.798826 12.172905 23.570998999999997
18.332959 12.172905 22.939595999999998
15.194819999999998 13.671173 32.968818999999996
27.09482 25.571172999999998 32.968818999999996
15.194819999999998 19.621173 32.968818999999996
27.09482 19.621173 32.968818999999996
21.14482 25.571172999999998 32.968818999999996
21.14482 13.671173 32.968818999999996
14.351505999999999 13.671173 8.477507
26.251506 19.621173 8.477507
14.351505999999999 19.621173 8.477507
20.301506 19.621173 8.477507
26.251506 13.671173 8.477507
20.301506 13.671173 8.477507
8.477507 25.571172999999998 21.14482
8.477507 25.571172999999998 15.194819999999998
8.477507 19.621173 15.194819999999998
8.477507 19.621173 21.14482
8.477507 25.571172999999998 27.09482
8.477507 19.621173 27.09482
32.968818999999996 13.671173 20.301506
32.968818999999996 13.671173 26.251506
32.968818999999996 25.571172999999998 20.301506
32.968818999999996 13.671173 14.351505999999999
32.968818999999996 25.571172999999998 26.251506
32.968818999999996 19.621173 14.351505999999999
15.194819999999998 8.477507 13.671173
15.194819999999998 8.477507 19.621173
21.14482 8.477507 13.671173
21.14482 8.477507 19.621173
27.09482 8.477507 19.621173
21.14482 8.477507 25.571172999999998
21.14482 32.968818999999996 27.775153
27.09482 32.968818999999996 21.825152999999997
21.14482 32.968818999999996 21.825152999999997
27.09482 32.968818999999996 27.775153