1_train/3_cspbbr3_methylammonium_3_0.20\3_cspbbr3_methylammonium_3_0.20.xyz
1.0
41.896872 0 0
0 41.896872 0
0 0 41.896872
Br C Cs H N Pb 
108 10 44 60 10 27 
Cartesian
20.970868 30.067344 14.930653
20.985235 29.651453 20.97484
20.912847000000003 30.086755 27.095175
29.719087000000002 20.752840000000003 20.786576
29.664876 21.101957000000002 15.028288
26.918747 12.002812 14.711553
23.873203999999998 15.231515 15.148060000000001
29.904791 14.867812 27.079381
29.829364 15.067768000000001 20.775934
26.723736 14.840896 17.866495
26.702583999999998 15.064167000000001 11.888154
21.039555 27.003915000000003 30.048003
23.812901 26.787955 21.084184
20.901553 26.752666 24.09342
29.697915000000002 21.087753000000003 26.82355
17.922937 27.102868 20.921376
21.046229999999998 23.883746 21.135766
29.983016 26.888796000000003 14.79086
20.797388 26.888031 17.734031
29.903089 26.649895 20.943582000000003
17.9933 27.0214 15.172474000000001
21.147778 23.85766 14.960255
30.062378 26.829026000000002 27.018847
21.103171 27.03148 12.038856000000001
17.838466 26.983143000000002 27.026073999999998
20.987488000000003 23.693832 26.833876
23.787735 14.930711 20.833212
29.939842 15.181617 14.861713
26.706635000000002 24.021574 20.889138
26.901339 26.684892 17.816673
27.02473 26.9664 24.151734
24.16762 26.824385 15.061865000000001
26.784449 23.935629000000002 14.762067
27.074549 26.944047 11.891326
26.97859 24.112241 27.058497
26.920654000000003 20.762551 29.990473
24.139893 27.015686 26.862826000000002
23.868738 21.060719000000002 26.718425
27.027319000000002 17.972895 26.703827
27.014778 20.909436 23.781816000000003
26.781907999999998 27.026835000000002 29.756531
24.067125 21.102166999999998 20.739421
26.852874 18.175925 20.941427
27.135469 29.795543 15.081533
23.791584 21.105959000000002 15.154625
26.970848999999998 29.678845 20.780770999999998
26.956936000000002 17.743849 15.004907
26.734593999999998 20.821557000000002 11.880748
27.015923 29.759474 26.805878
26.791904 14.844477000000001 29.849815
24.055799 15.153428 26.893574
26.857156 12.216735 26.913397
26.919259 15.062322 23.743565
27.025554 11.875382 20.960573999999998
21.178172 20.974702 29.788343
26.995058 21.119404 18.022992000000002
17.80081 21.095678 26.711075
15.082358 30.061794 26.737147
15.016359 21.078924 17.766945
14.887347 29.684469 20.799768
11.862568 14.910234 21.054002999999998
15.153698 30.083944 15.126426
15.177497 26.684803 29.906489
11.806406 26.894655 27.054184000000003
14.976880000000001 23.764438000000002 26.723158
14.951567 27.080623 24.132246
15.10871 15.214874 24.039861
14.822054 11.970366 27.080859
12.243842 27.085977 20.935684
11.881931 15.180691 26.78746
15.137087000000001 23.815676 21.087363
14.947201 27.027031 17.769666
14.963701 14.839881 29.996288
12.147907 26.869361 15.156203
15.20088 23.751261 15.024966
15.147165000000001 27.011036999999998 11.822483
15.193745 20.815886000000003 30.053122000000002
12.006339 20.739974 27.087753000000003
14.801161 18.111396 26.94521
15.144081 21.065678000000002 23.88553
14.866642 20.863968 11.843279
15.080284 17.752287 14.827321000000001
11.811144 20.870272 21.103936
14.966217 17.975624 20.712424000000002
20.856189 14.831223 12.159756
20.762318 12.068503 15.074792
12.025236 20.771825 14.901932
14.881337 11.91971 20.842665999999998
18.173303 21.071541 15.163716
15.105086 11.94684 15.219153
20.94057 17.814255 15.114571
20.830553 21.106524 12.141214
17.844794 14.973690000000001 15.130326
21.052044 15.014826 29.697161
11.846562 15.194634 14.955109
21.124351 21.097103999999998 17.856879
17.767758 15.091186 26.824345
20.975056 11.869776 26.753392
20.902179 18.076309 20.716102
21.117648 15.215072 24.029868
18.081003 20.835736 20.776175
20.87178 20.780446 23.885971
15.09751 14.915381 18.108448
20.924288 17.799783 26.971514000000003
17.873350000000002 14.722042 20.975112
21.152525 12.128118 20.862638999999998
21.170733000000002 14.834181000000001 17.925664
14.962242 15.136416 11.882676
23.892483000000002 31.415925 23.958164
18.059123 23.887634000000002 10.492184
11.048028 23.86234 30.958361
18.049463 10.584842 17.98609
10.951574 23.879103 10.886127
17.930626 10.981020000000001 10.891206
23.991389 30.989025 30.886424
31.367603 23.994097 23.938888000000002
30.887431 11.048757 23.929148
23.957199 10.620509 23.863502999999998
12.194337 17.983353 11.6295
30.049076 30.25509 24.254414999999998
23.464369 24.244170999999998 29.705957
30.160354 23.973965 29.531616
30.236313 24.017723999999998 17.90142
24.087574 29.806704 17.424477
30.224397 23.742987 11.835792
29.492446 18.15738 30.219886
17.931765 18.326782 29.680877
29.676954 11.668406000000001 17.623886
29.947653 17.762663 23.397644
12.379291 11.665535 23.721979
29.623928 17.615021 18.096146
23.859387 30.234092 11.622172
30.068417 17.684495 11.827172000000001
11.599709 12.031615 17.845928999999998
23.757889000000002 24.35577 23.994564
12.436287 18.350086 17.818080000000002
18.142277 17.638114 23.775536
18.206978 24.010416000000003 17.448876
17.535387 18.254837 18.182213
18.184298000000002 23.527218 24.326238
18.044729 17.646453 11.714114
18.073795 30.270771 12.094942
17.76651 30.091747 17.673617
18.134825 29.775147 23.387791
17.99736 29.884393 30.474376
24.274218 11.697108 12.264899
17.584248000000002 12.263411 24.081356
24.043689 11.66749 18.194734
18.014971 12.290224 29.3721
12.285746 30.380308 18.069856
11.773235 30.168082000000002 23.962163
23.711448999999998 24.039762 18.315244
11.490106 18.054671 30.054167
24.31197 23.502356000000002 12.030213
24.148072000000003 18.127645 30.222446
12.316035 18.219636 24.128999
11.699954 24.265603000000002 17.988734
23.530449 18.236549 18.128235
12.141832 23.586285 24.077967
23.736230000000003 18.336873999999998 11.625941000000001
23.796850000000003 11.718141000000001 29.502951
23.571219000000003 18.37146 23.76329
22.909218 10.190457 24.196239000000002
11.409105 24.396888999999998 10.079188
10.714861 22.915897 10.764298
12.901595 23.406539 11.711685000000001
11.717777 23.481481 12.869601
12.299424 24.906353 12.248124
29.474655 24.847806000000002 24.090698
31.659542000000002 24.272169 24.875761
31.795029 11.386031000000001 23.350745
31.172178 10.782159 24.993416
30.50137 10.113384 23.482524
29.068475 11.754147 24.451211
29.551857000000002 12.262954 22.992368000000003
30.224784 12.876755000000001 24.381752000000002
31.712605 24.605608 23.125934
31.711213 22.879453 23.767568
23.727318999999998 30.456947 31.885106
24.928669000000003 31.402029 30.90767
23.131033 31.677039 30.666643
24.113726 30.257084 28.920675
22.987975000000002 29.41336 29.800065
24.621332 29.177443 30.035313
17.100089 12.514862 12.076429000000001
17.815882000000002 11.480601 9.988234
18.976888 10.483422000000001 10.962278
17.181229000000002 10.304455 11.194272
18.131454 11.59491 12.924274
10.125692 24.497075 11.345727
29.514768 23.332244 24.694271
29.480072 23.553997 23.007952
18.615528 12.420382 18.722919
24.190895 10.198887000000001 22.90107
24.654507 10.192214 24.696742
24.877686999999998 12.400801 23.673697
23.621551 12.40678 24.872065000000003
23.24381 12.408036000000001 23.256229
23.946849 29.521212000000002 24.907797
23.070169 29.474298 23.486647
18.943936 24.237936 10.224086
17.782732 22.881773 10.240561
17.181536 24.636581 10.196831
17.042932 23.629244 12.385385
18.184729 24.863888 12.41497
18.676733000000002 23.286054 12.409866000000001
23.053532999999998 31.700496 24.474497
23.926728999999998 31.707228 22.870767
9.984142 24.004359 30.427543
11.039273 22.945519 31.431528
11.149796 24.753125 31.562463
12.968602 23.845357 30.314517
11.996147 24.838504 29.316296
11.882496 23.130376000000002 29.257002
24.85979 31.67291 24.413221
18.968222 10.197651 17.758154
17.606657 10.180656 18.968001
17.338138999999998 10.212078 17.179101
17.021358 12.427575000000001 18.177684
18.307121 12.427735 17.060586
24.756002 29.486657 23.477309
18.715056 12.753206 11.861748
12.06887 23.866466 12.060639
29.820742 12.087572 23.890381
18.031804 11.98203 18.000606
23.99644 29.949788 29.877554
12.034012 23.879346 29.949844
24.023729 12.028546 23.924576
18.026046 12.031073000000001 11.972495
17.900788 23.972869 12.028225
29.881939 23.913316 23.851428000000002
24.018235999999998 29.836403 23.912242000000003
15.266054 15.12679 14.958991000000001
27.065659 26.859809000000002 15.271345
14.809932 26.902414 15.179593
27.119443999999998 20.803866000000003 26.770198
15.226378 26.811277999999998 20.698425
21.176277000000002 26.807696 15.247947
14.934893 26.900005 26.66977
26.790236 21.155375 15.085603
27.017402 15.161435 26.795543
15.212867 21.133643000000003 26.901543999999998
20.980655000000002 14.815723 15.122809
20.760769 15.017868 20.733898
26.594472 15.076033 14.992175
21.025365 15.126433 27.110854
20.650036 21.042574 15.053661
21.224000999999998 26.977422999999998 27.003376
21.168104 20.919833999999998 20.969282
21.073812999999998 26.62892 20.903741999999998
20.809029 20.821529 26.723987
26.698512 14.803285 20.959624
26.953544 27.152719 20.938005
27.163222 20.877453 21.113895
15.054594 15.130243 26.654027000000003
15.167983 21.052913999999998 14.861122
15.015084 15.218928 20.747887000000002
26.780352 27.04265 26.622577
15.186291 21.004351 21.124894
