3_train/202_cspbbr3_MA-Pyr-2-COO_4_0.20\202_cspbbr3_MA-Pyr-2-COO_4_0.20.xyz
1.0
48.059188 0 0
0 48.059188 0
0 0 48.059188
Br C Cs H N O Pb 
216 137 95 198 41 48 64 
Cartesian
15.104593999999999 15.104593999999999 12.129593999999999
12.129593999999999 15.104593999999999 15.104593999999999
15.104593999999999 15.104593999999999 18.079594
15.104593999999999 12.129593999999999 21.054594
15.104593999999999 15.104593999999999 24.029593999999996
15.104593999999999 12.129593999999999 27.004593999999997
12.129593999999999 15.104593999999999 27.004593999999997
15.104593999999999 15.104593999999999 29.979594
15.104593999999999 12.129593999999999 32.954594
12.129593999999999 15.104593999999999 32.954594
15.104593999999999 15.104593999999999 35.929594
15.104593999999999 21.054594 12.129593999999999
15.104593999999999 18.079594 15.104593999999999
15.104593999999999 21.054594 18.079594
15.104593999999999 18.079594 21.054594
15.104593999999999 21.054594 24.029593999999996
15.104593999999999 18.079594 27.004593999999997
12.129593999999999 21.054594 27.004593999999997
15.104593999999999 21.054594 29.979594
15.104593999999999 18.079594 32.954594
12.129593999999999 21.054594 32.954594
15.104593999999999 21.054594 35.929594
15.104593999999999 24.029593999999996 15.104593999999999
12.129593999999999 27.004593999999997 15.104593999999999
15.104593999999999 27.004593999999997 18.079594
15.104593999999999 24.029593999999996 21.054594
15.104593999999999 27.004593999999997 24.029593999999996
15.104593999999999 24.029593999999996 27.004593999999997
12.129593999999999 27.004593999999997 27.004593999999997
15.104593999999999 27.004593999999997 29.979594
15.104593999999999 24.029593999999996 32.954594
12.129593999999999 27.004593999999997 32.954594
15.104593999999999 32.954594 12.129593999999999
15.104593999999999 29.979594 15.104593999999999
12.129593999999999 32.954594 15.104593999999999
15.104593999999999 32.954594 18.079594
15.104593999999999 29.979594 21.054594
12.129593999999999 32.954594 21.054594
15.104593999999999 32.954594 24.029593999999996
15.104593999999999 29.979594 27.004593999999997
12.129593999999999 32.954594 27.004593999999997
15.104593999999999 32.954594 29.979594
15.104593999999999 29.979594 32.954594
12.129593999999999 32.954594 32.954594
15.104593999999999 32.954594 35.929594
15.104593999999999 35.929594 15.104593999999999
15.104593999999999 35.929594 21.054594
15.104593999999999 35.929594 27.004593999999997
21.054594 15.104593999999999 12.129593999999999
18.079594 15.104593999999999 15.104593999999999
21.054594 15.104593999999999 18.079594
21.054594 12.129593999999999 21.054594
18.079594 15.104593999999999 21.054594
21.054594 15.104593999999999 24.029593999999996
21.054594 12.129593999999999 27.004593999999997
18.079594 15.104593999999999 27.004593999999997
21.054594 15.104593999999999 29.979594
21.054594 12.129593999999999 32.954594
18.079594 15.104593999999999 32.954594
21.054594 18.079594 15.104593999999999
18.079594 21.054594 15.104593999999999
21.054594 21.054594 18.079594
21.054594 18.079594 21.054594
18.079594 21.054594 21.054594
21.054594 21.054594 24.029593999999996
21.054594 18.079594 27.004593999999997
18.079594 21.054594 27.004593999999997
21.054594 21.054594 29.979594
21.054594 18.079594 32.954594
18.079594 21.054594 32.954594
21.054594 27.004593999999997 12.129593999999999
21.054594 24.029593999999996 15.104593999999999
18.079594 27.004593999999997 15.104593999999999
21.054594 27.004593999999997 18.079594
21.054594 24.029593999999996 21.054594
18.079594 27.004593999999997 21.054594
21.054594 27.004593999999997 24.029593999999996
21.054594 24.029593999999996 27.004593999999997
18.079594 27.004593999999997 27.004593999999997
21.054594 27.004593999999997 29.979594
21.054594 24.029593999999996 32.954594
18.079594 27.004593999999997 32.954594
21.054594 27.004593999999997 35.929594
21.054594 32.954594 12.129593999999999
21.054594 29.979594 15.104593999999999
18.079594 32.954594 15.104593999999999
21.054594 32.954594 18.079594
21.054594 29.979594 21.054594
18.079594 32.954594 21.054594
21.054594 32.954594 24.029593999999996
21.054594 29.979594 27.004593999999997
18.079594 32.954594 27.004593999999997
21.054594 32.954594 29.979594
21.054594 29.979594 32.954594
18.079594 32.954594 32.954594
21.054594 32.954594 35.929594
21.054594 35.929594 15.104593999999999
21.054594 35.929594 27.004593999999997
21.054594 35.929594 32.954594
27.004593999999997 15.104593999999999 12.129593999999999
27.004593999999997 12.129593999999999 15.104593999999999
24.029593999999996 15.104593999999999 15.104593999999999
27.004593999999997 15.104593999999999 18.079594
27.004593999999997 12.129593999999999 21.054594
24.029593999999996 15.104593999999999 21.054594
27.004593999999997 15.104593999999999 24.029593999999996
27.004593999999997 12.129593999999999 27.004593999999997
24.029593999999996 15.104593999999999 27.004593999999997
27.004593999999997 15.104593999999999 29.979594
27.004593999999997 12.129593999999999 32.954594
24.029593999999996 15.104593999999999 32.954594
27.004593999999997 15.104593999999999 35.929594
27.004593999999997 21.054594 12.129593999999999
27.004593999999997 18.079594 15.104593999999999
24.029593999999996 21.054594 15.104593999999999
27.004593999999997 21.054594 18.079594
27.004593999999997 18.079594 21.054594
24.029593999999996 21.054594 21.054594
27.004593999999997 21.054594 24.029593999999996
27.004593999999997 18.079594 27.004593999999997
24.029593999999996 21.054594 27.004593999999997
27.004593999999997 21.054594 29.979594
27.004593999999997 18.079594 32.954594
24.029593999999996 21.054594 32.954594
27.004593999999997 21.054594 35.929594
27.004593999999997 24.029593999999996 15.104593999999999
24.029593999999996 27.004593999999997 15.104593999999999
27.004593999999997 27.004593999999997 18.079594
27.004593999999997 24.029593999999996 21.054594
24.029593999999996 27.004593999999997 21.054594
27.004593999999997 27.004593999999997 24.029593999999996
27.004593999999997 24.029593999999996 27.004593999999997
24.029593999999996 27.004593999999997 27.004593999999997
27.004593999999997 27.004593999999997 29.979594
27.004593999999997 24.029593999999996 32.954594
24.029593999999996 27.004593999999997 32.954594
27.004593999999997 27.004593999999997 35.929594
27.004593999999997 32.954594 12.129593999999999
27.004593999999997 29.979594 15.104593999999999
24.029593999999996 32.954594 15.104593999999999
27.004593999999997 32.954594 18.079594
27.004593999999997 29.979594 21.054594
24.029593999999996 32.954594 21.054594
27.004593999999997 32.954594 24.029593999999996
27.004593999999997 29.979594 27.004593999999997
24.029593999999996 32.954594 27.004593999999997
27.004593999999997 32.954594 29.979594
27.004593999999997 29.979594 32.954594
24.029593999999996 32.954594 32.954594
27.004593999999997 32.954594 35.929594
27.004593999999997 35.929594 21.054594
27.004593999999997 35.929594 27.004593999999997
32.954594 15.104593999999999 12.129593999999999
32.954594 12.129593999999999 15.104593999999999
29.979594 15.104593999999999 15.104593999999999
32.954594 15.104593999999999 18.079594
32.954594 12.129593999999999 21.054594
29.979594 15.104593999999999 21.054594
32.954594 15.104593999999999 24.029593999999996
29.979594 15.104593999999999 27.004593999999997
32.954594 15.104593999999999 29.979594
29.979594 15.104593999999999 32.954594
32.954594 15.104593999999999 35.929594
32.954594 21.054594 12.129593999999999
32.954594 18.079594 15.104593999999999
29.979594 21.054594 15.104593999999999
32.954594 21.054594 18.079594
32.954594 18.079594 21.054594
29.979594 21.054594 21.054594
32.954594 21.054594 24.029593999999996
32.954594 18.079594 27.004593999999997
29.979594 21.054594 27.004593999999997
32.954594 21.054594 29.979594
32.954594 18.079594 32.954594
29.979594 21.054594 32.954594
32.954594 21.054594 35.929594
32.954594 24.029593999999996 15.104593999999999
29.979594 27.004593999999997 15.104593999999999
32.954594 27.004593999999997 18.079594
32.954594 24.029593999999996 21.054594
29.979594 27.004593999999997 21.054594
32.954594 27.004593999999997 24.029593999999996
32.954594 24.029593999999996 27.004593999999997
29.979594 27.004593999999997 27.004593999999997
32.954594 27.004593999999997 29.979594
32.954594 24.029593999999996 32.954594
29.979594 27.004593999999997 32.954594
32.954594 27.004593999999997 35.929594
32.954594 32.954594 12.129593999999999
32.954594 29.979594 15.104593999999999
29.979594 32.954594 15.104593999999999
32.954594 32.954594 18.079594
32.954594 29.979594 21.054594
29.979594 32.954594 21.054594
32.954594 32.954594 24.029593999999996
32.954594 29.979594 27.004593999999997
29.979594 32.954594 27.004593999999997
32.954594 32.954594 29.979594
32.954594 29.979594 32.954594
29.979594 32.954594 32.954594
32.954594 35.929594 15.104593999999999
32.954594 35.929594 21.054594
32.954594 35.929594 27.004593999999997
32.954594 35.929594 32.954594
35.929594 15.104593999999999 15.104593999999999
35.929594 15.104593999999999 21.054594
35.929594 15.104593999999999 27.004593999999997
35.929594 15.104593999999999 32.954594
35.929594 21.054594 15.104593999999999
35.929594 21.054594 21.054594
35.929594 21.054594 27.004593999999997
35.929594 21.054594 32.954594
35.929594 27.004593999999997 21.054594
35.929594 27.004593999999997 27.004593999999997
35.929594 32.954594 27.004593999999997
35.929594 32.954594 32.954594
32.670496 33.358956 39.608678999999995
32.311458 33.796678 38.326357
32.954594 32.954594 37.40086599999999
33.517021 32.251692999999996 39.452663
32.954594 32.954594 35.929594
20.810617999999998 21.484356999999996 39.608678999999995
20.495251 21.954518999999998 38.326357
21.054594 21.054594 37.40086599999999
21.546959 20.300956 39.452663
21.054594 21.054594 35.929594
15.598685 26.994842 39.608678999999995
16.163970999999997 27.025835 38.326357
15.104593999999999 27.004593999999997 37.40086599999999
14.205193 26.966218999999995 39.452663
15.104593999999999 27.004593999999997 35.929594
20.615772999999997 14.877313 39.608678999999995
20.13384 14.580245 38.326357
21.054594 15.104593999999999 37.40086599999999
21.826595999999995 15.567635 39.452663
21.054594 15.104593999999999 35.929594
26.510413 27.002274999999997 8.450508999999998
25.945656999999997 27.041764999999998 9.732831
27.004593999999997 27.004593999999997 10.658321999999998
27.903315999999997 26.952697 8.606525
27.004593999999997 27.004593999999997 12.129593999999999
15.067493999999998 26.511801999999996 8.450508999999998
14.983089999999999 25.951994 9.732831
15.104593999999999 27.004593999999997 10.658321999999998
15.228 27.896313999999997 8.606525
15.104593999999999 27.004593999999997 12.129593999999999
20.56254 21.008725 8.450508999999998
19.996502 20.998283 9.732831
21.054594 21.054594 10.658321999999998
21.954392 21.082115 8.606525
21.054594 21.054594 12.129593999999999
32.463577 27.060474 8.450508999999998
31.907398 27.166182 9.732831
32.954594 27.004593999999997 10.658321999999998
33.840955 26.847246 8.606525
32.954594 27.004593999999997 12.129593999999999
8.450508999999998 27.413064999999996 20.776435999999997
9.732831 27.855987999999996 20.423834
10.658321999999998 27.004593999999997 21.054594
8.606525 26.293546999999997 21.606687
12.129593999999999 27.004593999999997 21.054594
8.450508999999998 20.564964 15.037636
9.732831 19.999896 15.002894999999999
10.658321999999998 21.054594 15.104593999999999
8.606525 21.952379999999998 15.170732
12.129593999999999 21.054594 15.104593999999999
8.450508999999998 15.202924 20.570289
9.732831 15.273959999999999 20.008628
10.658321999999998 15.104593999999999 21.054594
8.606525 14.980813999999999 21.946262999999995
12.129593999999999 15.104593999999999 21.054594
8.450508999999998 20.560758 21.073212999999996
9.732831 19.998182 21.136592999999998
10.658321999999998 21.054594 21.054594
8.606525 21.950309999999995 20.964669
12.129593999999999 21.054594 21.054594
39.608678999999995 27.007162 14.610413999999999
38.326357 27.052234999999996 14.046076
37.40086599999999 27.004593999999997 15.104593999999999
39.452663 26.943812 16.002758999999998
35.929594 27.004593999999997 15.104593999999999
39.608678999999995 33.425937 15.253108999999998
38.326357 33.951738999999996 15.462966999999999
37.40086599999999 32.954594 15.104593999999999
39.452663 32.114522 14.781061999999999
35.929594 32.954594 15.104593999999999
39.608678999999995 32.89788 20.563671999999997
38.326357 32.874950999999996 19.998002
37.40086599999999 32.954594 21.054594
39.452663 33.001961 21.953565999999995
35.929594 32.954594 21.054594
39.608678999999995 26.991341 32.460585
38.326357 27.018327 31.895092999999996
37.40086599999999 27.004593999999997 32.954594
39.452663 26.972594 33.854244
35.929594 27.004593999999997 32.954594
21.471818999999996 8.450508999999998 15.369441
21.925877 9.732831 15.707583
21.054594 10.658321999999998 15.104593999999999
20.326121 8.606525 14.575707
21.054594 12.129593999999999 15.104593999999999
32.74143 8.450508999999998 26.558744999999995
32.535927 9.732831 26.031225
32.954594 10.658321999999998 27.004593999999997
33.291517 8.606525 27.839385999999998
32.954594 12.129593999999999 27.004593999999997
33.261826 8.450508999999998 33.341672
33.579803 9.732831 33.810072999999996
32.954594 10.658321999999998 32.954594
32.439976 8.606525 32.215972
32.954594 12.129593999999999 32.954594
14.882055999999999 8.450508999999998 15.54584
14.590200999999999 9.732831 16.030946999999998
15.104593999999999 10.658321999999998 15.104593999999999
15.559287 8.606525 14.327646
15.104593999999999 12.129593999999999 15.104593999999999
26.640769 39.608678999999995 33.289037
26.25365 38.326357 33.702132
27.004593999999997 37.40086599999999 32.954594
27.628079 39.452663 32.30524
27.004593999999997 35.929594 32.954594
15.216059 39.608678999999995 33.436046
15.384452 38.326357 33.976558
15.104593999999999 37.40086599999999 32.954594
14.847274999999998 39.452663 32.091935
15.104593999999999 35.929594 32.954594
21.045660999999996 39.608678999999995 20.560488
20.993322 38.326357 19.996777
21.054594 37.40086599999999 21.054594
21.126939999999998 39.452663 21.951901
21.054594 35.929594 21.054594
27.232884 39.608678999999995 14.666296999999998
27.456308999999997 38.326357 14.146113999999999
27.004593999999997 37.40086599999999 15.104593999999999
26.639314999999996 39.452663 15.927373
27.004593999999997 35.929594 15.104593999999999
11.086143999999999 11.086143999999999 18.079594
24.029593999999996 37.405255 24.029593999999996
29.979594 10.653932999999999 18.079594
18.079594 37.405255 18.079594
11.086143999999999 11.086143999999999 29.979594
36.973044 29.979594 36.973044
24.029593999999996 36.973044 11.086143999999999
37.405255 24.029593999999996 18.079594
24.029593999999996 29.979594 10.653932999999999
10.653932999999999 24.029593999999996 29.979594
29.979594 29.979594 10.653932999999999
24.029593999999996 37.405255 18.079594
29.979594 11.086143999999999 36.973044
24.029593999999996 18.079594 10.653932999999999
24.029593999999996 11.086143999999999 11.086143999999999
36.973044 11.086143999999999 24.029593999999996
10.653932999999999 18.079594 18.079594
12.129593999999999 12.129593999999999 24.029593999999996
12.129593999999999 18.079594 12.129593999999999
12.129593999999999 18.079594 24.029593999999996
12.129593999999999 18.079594 29.979594
12.129593999999999 18.079594 35.929594
12.129593999999999 24.029593999999996 12.129593999999999
12.129593999999999 24.029593999999996 18.079594
12.129593999999999 24.029593999999996 24.029593999999996
12.129593999999999 29.979594 18.079594
12.129593999999999 29.979594 24.029593999999996
12.129593999999999 29.979594 29.979594
12.129593999999999 29.979594 35.929594
12.129593999999999 35.929594 18.079594
12.129593999999999 35.929594 24.029593999999996
12.129593999999999 35.929594 29.979594
18.079594 12.129593999999999 12.129593999999999
18.079594 12.129593999999999 18.079594
18.079594 12.129593999999999 24.029593999999996
18.079594 12.129593999999999 29.979594
18.079594 18.079594 12.129593999999999
18.079594 18.079594 18.079594
18.079594 18.079594 24.029593999999996
18.079594 18.079594 29.979594
18.079594 18.079594 35.929594
18.079594 24.029593999999996 12.129593999999999
18.079594 24.029593999999996 18.079594
18.079594 24.029593999999996 24.029593999999996
18.079594 24.029593999999996 29.979594
18.079594 24.029593999999996 35.929594
18.079594 29.979594 12.129593999999999
18.079594 29.979594 18.079594
18.079594 29.979594 24.029593999999996
18.079594 29.979594 29.979594
18.079594 35.929594 12.129593999999999
18.079594 35.929594 24.029593999999996
18.079594 35.929594 29.979594
18.079594 35.929594 35.929594
24.029593999999996 12.129593999999999 18.079594
24.029593999999996 12.129593999999999 24.029593999999996
24.029593999999996 12.129593999999999 29.979594
24.029593999999996 12.129593999999999 35.929594
24.029593999999996 18.079594 18.079594
24.029593999999996 18.079594 24.029593999999996
24.029593999999996 18.079594 29.979594
24.029593999999996 18.079594 35.929594
24.029593999999996 24.029593999999996 12.129593999999999
24.029593999999996 24.029593999999996 18.079594
24.029593999999996 24.029593999999996 24.029593999999996
24.029593999999996 24.029593999999996 29.979594
24.029593999999996 24.029593999999996 35.929594
24.029593999999996 29.979594 18.079594
24.029593999999996 29.979594 24.029593999999996
24.029593999999996 29.979594 29.979594
24.029593999999996 29.979594 35.929594
24.029593999999996 35.929594 29.979594
24.029593999999996 35.929594 35.929594
29.979594 12.129593999999999 12.129593999999999
29.979594 12.129593999999999 24.029593999999996
29.979594 12.129593999999999 29.979594
29.979594 18.079594 12.129593999999999
29.979594 18.079594 18.079594
29.979594 18.079594 24.029593999999996
29.979594 18.079594 29.979594
29.979594 18.079594 35.929594
29.979594 24.029593999999996 12.129593999999999
29.979594 24.029593999999996 18.079594
29.979594 24.029593999999996 24.029593999999996
29.979594 24.029593999999996 29.979594
29.979594 24.029593999999996 35.929594
29.979594 29.979594 18.079594
29.979594 29.979594 24.029593999999996
29.979594 29.979594 29.979594
29.979594 29.979594 35.929594
29.979594 35.929594 12.129593999999999
29.979594 35.929594 18.079594
29.979594 35.929594 29.979594
29.979594 35.929594 35.929594
35.929594 12.129593999999999 18.079594
35.929594 12.129593999999999 29.979594
35.929594 18.079594 12.129593999999999
35.929594 18.079594 18.079594
35.929594 18.079594 24.029593999999996
35.929594 18.079594 29.979594
35.929594 18.079594 35.929594
35.929594 24.029593999999996 12.129593999999999
35.929594 24.029593999999996 24.029593999999996
35.929594 24.029593999999996 29.979594
35.929594 24.029593999999996 35.929594
35.929594 29.979594 12.129593999999999
35.929594 29.979594 18.079594
35.929594 29.979594 24.029593999999996
35.929594 29.979594 29.979594
35.929594 35.929594 18.079594
35.929594 35.929594 24.029593999999996
35.929594 35.929594 29.979594
33.989299 31.61499 40.195387999999994
32.363338 33.783971 40.559188
31.667935 34.627662 38.056038
34.207498 31.276026 37.68549
21.955945 19.621862999999998 40.195387999999994
20.545672 21.936890999999996 40.559188
19.934458 22.843432999999997 38.056038
22.140603 19.263520999999997 37.68549
13.412467999999999 26.961453 40.195387999999994
16.123061999999997 26.99149 40.559188
17.214621 27.053945999999996 38.056038
13.010076999999999 26.985723 37.68549
22.520902999999997 15.950223999999999 40.195387999999994
20.153393 14.629952 40.559188
19.224033 14.054025 38.056038
22.886075999999996 16.120976 37.68549
28.695880000000002 26.936008 7.8637999999999995
25.986044 27.00681 7.499999999999999
24.895547999999998 27.085674999999995 10.00315
29.09859 26.954223999999996 10.373698
15.307843 28.685023 7.8637999999999995
15.021154999999998 25.989464999999996 7.499999999999999
14.855571999999999 24.908732 10.00315
15.321802 29.087904 10.373698
22.745343 21.135349999999995 7.8637999999999995
20.039813 20.967022999999998 7.499999999999999
18.94661 20.949461999999997 10.00315
23.14488 21.188991 10.373698
34.626042 26.737359999999995 7.8637999999999995
31.943388999999996 27.126714 7.499999999999999
30.869763 27.333422 10.00315
35.028096 26.708034999999995 10.373698
7.8637999999999995 25.65001 22.069609
7.499999999999999 27.842523999999997 20.475523
10.00315 28.696289 19.792526
10.373698 25.307893 22.282831
7.8637999999999995 22.740314999999995 15.257886
7.499999999999999 20.04451 14.973524
10.00315 18.953069999999997 14.909030999999999
10.373698 23.13718 15.328634999999998
7.8637999999999995 14.843131999999999 22.726954999999997
7.499999999999999 15.300398999999999 20.055039
10.00315 15.434999999999999 18.970011999999997
10.373698 14.746988 23.118443999999997
7.8637999999999995 22.741456 20.914418999999995
7.499999999999999 20.037052 21.099958
10.00315 18.950877 21.224951999999995
10.373698 23.144576999999998 20.915557999999997
40.195387999999994 26.919286 16.795119
40.559188 27.016881999999995 14.086115999999999
38.056038 27.106527999999997 12.996452999999999
37.68549 26.933518 17.197989999999997
40.195387999999994 31.36481 14.523438999999998
40.559188 33.923938 15.417359
38.056038 34.938421 15.825064999999999
37.68549 30.975732 14.417961
40.195387999999994 33.072634 22.743148999999995
40.559188 32.844654999999996 20.041992
38.056038 32.802977999999996 18.949443
37.68549 33.135077 23.141405999999996
40.195387999999994 26.973445999999996 34.646983999999996
40.559188 26.984273 31.936244000000002
38.056038 27.038992 30.844271
37.68549 27.000566999999997 35.049192
19.667997 7.8637999999999995 14.133769
21.910753 7.499999999999999 15.656355
22.78609 10.00315 16.311478
19.319184999999997 10.373698 13.931685
33.614934999999996 7.8637999999999995 28.563152000000002
32.52157 7.499999999999999 26.082671999999995
32.127124 10.00315 25.062959999999997
33.803405 10.373698 28.919503
31.963285 7.8637999999999995 31.582566
33.582325 7.499999999999999 33.756718
34.194258 10.00315 34.662774999999996
31.700086 10.373698 31.277223999999997
15.93437 7.8637999999999995 13.629254999999999
14.639693 7.499999999999999 16.010858999999996
14.073817 10.00315 16.946371999999997
16.101174999999998 10.373698 13.262262999999999
28.197696999999998 40.195387999999994 31.753904
26.259478 40.559188 33.649037
25.513762 38.056038 34.448605
28.505283999999996 37.68549 31.493332000000002
14.648648 40.195387999999994 31.324481999999996
15.34114 40.559188 33.945298
15.668835999999999 38.056038 34.988379
14.573701999999999 37.68549 30.928387999999998
21.161668999999996 40.195387999999994 22.743879999999997
21.029187999999998 40.559188 20.036358
20.925514999999997 38.056038 18.947941
21.152628 37.68549 23.146901
26.291329999999995 40.195387999999994 16.639653
27.468897999999996 40.559188 14.198023
27.897990999999998 38.056038 13.192399
26.090781999999997 37.68549 16.98935
11.381668 10.318385 17.362071
11.023596999999999 10.676455999999998 19.089481
10.144814 11.555238 17.78723
11.904613 12.88454 18.740867
12.234613 12.55454 17.148877
13.044504 11.74465 18.349038
23.954032999999995 37.739176 25.066133999999998
24.965044999999996 37.739176 23.576760999999998
23.169703999999996 37.739176 23.445887
24.099230999999996 35.554852 23.074312999999997
23.167477999999996 35.554852 24.446926999999995
24.822072999999996 35.554852 24.567541999999996
29.127046 10.320011999999998 18.673974
29.89112 10.320011999999998 17.044075999999997
30.920616000000003 10.320011999999998 18.520732
30.765307 12.504335999999999 17.531810999999998
30.061132 12.504335999999999 19.033932999999998
29.112344 12.504335999999999 17.673038
19.112465 37.739176 18.19493
17.663041999999997 37.739176 17.127432999999996
17.463275 37.739176 18.916418999999998
17.127695 35.554852 17.973300000000002
18.46349 35.554852 18.95711
18.647596999999998 35.554852 17.308372
10.287771 11.412282 30.64882
10.721338999999999 10.978714 28.956362
11.540968999999999 10.159084 30.333601
12.912754 11.876399 29.362833000000002
12.513175999999998 12.275977999999999 30.92261
11.7578 13.031353 29.653339000000003
37.122800999999995 31.011682999999998 37.295522999999996
36.620319 29.357779 37.798004
37.884365 29.569319999999998 36.533958
35.744202 29.028415000000003 35.58502
36.207291 30.552661999999998 35.121931
35.042339999999996 30.357704999999996 36.286882
23.245486999999997 36.726822999999996 10.367688
23.830906 37.930496 11.571361
25.012389 36.970164999999994 10.61103
24.752232 36.109137 12.839101999999999
24.212705 34.999825 11.729790999999999
23.123844999999996 35.884872 12.614837999999999
37.739176 25.052033 17.893197
37.739176 23.679798999999996 19.05825
37.739176 23.356950999999995 17.287334
35.554852 23.087308999999998 18.251378
35.554852 24.351966999999995 17.177659
35.554852 24.649505999999995 18.809745
24.130969999999998 28.945259 10.320011999999998
23.083146 30.408966999999997 10.320011999999998
24.874665999999998 30.584555 10.320011999999998
23.936166 30.932842 12.504335999999999
24.901845 29.583880999999998 12.504335999999999
23.250771 29.422058999999997 12.504335999999999
10.320011999999998 22.992708 30.050244999999997
10.320011999999998 24.609221999999995 30.842239
10.320011999999998 24.486852 29.046298999999998
12.504335999999999 24.985194 29.914482
12.504335999999999 23.495404999999998 29.184576
12.504335999999999 23.608182999999997 30.839723999999997
29.480911 30.891427999999998 10.320011999999998
31.018606 29.955548999999998 10.320011999999998
29.439264 29.091806 10.320011999999998
30.439182000000002 29.139243 12.504335999999999
29.022035000000002 30.001754 12.504335999999999
30.477565 30.797784 12.504335999999999
22.990766 37.739176 18.048575
24.522143999999997 37.739176 18.994754999999998
24.575871 37.739176 17.195452
24.986982999999995 35.554852 18.108181000000002
23.575657 35.554852 17.236176999999998
23.526142999999998 35.554852 18.894424
30.965083999999997 11.083407999999999 37.442543
29.201015999999996 11.336822999999999 37.695958
29.772681999999996 10.129849 36.488984
29.071360999999996 12.179490999999999 35.449526
30.697136 11.945943 35.215977
30.170285 13.058295999999999 36.328331
22.994130999999996 18.168703999999998 10.320011999999998
24.624496999999998 18.931776 10.320011999999998
24.470154 17.138301 10.320011999999998
24.983882 17.997469 12.504335999999999
23.481327999999998 17.294218 12.504335999999999
23.623571999999996 18.947094 12.504335999999999
23.161525999999995 10.445933 11.25412
23.968716 11.583654 10.116399
24.958538999999995 10.520491999999999 11.179559999999999
24.829609999999995 12.766990999999999 12.022161999999998
24.085698999999998 11.718461999999999 13.070692
23.173473 12.698277 12.090875999999998
36.74794 10.388805 24.838713999999996
36.944289 10.585154 23.060156
37.935255 11.57612 24.189912
36.089675 12.819640999999999 23.283904999999997
35.908719 12.638684 24.923032999999997
34.99544 11.725404999999999 23.881842999999996
10.320011999999998 17.870179 17.061619999999998
10.320011999999998 17.302711000000002 18.76994
10.320011999999998 19.065893 18.407221999999997
12.504335999999999 18.272593 19.017764
12.504335999999999 18.795572999999997 17.443367000000002
12.504335999999999 17.170616 17.777651
33.683906 32.031956 38.119113999999996
21.691983999999998 20.066215 38.119113999999996
13.929308999999998 26.961433 38.119113999999996
22.066736 15.703532999999998 38.119113999999996
28.179097 26.943760999999995 9.940074
15.258901 28.170505 9.940074
22.229887999999995 21.097521999999998 9.940074
34.113766 26.805903 9.940074
9.940074 26.071394999999995 21.770342999999997
9.940074 22.22696 15.197956
9.940074 14.935975 22.218520999999996
9.940074 22.225465 20.944058999999996
38.119113999999996 26.93215 16.278438
38.119113999999996 31.854605999999997 14.688439999999998
38.119113999999996 33.023443 22.228654
38.119113999999996 26.969763 34.130155
20.098809 9.940074 14.419296
33.401225 9.940074 28.092563999999996
32.276566 9.940074 31.993637999999997
15.692587999999999 9.940074 14.086055
27.824155999999995 38.119113999999996 32.111103
14.775115999999999 38.119113999999996 31.825611000000002
21.142151999999996 38.119113999999996 22.227407999999997
26.521011 38.119113999999996 16.176651
12.129593999999999 12.129593999999999 18.079594
24.029593999999996 35.929594 24.029593999999996
29.979594 12.129593999999999 18.079594
18.079594 35.929594 18.079594
12.129593999999999 12.129593999999999 29.979594
35.929594 29.979594 35.929594
24.029593999999996 35.929594 12.129593999999999
35.929594 24.029593999999996 18.079594
24.029593999999996 29.979594 12.129593999999999
12.129593999999999 24.029593999999996 29.979594
29.979594 29.979594 12.129593999999999
24.029593999999996 35.929594 18.079594
29.979594 12.129593999999999 35.929594
24.029593999999996 18.079594 12.129593999999999
24.029593999999996 12.129593999999999 12.129593999999999
35.929594 12.129593999999999 24.029593999999996
12.129593999999999 18.079594 18.079594
32.93314 34.068404 35.326073
32.991546 31.852534 35.307506
21.140142999999995 22.165321 35.326073
20.985599 19.954074999999996 35.307506
16.015819999999998 26.363735999999996 35.326073
14.193689 27.626005999999997 35.307506
19.947975 15.232762 35.326073
22.151649 14.993360999999998 35.307506
26.083832 26.377513 12.733115
27.924741999999995 27.612235999999996 12.751681999999999
15.656246 26.036755 12.733115
14.57227 27.970272 12.751681999999999
20.192689 20.348795 12.733115