129_cspbbr3_3\129_cspbbr3_3.xyz
1.0
38.790223 0 0
0 38.790223 0
0 0 38.790223
Br Cs Pb 
108 54 27 
Cartesian
28.357913500000002 13.6528885 19.362274499999998
22.5126815 13.3250625 13.3145125
25.315994500000002 10.428378499999999 13.717601499999999
25.2441795 13.6017005 10.4022315
28.1327315 13.5288845 25.4369735
28.1292865 19.3093085 13.2393885
19.1461585 28.2911895 25.324307500000003
19.602371500000004 28.403515499999997 19.248248500000003
19.559963500000002 28.435621499999996 13.486416499999999
28.5119885 19.4411355 19.298801500000003
19.462604499999998 25.192980499999997 28.4204795
22.198162500000002 25.284684499999997 19.3085145
25.489078499999998 13.3795795 16.552032500000003
19.447984500000004 25.159406500000003 22.397707500000003
28.139529500000002 19.5274735 25.537563499999997
16.506324499999998 25.2504275 19.628274500000003
19.4358875 22.4878985 19.234719500000004
28.3061845 25.481004499999997 13.3113165
16.499469500000004 25.2008455 13.3566475
28.3167835 25.505526500000002 19.2950395
19.5199445 22.2150355 13.6133525
19.2941135 25.4657215 10.3216725
28.163110500000002 25.4964675 25.4348685
19.5193425 19.2286675 28.309059499999996
16.6386065 25.252514500000004 25.325391500000002
19.3416425 22.3279565 25.6161005
22.4972055 13.5862345 19.4488505
28.258098500000003 13.2930365 13.6147185
25.3264025 22.2830875 19.553822500000003
25.304030500000003 25.255765500000003 16.618824500000002
25.2739915 25.4241945 22.166647500000003
22.5539385 25.446729500000004 13.4208885
25.2476055 22.5235195 13.5780785
25.1763165 25.254842500000002 10.5631775
25.2716145 22.331858500000003 25.6215975
25.505900500000003 19.3053495 28.3513405
22.235803500000003 19.4518975 25.1347995
22.310016500000003 25.145999500000002 25.538909500000003
25.145126500000003 16.3226705 25.309946500000002
25.150003500000004 19.3352225 22.187774500000003
25.505365500000003 10.4210675 19.2300715
22.514736499999998 19.323268499999998 19.558912499999998
25.480715500000002 16.267705499999998 19.1979715
25.419585500000004 19.2481845 16.570252500000002
25.1811115 28.5122675 13.4810265
22.2427925 19.5608595 13.4142685
25.0810035 28.285793499999997 19.2684395
25.4315255 16.3644505 13.6246745
25.288636500000003 19.5582615 10.2719025
25.5568345 28.2196445 25.284180499999998
25.234530499999998 13.4159335 28.4983705
22.3060835 13.4793015 25.1567965
25.310052499999998 10.5887605 25.5485215
25.1268855 13.4378695 22.349360500000003
25.2080895 25.4858305 28.3864625
16.2022385 19.212131499999998 25.2533435
19.4238135 25.486723500000004 16.3114865
19.2970895 19.5584925 22.525555500000003
13.5406475 28.302204500000002 13.6083845
13.6077815 25.1719175 28.2820245
10.3156975 25.4231925 25.5038635
13.4015895 22.4799395 25.5157045
13.6905595 25.396527499999998 22.3061765
10.3826455 25.2771435 19.130621500000004
13.6716525 22.535022500000004 19.3209535
19.244282500000004 16.5193485 25.3465845
10.585618499999999 25.600776500000002 13.4218075
13.5698515 22.5429715 13.3087055
13.5561475 25.2723825 10.3404975
13.5294335 19.287260500000002 28.4686465
10.694428499999999 19.5748605 25.326297500000003
13.3727285 16.275228499999997 25.4617535
13.412725499999999 19.5876035 22.3489445
10.6214095 19.386604499999997 19.2796885
13.2989965 16.291019499999997 19.359880500000003
13.3755275 13.2644185 10.634660499999999
13.5610035 10.398887499999999 13.2340625
10.397534499999999 13.5867975 13.5496545
13.3109655 13.3468465 16.236017500000003
13.2552775 10.3551705 19.244288500000003
10.3974755 13.6876725 19.266437500000002
13.6355495 28.384226499999997 19.454480500000003
13.5465615 13.4952695 22.2002265
10.3298315 13.275000499999999 25.499753500000004
13.6249785 13.6217725 28.3003735
13.296939499999999 19.522637500000002 10.360324499999999
13.3853635 16.5288385 13.244631499999999
10.5634105 19.241795500000002 13.5386855
13.4412095 19.2248515 16.5587035
13.2892225 10.3798965 25.4482625
13.6183835 28.4841015 25.247490499999998
13.326895500000001 25.1482495 16.4932235
19.2709475 13.3423465 10.5595805
19.3544675 13.5726545 28.4709445
16.604125500000002 13.5089445 25.5125605
19.527621500000002 10.5926835 25.343821500000004
19.2575845 13.512978500000001 22.2302715
16.4570375 19.265032500000004 13.2652105
16.438934500000002 13.3105955 19.2500165
19.342163499999998 16.361444499999998 13.2480885
19.579645499999998 16.2269085 19.483855500000004
19.4525475 10.2542185 19.4244415
16.5486965 19.3200225 19.5249015
19.2408145 19.226823500000002 16.3102605
19.2489675 19.274527499999998 10.5314055
16.3829245 13.3002305 13.6905455
19.475567500000004 10.3694685 13.6593545
19.6597595 13.4804865 16.3048535
22.155299499999998 22.2990725 28.623923499999997
28.406710500000003 21.9844315 28.6905765
10.092380499999999 16.4971155 10.0047655
16.031484499999998 16.138845500000002 28.417699499999998
21.991822499999998 28.546783499999997 10.4053415
28.8490915 28.1532775 16.518251499999998
28.882603500000002 22.400571499999998 22.585677500000003
22.130556499999997 28.1277075 16.941275500000003
16.9540765 16.3972305 22.0787805
16.3457535 21.8345075 16.3144215
10.1679075 10.2395125 16.503409500000004
28.230419499999996 10.7979845 16.7303165
10.4065855 10.1117855 22.264815499999997
28.806850500000003 10.5536385 22.152589499999998
28.304137500000003 22.6249185 16.0861585
28.607305500000002 16.0764785 10.4808975
16.2495475 22.1354185 10.8890025
27.813266499999997 22.330146499999998 10.3064705
28.021809499999996 15.9915145 16.601487499999998
28.385327500000002 16.053413499999998 28.244319500000003
28.237379500000003 16.1818235 21.9296315
16.1327475 16.624041499999997 16.710241500000002
22.269932500000003 28.8805665 28.110218500000002
16.079803499999997 10.1080605 28.423834499999998
10.6898895 16.128901499999998 16.690565499999998
10.8923915 28.6945465 22.164300500000003
22.3854775 10.4107825 21.9131175
22.3821705 10.6180855 16.0467905
10.191060499999999 28.7086725 16.3145175
21.9221055 10.224128499999999 28.0480235
10.1316075 22.2290305 27.9593615
22.7774395 16.813356499999998 10.6771765
16.7379075 10.1650115 16.2719765
22.5915355 10.2740415 10.7154905
10.7145315 22.6421695 22.514658500000003
22.578568500000003 16.7889365 16.2303895
16.803168499999998 28.362474499999998 27.9237725
16.655950500000003 28.7408645 22.364121500000003
10.3035515 22.7148385 16.733799500000003
22.594047500000002 16.0356005 22.284997500000003
16.0044805 28.682063499999998 16.248220500000002
16.6009175 10.1967415 22.5641555
10.6434965 22.8614465 10.5162775
22.0840515 16.750893500000004 28.091944499999997
16.6542185 28.801866500000003 10.4166385
22.210730500000004 22.1949095 10.7993305
10.9394195 16.3723375 28.6007065
16.075576499999997 22.312174499999998 28.792871499999997
22.4804075 22.2902695 16.066888499999997
10.526759499999999 16.640558499999997 21.934928499999998
16.9448485 10.6535315 10.5848625
22.455875499999998 22.0159885 22.056821499999998
16.399817499999997 22.3444905 22.757526499999997
27.765842499999998 28.5076185 22.5105515
13.625375499999999 13.2757835 13.2712825
25.1705775 25.172476500000002 13.5250165
13.2420215 25.306777500000003 13.2175965
25.329891500000002 19.334638500000004 25.5679395
13.2583535 25.408269500000003 19.6977075
19.190929500000003 19.457891500000002 25.547673500000002
13.2557215 25.168268500000003 25.5785945
25.5289925 19.2565285 13.4821755
25.2477205 13.3513095 25.1565815
13.2995675 19.437844500000004 25.5067825
19.1849195 13.3320345 13.6780405
19.3164115 13.599973499999999 19.256493499999998
25.407698500000002 13.5821305 13.2548875
19.440054500000002 13.2770045 25.5657195
19.4436015 25.4162235 25.582344499999998
19.174918500000004 19.491215500000003 13.3973645
19.125738500000004 25.4864355 19.2306265
19.299989500000002 19.276942500000004 19.1744495
19.211496500000003 25.156228499999997 13.6543955
25.143958500000004 13.2444195 19.358321500000002
25.3817775 25.5783845 19.5337575
25.417674500000004 19.2267085 19.6498025
13.4367195 19.189488500000003 19.590027499999998
13.4571965 13.2680415 25.511514500000004
25.217487499999997 25.5285905 25.1589995
13.1527265 13.5261205 19.536750500000004
13.234629499999999 19.443647499999997 13.533550499999999
