1_train/30_cspbbr3_methylammonium_3_0.40\30_cspbbr3_methylammonium_3_0.40.xyz
1.0
41.921493999999996 0 0
0 41.921493999999996 0
0 0 41.921493999999996
Br C Cs H N Pb 
108 19 35 114 19 27 
Cartesian
26.708644 26.899534000000003 11.937104999999999
20.890698 26.758604 24.009949999999996
21.176054 24.039042000000002 20.945366
21.148169000000003 23.745925999999997 26.825108
17.761775999999998 26.915357999999998 26.907756
27.097507 23.858451000000002 15.143544999999998
26.900260000000003 30.106876 21.044485
18.13678 26.811541 21.097040999999997
26.710696 29.705543999999996 15.00555
23.789496 20.975904999999997 20.79679
24.036505 27.022108000000003 14.809066999999999
26.933507999999996 30.098872 26.871304000000002
18.181612 27.008167 14.975662999999999
21.134183999999998 24.051614999999998 15.029030999999998
21.090798 26.722776000000003 11.904141999999998
29.942028 14.855859999999998 14.88806
20.836340999999997 21.107841 29.797075999999997
18.130969 21.098878 26.808787000000002
26.805752 26.690427 17.937562999999997
20.936587000000003 17.864393999999997 27.173116999999998
21.206207999999997 26.871283 17.860729
20.822252 26.770536999999997 29.91726
20.816499999999998 29.773607999999996 20.952413999999997
26.72602 17.809509 21.060642
26.707518 21.016945 17.965958
26.756721999999996 24.068351 26.824655999999997
23.729574999999997 26.760922 26.800399999999996
23.839568999999997 20.986292999999996 15.269141999999999
27.072364 18.136214000000002 14.918717999999998
27.082715999999998 20.812742999999998 12.202265999999998
26.739780000000003 15.016284999999998 30.030094999999996
23.864387999999998 15.098829999999998 26.763612000000002
26.769906 20.915843000000002 23.78421
26.954106000000003 11.882017 26.737471
26.669572000000002 14.908745999999999 23.962314999999997
26.765014 17.956901 27.069760000000002
24.166379999999997 15.049207999999998 20.932609999999997
23.75602 20.794486 26.778303
21.019126 20.799985999999997 24.134403999999996
26.924360999999998 15.214432999999998 18.06472
26.742773999999997 20.85792 29.733035
24.004315 14.850074999999999 15.197767999999998
26.815312 11.831788999999999 14.898570999999999
26.90515 14.897032999999999 11.875542999999999
26.814169999999997 27.145833000000003 23.933535999999997
26.810664000000003 26.819259000000002 29.688674999999996
21.092474000000003 29.756872 26.840459000000003
20.969966999999997 29.793566999999996 14.852117999999999
26.662506 11.930200999999999 20.84713
24.011528 27.106336 20.939590000000003
17.90957 20.825186000000002 21.064359000000003
29.957428 15.21318 20.888661999999997
14.956314999999998 27.123979 17.950648
29.842579999999998 26.992506999999996 20.677067
12.049670999999998 26.937381000000002 15.301950999999999
15.175997999999998 23.940551999999997 14.823303
14.754273999999999 26.861703 11.889733
14.886276999999998 21.087865 30.125796
11.838565 20.830257000000003 27.067711000000003
15.130524999999999 17.908110999999998 26.771504
15.105512 20.811793 23.797521000000003
29.930241000000002 27.063755 27.057764
11.855144 20.914189999999998 20.842368
15.153204999999998 18.118276 21.051879999999997
14.859889999999998 20.806931 17.846472999999996
12.163229999999999 21.061511000000003 15.101410999999999
14.794189 17.814583999999996 14.914831999999999
15.000504999999999 20.838223999999997 12.171427999999999
15.192298999999998 15.088811999999999 29.742981999999998
12.133985 15.013715999999999 27.071705
14.845763 12.240526 26.908737000000002
14.852310999999998 15.026302 24.046705000000003
12.068318 14.996524999999998 21.160837
14.963702999999999 12.273306999999999 21.119346999999998
15.150184999999999 15.142261 18.08809
12.175918999999999 14.882869999999999 14.903650999999998
15.162296 12.205222999999998 15.168712
14.911738999999999 14.855072999999999 12.171738
12.082878999999998 26.690759999999997 21.048349
29.978966 26.907297999999997 15.185614999999999
14.865827999999999 24.017105 21.064877000000003
15.053617 24.038733 27.054367999999997
21.076582000000002 21.113186999999996 12.154853999999998
29.726512999999997 14.955115999999999 26.819864000000003
20.748509 14.959933999999999 29.967546999999996
26.811633999999998 24.100037 21.035725
18.220379 14.946617999999999 26.773621
21.090611000000003 12.214021999999998 26.770125
20.837989 15.092267999999999 23.782876
14.745285999999998 27.028865000000003 23.98578
29.885593999999998 21.252105 15.073345999999999
18.078969999999998 15.184057999999999 21.048847000000002
21.171689999999998 11.958758999999999 20.841316
20.890833999999998 17.798206999999998 14.998743
21.094765000000002 15.109086999999999 18.082226
17.81181 15.075214999999998 15.231527999999999
20.983597000000003 12.152980999999999 15.153183999999998
21.04806 20.886465 17.824930000000002
20.954579000000003 17.856557 21.148407
20.786111 14.939236999999999 12.201175
29.801425000000002 21.185119 26.806751
15.151798 29.976954999999997 27.157670000000003
14.901652999999998 29.777023 21.120085000000003
14.956745 29.997169999999997 14.835755999999998
15.003165999999998 27.144475 29.761899999999997
12.181956999999999 26.963504 27.082245
29.929592 21.201087 20.827227999999998
17.737003 21.001654000000002 14.879229999999998
17.919302000000002 31.356975999999996 17.921359
10.934937999999999 30.920451 23.874848
17.94294 30.862626 10.923716999999998
23.954140000000002 31.379249 24.029950999999997
23.882027 30.987791 30.939780999999996
11.048651999999999 23.869832000000002 30.98258
31.416382999999996 23.948631999999996 17.928899
10.932656 23.932434 10.920867
31.41386 17.945724999999996 23.870168999999997
23.997189999999996 18.039757 31.417198999999997
23.978566999999998 11.050154 31.004064999999997
30.954592999999996 23.836733000000002 11.012194
23.932795 10.526184999999998 23.864060000000002
24.000999 10.602504999999999 18.016289999999998
30.913719 17.959984999999996 31.026325999999997
23.999139999999997 31.442082 17.967413999999998
18.042121 31.338062 23.992235
11.017159999999999 30.980387 17.923555
17.961087 30.853873 30.959144000000002
29.555648999999995 30.325592 24.020350999999998
29.590049999999998 24.079355 29.630181
30.14884 30.11674 18.44032
30.222398999999996 17.884315 12.325916
24.190226000000003 24.428016 30.075252999999996
29.690159 23.669029000000002 23.64904
30.24263 12.003457999999998 17.606581
30.301758999999997 12.180983 24.279100999999997
29.611406000000002 17.735315999999997 18.185816000000003
23.580695 24.249941 17.722465
11.735026999999999 11.880213 18.256152999999998
12.322344 12.179832 23.735205999999998
11.978553999999999 17.913586 18.347802
12.356789999999998 17.709482 23.607154
11.496362999999999 17.870703999999996 29.828806
11.659315 23.645272 18.310471999999997
12.286252999999999 23.819149000000003 23.611887000000003
18.233027 12.310669999999998 18.057783999999998
24.286203999999998 24.325259000000003 24.224033
18.328324000000002 11.659548 23.671632000000002
17.566913999999997 12.194965999999999 30.215142
17.623216 18.047682000000002 12.318064999999999
18.112369 12.435944999999998 11.952609999999998
17.805830999999998 18.402596000000003 23.760416
18.306416 17.72422 18.266542
23.734744999999997 17.896284 24.279941
23.719519 17.578550999999997 17.613115
23.897844 17.930438 12.440292
23.995725 12.387903999999999 12.280969999999998
23.796253 24.158276 12.377673
17.903703 23.40538 24.154331999999997
17.664462999999998 24.128962 18.416278
17.600701 24.314247 11.892651999999998
18.258511 18.351217 29.604582999999998
17.779051 24.297227999999997 30.285883
23.503475 31.877243 30.513348999999998
23.078305999999998 12.436787999999998 17.593986
11.719402999999998 24.383528 12.905551999999998
12.270988999999998 22.974562999999996 12.296435999999998
10.135525 23.377815 11.407170999999998
11.417760999999999 23.410372000000002 10.098050999999998
10.778763999999999 24.975018 10.784657
24.693967 12.430442999999999 17.388412
23.302431 30.588068999999997 31.778700999999998
24.070081000000002 12.422000999999998 18.958968
23.105718000000003 10.264017999999998 18.606228
24.878873 10.261892999999999 18.381943999999997
23.783732999999998 10.197736999999998 16.936388
12.900934999999999 24.391668000000003 11.691856
24.989039 31.115285 31.257301999999996
24.904169000000003 12.398596 24.097064000000003
24.524057 30.14096 29.067346999999998
29.276328999999997 23.099286 12.009481
30.455537999999997 23.922303999999997 9.993841999999999
31.545443 23.081338000000002 11.11403
31.53232 24.878027000000003 11.092087
23.879700999999997 17.008521000000002 29.509549999999997
23.16695 18.513847 29.549557999999998
24.827807 18.367312 29.529069
24.050562 19.007329999999996 31.691589999999998
24.824244999999998 17.392077 31.726355999999996
23.031053999999997 17.558475 31.696871
12.713671 23.175053 30.03224
11.633071 23.879942999999997 28.932938
12.563607999999999 24.803316000000002 29.868059000000002
10.308093999999999 24.761631 30.761687000000002
11.475539 24.058549 31.915335999999996
10.426979 22.960641000000003 30.88214
12.321893 29.692056 17.012220999999997
23.551146000000003 12.426544999999999 23.077826
23.321810999999997 12.429892999999998 24.681497
22.943798 10.228642999999998 23.784422999999997
24.330123999999998 10.235311999999999 24.938858000000003
24.543118999999997 10.223901999999999 23.095539000000002
17.72844 29.497490999999997 24.821179
17.334471 29.473587000000002 23.223658
18.949331 29.522202 23.732219999999998
18.288772 31.709386000000002 22.980717
18.690692 31.726596999999998 24.717509999999997
16.947439 31.669677 24.175277
23.00416 29.674236999999998 29.573776000000002
24.314045 28.977936 30.254880999999997
12.902588 30.194736999999996 18.533920000000002
24.74642 12.611346999999999 29.945679
10.689386999999998 31.146608 19.025140999999998
22.993966 29.484136 23.646366999999998
23.163555000000002 31.665300000000002 24.631918
23.652136 31.708863 22.914921
24.954628999999997 31.673397 24.239635999999997
29.497244000000002 24.466886000000002 17.229141
29.537400999999996 23.009064000000002 17.905451999999997
29.492525999999998 24.358403000000003 18.872403
31.685746 23.291806 18.836916000000002
31.698079 24.988338999999996 18.069747
31.653568 23.535581999999998 17.027174
18.168160999999998 29.520243 17.041337
18.689042999999998 29.477434000000002 18.659469
17.070082 29.532311999999997 18.241349
17.778605 31.672303 19.020201
17.199736 31.668545 17.301910999999997
19.002699 31.686894000000002 17.70189
23.890054999999997 29.532812999999997 17.01189
24.770108 29.478688 18.41751
23.141320999999998 29.550151 18.508318000000003
24.012636 31.7046 19.0518
22.996910999999997 31.663888999999998 17.546669
24.768700000000003 31.729624 17.410091
28.940103 18.161695 30.311397
30.059500999999997 18.734175 29.23218
29.856446999999996 17.057291 29.398189000000002
31.909269000000002 17.849601999999997 30.455501999999996
30.695453 17.209128999999997 31.665301999999997
30.895243999999998 18.992812 31.427166
29.257649999999998 24.719485 11.959999999999999
24.192636 29.481676 24.878315999999998
11.714576999999998 28.99232 18.401122
24.651882999999998 29.489305 23.285021
11.034823999999999 31.389263 24.936873
10.114517999999999 30.562875 17.458512
11.409868999999999 31.819283999999996 17.544956999999997
29.486308 18.417206 23.074973
29.53167 17.011449 24.025824
29.543824 18.51233 24.733764
31.714517 17.562103999999998 24.853679
31.721761 19.001753 23.858955
31.668827 17.390717 23.052554999999998
17.043841999999998 29.430594 12.080364999999999
18.721545999999996 29.162351 11.833153999999999
18.17214 30.257851000000002 12.96553
18.952395000000003 31.366053 10.950503
17.245934 31.649729 11.273720999999998
17.760064999999997 30.465840999999998 10.069552999999999
23.136266 12.630997999999998 29.987477
23.949849999999998 11.59297 28.944314
24.839177 10.402242 30.837113000000002
23.008952999999998 10.365435999999999 30.816663999999996
23.940801 11.517033999999999 31.884026
18.825266999999997 29.292764 29.940379
17.17983 29.274955999999996 29.976570000000002
18.016768 30.264077999999998 28.921318999999997
17.122976 31.546743 30.817324
18.866169 31.553393 30.813648
17.943278 30.403247999999998 31.912011999999997
11.845455 29.145792 24.689746999999997
12.081048 29.413483999999997 23.057947
12.979372999999999 30.265014 24.140957999999998
11.247525 31.668838 23.161566999999998
10.006374999999998 30.454473999999998 23.77435
30.274172 23.989643 12.985370999999999
29.933605 18.034301 29.859249999999996
23.99366 29.856414 24.01896
24.030679999999997 12.016462999999998 18.002687
17.959030999999996 29.91064 12.110254
12.073891 29.837024 23.972233000000003
12.096308999999998 29.815503999999997 17.993305999999997
12.124465999999998 23.965533 29.894791999999995
17.957724 29.838456 23.871795
29.829383999999997 23.977089999999997 12.017323999999999
12.124941999999999 23.969969999999996 12.001176999999998
23.973267 12.096179999999999 23.950730999999998
29.843890000000002 17.934801999999998 23.880181
17.968508 29.888304999999995 18.090718000000003
24.009738 29.874057 18.045118000000002
23.903912 18.068208999999996 29.871352
23.956072 12.110966 29.93808
17.932093000000002 29.895521000000002 29.833008999999997
23.89333 29.914840999999996 29.806976999999996
29.826295000000002 23.903547000000003 17.925925
14.751112999999998 15.167803 14.933800999999999
15.229678999999999 20.826901 26.813004999999997
27.175326 21.038221999999998 15.164786999999999
14.945585 26.77239 15.199449
27.023282000000002 14.763025999999998 26.675716
14.841973999999999 27.065928999999997 20.818883999999997
26.716302999999996 14.706244 21.003365000000002
15.015113999999999 27.142038 27.013973
27.087119 20.733911999999997 21.061571999999998
26.723211 15.213384 15.046276999999998
20.847985 15.17161 21.096676000000002
21.012013000000003 27.131037 27.105459000000003
21.160929000000003 15.134341999999998 26.733342
21.130381999999997 26.679245 21.125568
20.827626000000002 20.709761999999998 14.797313999999998
20.853386999999998 27.104660000000003 15.079597999999999
21.152617 20.804277 20.960800999999996
20.702326 14.870844 15.225810999999998
15.197572999999998 21.100136999999997 20.861520999999996
20.732177 21.071008 26.918456999999997
15.253559999999998 20.773218 15.060763
26.876738000000003 27.051411 14.718289999999998
15.183406999999999 15.251698 26.791539999999998
26.929812 27.116010000000003 26.997211
27.113838 26.710684 21.165115
15.009528999999999 15.186471 20.768012999999996
26.713402000000002 20.891728 27.126067999999997
