3_train/189_cspbbr3_MA-PhP_4_0.60\189_cspbbr3_MA-PhP_4_0.60.xyz
1.0
50.165118 0 0
0 50.165118 0
0 0 50.165118
Br C Cs H N O P Pb 
180 412 60 672 52 180 60 64 
Cartesian
13.182559 16.157559 16.157559
16.157559 16.157559 19.132559
13.182559 16.157559 22.107559000000002
16.157559 16.157559 25.082558999999996
13.182559 16.157559 28.057558999999998
16.157559 16.157559 31.032559
16.157559 13.182559 34.007559
16.157559 16.157559 36.982559
16.157559 19.132559 16.157559
13.182559 22.107559000000002 16.157559
16.157559 22.107559000000002 19.132559
16.157559 19.132559 22.107559000000002
16.157559 22.107559000000002 25.082558999999996
16.157559 19.132559 28.057558999999998
16.157559 22.107559000000002 31.032559
16.157559 19.132559 34.007559
16.157559 25.082558999999996 16.157559
16.157559 28.057558999999998 19.132559
16.157559 25.082558999999996 22.107559000000002
13.182559 28.057558999999998 22.107559000000002
16.157559 28.057558999999998 25.082558999999996
16.157559 25.082558999999996 28.057558999999998
16.157559 28.057558999999998 31.032559
16.157559 25.082558999999996 34.007559
16.157559 31.032559 16.157559
13.182559 34.007559 16.157559
16.157559 34.007559 19.132559
16.157559 31.032559 22.107559000000002
16.157559 34.007559 25.082558999999996
16.157559 31.032559 28.057558999999998
16.157559 34.007559 31.032559
16.157559 31.032559 34.007559
16.157559 34.007559 36.982559
16.157559 36.982559 22.107559000000002
16.157559 36.982559 34.007559
22.107559000000002 16.157559 13.182559
22.107559000000002 13.182559 16.157559
19.132559 16.157559 16.157559
22.107559000000002 16.157559 19.132559
22.107559000000002 13.182559 22.107559000000002
19.132559 16.157559 22.107559000000002
22.107559000000002 16.157559 25.082558999999996
22.107559000000002 13.182559 28.057558999999998
19.132559 16.157559 28.057558999999998
22.107559000000002 16.157559 31.032559
19.132559 16.157559 34.007559
22.107559000000002 19.132559 16.157559
19.132559 22.107559000000002 16.157559
22.107559000000002 22.107559000000002 19.132559
22.107559000000002 19.132559 22.107559000000002
19.132559 22.107559000000002 22.107559000000002
22.107559000000002 22.107559000000002 25.082558999999996
22.107559000000002 19.132559 28.057558999999998
19.132559 22.107559000000002 28.057558999999998
22.107559000000002 22.107559000000002 31.032559
22.107559000000002 19.132559 34.007559
19.132559 22.107559000000002 34.007559
22.107559000000002 22.107559000000002 36.982559
22.107559000000002 25.082558999999996 16.157559
19.132559 28.057558999999998 16.157559
22.107559000000002 28.057558999999998 19.132559
22.107559000000002 25.082558999999996 22.107559000000002
19.132559 28.057558999999998 22.107559000000002
22.107559000000002 28.057558999999998 25.082558999999996
22.107559000000002 25.082558999999996 28.057558999999998
19.132559 28.057558999999998 28.057558999999998
22.107559000000002 28.057558999999998 31.032559
22.107559000000002 25.082558999999996 34.007559
19.132559 28.057558999999998 34.007559
22.107559000000002 34.007559 13.182559
22.107559000000002 31.032559 16.157559
19.132559 34.007559 16.157559
22.107559000000002 34.007559 19.132559
22.107559000000002 31.032559 22.107559000000002
19.132559 34.007559 22.107559000000002
22.107559000000002 34.007559 25.082558999999996
22.107559000000002 31.032559 28.057558999999998
19.132559 34.007559 28.057558999999998
22.107559000000002 34.007559 31.032559
22.107559000000002 31.032559 34.007559
19.132559 34.007559 34.007559
22.107559000000002 34.007559 36.982559
22.107559000000002 36.982559 34.007559
28.057558999999998 16.157559 13.182559
25.082558999999996 16.157559 16.157559
28.057558999999998 16.157559 19.132559
28.057558999999998 13.182559 22.107559000000002
25.082558999999996 16.157559 22.107559000000002
28.057558999999998 16.157559 25.082558999999996
25.082558999999996 16.157559 28.057558999999998
28.057558999999998 16.157559 31.032559
25.082558999999996 16.157559 34.007559
28.057558999999998 22.107559000000002 13.182559
28.057558999999998 19.132559 16.157559
25.082558999999996 22.107559000000002 16.157559
28.057558999999998 22.107559000000002 19.132559
28.057558999999998 19.132559 22.107559000000002
25.082558999999996 22.107559000000002 22.107559000000002
28.057558999999998 22.107559000000002 25.082558999999996
28.057558999999998 19.132559 28.057558999999998
25.082558999999996 22.107559000000002 28.057558999999998
28.057558999999998 22.107559000000002 31.032559
28.057558999999998 19.132559 34.007559
25.082558999999996 22.107559000000002 34.007559
28.057558999999998 28.057558999999998 13.182559
28.057558999999998 25.082558999999996 16.157559
25.082558999999996 28.057558999999998 16.157559
28.057558999999998 28.057558999999998 19.132559
28.057558999999998 25.082558999999996 22.107559000000002
25.082558999999996 28.057558999999998 22.107559000000002
28.057558999999998 28.057558999999998 25.082558999999996
28.057558999999998 25.082558999999996 28.057558999999998
25.082558999999996 28.057558999999998 28.057558999999998
28.057558999999998 28.057558999999998 31.032559
28.057558999999998 25.082558999999996 34.007559
25.082558999999996 28.057558999999998 34.007559
28.057558999999998 31.032559 16.157559
25.082558999999996 34.007559 16.157559
28.057558999999998 34.007559 19.132559
28.057558999999998 31.032559 22.107559000000002
25.082558999999996 34.007559 22.107559000000002
28.057558999999998 34.007559 25.082558999999996
28.057558999999998 31.032559 28.057558999999998
25.082558999999996 34.007559 28.057558999999998
28.057558999999998 34.007559 31.032559
28.057558999999998 31.032559 34.007559
25.082558999999996 34.007559 34.007559
28.057558999999998 34.007559 36.982559
28.057558999999998 36.982559 28.057558999999998
34.007559 13.182559 16.157559
31.032559 16.157559 16.157559
34.007559 16.157559 19.132559
31.032559 16.157559 22.107559000000002
34.007559 16.157559 25.082558999999996
31.032559 16.157559 28.057558999999998
34.007559 16.157559 31.032559
31.032559 16.157559 34.007559
34.007559 19.132559 16.157559
31.032559 22.107559000000002 16.157559
34.007559 22.107559000000002 19.132559
34.007559 19.132559 22.107559000000002
31.032559 22.107559000000002 22.107559000000002
34.007559 22.107559000000002 25.082558999999996
34.007559 19.132559 28.057558999999998
31.032559 22.107559000000002 28.057558999999998
34.007559 22.107559000000002 31.032559
34.007559 19.132559 34.007559
31.032559 22.107559000000002 34.007559
34.007559 25.082558999999996 16.157559
31.032559 28.057558999999998 16.157559
34.007559 28.057558999999998 19.132559
34.007559 25.082558999999996 22.107559000000002
31.032559 28.057558999999998 22.107559000000002
34.007559 28.057558999999998 25.082558999999996
34.007559 25.082558999999996 28.057558999999998
31.032559 28.057558999999998 28.057558999999998
34.007559 28.057558999999998 31.032559
34.007559 25.082558999999996 34.007559
31.032559 28.057558999999998 34.007559
34.007559 34.007559 13.182559
34.007559 31.032559 16.157559
31.032559 34.007559 16.157559
34.007559 34.007559 19.132559
34.007559 31.032559 22.107559000000002
31.032559 34.007559 22.107559000000002
34.007559 34.007559 25.082558999999996
34.007559 31.032559 28.057558999999998
31.032559 34.007559 28.057558999999998
34.007559 34.007559 31.032559
34.007559 31.032559 34.007559
31.032559 34.007559 34.007559
34.007559 34.007559 36.982559
34.007559 36.982559 16.157559
34.007559 36.982559 22.107559000000002
36.982559 16.157559 28.057558999999998
36.982559 16.157559 34.007559
36.982559 22.107559000000002 16.157559
36.982559 28.057558999999998 28.057558999999998
36.982559 34.007559 22.107559000000002
36.982559 34.007559 28.057558999999998
23.693233 16.775683 40.850778
23.659436 16.762603 39.459154999999996
23.107559000000002 15.657559 38.778397
22.662419 14.574347999999999 40.903913
23.196593 15.683497999999998 41.573578
22.611039999999996 14.560552999999999 39.513081
29.643233000000002 28.675683 40.850778
29.609436000000002 28.662602999999997 39.459154999999996
29.057558999999998 27.557558999999998 38.778397
28.612418999999996 26.474348 40.903913
29.146592999999996 27.583498 41.573578
28.56104 26.460552999999997 39.513081
35.593233 28.675683 40.850778
35.559436 28.662602999999997 39.459154999999996
35.007559 27.557558999999998 38.778397
34.562419 26.474348 40.903913
35.096593 27.583498 41.573578
34.51104 26.460552999999997 39.513081
23.693233 28.675683 40.850778
23.659436 28.662602999999997 39.459154999999996
23.107559000000002 27.557558999999998 38.778397
22.662419 26.474348 40.903913
23.196593 27.583498 41.573578
22.611039999999996 26.460552999999997 39.513081
35.593233 22.725682999999997 40.850778
35.559436 22.712603 39.459154999999996
35.007559 21.607559000000002 38.778397
34.562419 20.524348 40.903913
35.096593 21.633498 41.573578
34.51104 20.510553 39.513081
29.643233000000002 16.775683 40.850778
29.609436000000002 16.762603 39.459154999999996
29.057558999999998 15.657559 38.778397
28.612418999999996 14.574347999999999 40.903913
29.146592999999996 15.683497999999998 41.573578
28.56104 14.560552999999999 39.513081
17.743232999999996 22.725682999999997 40.850778
17.709435999999997 22.712603 39.459154999999996
17.157559 21.607559000000002 38.778397
16.712418999999997 20.524348 40.903913
17.246592999999997 21.633498 41.573578
16.66104 20.510553 39.513081
17.743232999999996 28.675683 40.850778
17.709435999999997 28.662602999999997 39.459154999999996
17.157559 27.557558999999998 38.778397
16.712418999999997 26.474348 40.903913
17.246592999999997 27.583498 41.573578
16.66104 26.460552999999997 39.513081
29.643233000000002 22.725682999999997 40.850778
29.609436000000002 22.712603 39.459154999999996
29.057558999999998 21.607559000000002 38.778397
28.612418999999996 20.524348 40.903913
29.146592999999996 21.633498 41.573578
28.56104 20.510553 39.513081
35.593233 16.775683 40.850778
35.559436 16.762603 39.459154999999996
35.007559 15.657559 38.778397
34.562419 14.574347999999999 40.903913
35.096593 15.683497999999998 41.573578
34.51104 14.560552999999999 39.513081
14.571885 34.625683 9.31434
14.605682 34.612603 10.705963
15.157559 33.507559 11.386721
15.602699 32.424348 9.261205
15.068525 33.533498 8.591539999999998
15.654078 32.410553 10.652037
26.471885 34.625683 9.31434
26.505682 34.612603 10.705963
27.057558999999998 33.507559 11.386721
27.502699 32.424348 9.261205
26.968525 33.533498 8.591539999999998
27.554077999999997 32.410553 10.652037
32.421884999999996 28.675683 9.31434
32.455681999999996 28.662602999999997 10.705963
33.007559 27.557558999999998 11.386721
33.452699 26.474348 9.261205
32.918525 27.583498 8.591539999999998
33.504078 26.460552999999997 10.652037
14.571885 16.775683 9.31434
14.605682 16.762603 10.705963
15.157559 15.657559 11.386721
15.602699 14.574347999999999 9.261205
15.068525 15.683497999999998 8.591539999999998
15.654078 14.560552999999999 10.652037
32.421884999999996 22.725682999999997 9.31434
32.455681999999996 22.712603 10.705963
33.007559 21.607559000000002 11.386721
33.452699 20.524348 9.261205
32.918525 21.633498 8.591539999999998
33.504078 20.510553 10.652037
14.571885 22.725682999999997 9.31434
14.605682 22.712603 10.705963
15.157559 21.607559000000002 11.386721
15.602699 20.524348 9.261205
15.068525 21.633498 8.591539999999998
15.654078 20.510553 10.652037
20.521884999999997 28.675683 9.31434
20.555681999999997 28.662602999999997 10.705963
21.107559000000002 27.557558999999998 11.386721
21.552698999999997 26.474348 9.261205
21.018524999999997 27.583498 8.591539999999998
21.604078 26.460552999999997 10.652037
20.521884999999997 22.725682999999997 9.31434
20.555681999999997 22.712603 10.705963
21.107559000000002 21.607559000000002 11.386721
21.552698999999997 20.524348 9.261205
21.018524999999997 21.633498 8.591539999999998
21.604078 20.510553 10.652037
14.571885 28.675683 9.31434
14.605682 28.662602999999997 10.705963
15.157559 27.557558999999998 11.386721
15.602699 26.474348 9.261205
15.068525 27.583498 8.591539999999998
15.654078 26.460552999999997 10.652037
32.421884999999996 16.775683 9.31434
32.455681999999996 16.762603 10.705963
33.007559 15.657559 11.386721
33.452699 14.574347999999999 9.261205
32.918525 15.683497999999998 8.591539999999998
33.504078 14.560552999999999 10.652037
9.31434 28.675683 17.743232999999996
10.705963 28.662602999999997 17.709435999999997
11.386721 27.557558999999998 17.157559
9.261205 26.474348 16.712418999999997
8.591539999999998 27.583498 17.246592999999997
10.652037 26.460552999999997 16.66104
9.31434 28.675683 29.643233000000002
10.705963 28.662602999999997 29.609436000000002
11.386721 27.557558999999998 29.057558999999998
9.261205 26.474348 28.612418999999996
8.591539999999998 27.583498 29.146592999999996
10.652037 26.460552999999997 28.56104
9.31434 28.675683 35.593233
10.705963 28.662602999999997 35.559436
11.386721 27.557558999999998 35.007559
9.261205 26.474348 34.562419
8.591539999999998 27.583498 35.096593
10.652037 26.460552999999997 34.51104
9.31434 34.625683 35.593233
10.705963 34.612603 35.559436
11.386721 33.507559 35.007559
9.261205 32.424348 34.562419
8.591539999999998 33.533498 35.096593
10.652037 32.410553 34.51104
9.31434 22.725682999999997 35.593233
10.705963 22.712603 35.559436
11.386721 21.607559000000002 35.007559
9.261205 20.524348 34.562419
8.591539999999998 21.633498 35.096593
10.652037 20.510553 34.51104
9.31434 22.725682999999997 23.693233
10.705963 22.712603 23.659436
11.386721 21.607559000000002 23.107559000000002
9.261205 20.524348 22.662419
8.591539999999998 21.633498 23.196593
10.652037 20.510553 22.611039999999996
9.31434 22.725682999999997 29.643233000000002
10.705963 22.712603 29.609436000000002
11.386721 21.607559000000002 29.057558999999998
9.261205 20.524348 28.612418999999996
8.591539999999998 21.633498 29.146592999999996
10.652037 20.510553 28.56104
9.31434 34.625683 29.643233000000002
10.705963 34.612603 29.609436000000002
11.386721 33.507559 29.057558999999998
9.261205 32.424348 28.612418999999996
8.591539999999998 33.533498 29.146592999999996
10.652037 32.410553 28.56104
9.31434 16.775683 35.593233
10.705963 16.762603 35.559436
11.386721 15.657559 35.007559
9.261205 14.574347999999999 34.562419
8.591539999999998 15.683497999999998 35.096593
10.652037 14.560552999999999 34.51104
9.31434 34.625683 23.693233
10.705963 34.612603 23.659436
11.386721 33.507559 23.107559000000002
9.261205 32.424348 22.662419
8.591539999999998 33.533498 23.196593
10.652037 32.410553 22.611039999999996
40.850778 28.675683 20.521884999999997
39.459154999999996 28.662602999999997 20.555681999999997
38.778397 27.557558999999998 21.107559000000002
40.903913 26.474348 21.552698999999997
41.573578 27.583498 21.018524999999997
39.513081 26.460552999999997 21.604078
40.850778 16.775683 20.521884999999997
39.459154999999996 16.762603 20.555681999999997
38.778397 15.657559 21.107559000000002
40.903913 14.574347999999999 21.552698999999997
41.573578 15.683497999999998 21.018524999999997
39.513081 14.560552999999999 21.604078
40.850778 22.725682999999997 32.421884999999996
39.459154999999996 22.712603 32.455681999999996
38.778397 21.607559000000002 33.007559
40.903913 20.524348 33.452699
41.573578 21.633498 32.918525
39.513081 20.510553 33.504078
40.850778 34.625683 32.421884999999996
39.459154999999996 34.612603 32.455681999999996
38.778397 33.507559 33.007559
40.903913 32.424348 33.452699
41.573578 33.533498 32.918525
39.513081 32.410553 33.504078
40.850778 22.725682999999997 20.521884999999997
39.459154999999996 22.712603 20.555681999999997
38.778397 21.607559000000002 21.107559000000002
40.903913 20.524348 21.552698999999997
41.573578 21.633498 21.018524999999997
39.513081 20.510553 21.604078
40.850778 28.675683 14.571885
39.459154999999996 28.662602999999997 14.605682
38.778397 27.557558999999998 15.157559
40.903913 26.474348 15.602699
41.573578 27.583498 15.068525
39.513081 26.460552999999997 15.654078
40.850778 16.775683 14.571885
39.459154999999996 16.762603 14.605682
38.778397 15.657559 15.157559
40.903913 14.574347999999999 15.602699
41.573578 15.683497999999998 15.068525
39.513081 14.560552999999999 15.654078
40.850778 28.675683 32.421884999999996
39.459154999999996 28.662602999999997 32.455681999999996
38.778397 27.557558999999998 33.007559
40.903913 26.474348 33.452699
41.573578 27.583498 32.918525
39.513081 26.460552999999997 33.504078
40.850778 34.625683 14.571885
39.459154999999996 34.612603 14.605682
38.778397 33.507559 15.157559
40.903913 32.424348 15.602699
41.573578 33.533498 15.068525
39.513081 32.410553 15.654078
40.850778 22.725682999999997 26.471885
39.459154999999996 22.712603 26.505682
38.778397 21.607559000000002 27.057558999999998
40.903913 20.524348 27.502699
41.573578 21.633498 26.968525
39.513081 20.510553 27.554077999999997
35.593233 9.31434 34.625683
35.559436 10.705963 34.612603
35.007559 11.386721 33.507559
34.562419 9.261205 32.424348
35.096593 8.591539999999998 33.533498
34.51104 10.652037 32.410553
29.643233000000002 9.31434 28.675683
29.609436000000002 10.705963 28.662602999999997
29.057558999999998 11.386721 27.557558999999998
28.612418999999996 9.261205 26.474348
29.146592999999996 8.591539999999998 27.583498
28.56104 10.652037 26.460552999999997
17.743232999999996 9.31434 16.775683
17.709435999999997 10.705963 16.762603
17.157559 11.386721 15.657559
16.712418999999997 9.261205 14.574347999999999
17.246592999999997 8.591539999999998 15.683497999999998
16.66104 10.652037 14.560552999999999
17.743232999999996 9.31434 22.725682999999997
17.709435999999997 10.705963 22.712603
17.157559 11.386721 21.607559000000002
16.712418999999997 9.261205 20.524348
17.246592999999997 8.591539999999998 21.633498
16.66104 10.652037 20.510553
35.593233 9.31434 28.675683
35.559436 10.705963 28.662602999999997
35.007559 11.386721 27.557558999999998
34.562419 9.261205 26.474348
35.096593 8.591539999999998 27.583498
34.51104 10.652037 26.460552999999997
29.643233000000002 9.31434 16.775683
29.609436000000002 10.705963 16.762603
29.057558999999998 11.386721 15.657559
28.612418999999996 9.261205 14.574347999999999
29.146592999999996 8.591539999999998 15.683497999999998
28.56104 10.652037 14.560552999999999
35.593233 9.31434 22.725682999999997
35.559436 10.705963 22.712603
35.007559 11.386721 21.607559000000002
34.562419 9.261205 20.524348
35.096593 8.591539999999998 21.633498
34.51104 10.652037 20.510553
17.743232999999996 9.31434 28.675683
17.709435999999997 10.705963 28.662602999999997
17.157559 11.386721 27.557558999999998
16.712418999999997 9.261205 26.474348
17.246592999999997 8.591539999999998 27.583498
16.66104 10.652037 26.460552999999997
29.643233000000002 9.31434 34.625683
29.609436000000002 10.705963 34.612603
29.057558999999998 11.386721 33.507559
28.612418999999996 9.261205 32.424348
29.146592999999996 8.591539999999998 33.533498
28.56104 10.652037 32.410553
23.693233 9.31434 34.625683
23.659436 10.705963 34.612603
23.107559000000002 11.386721 33.507559
22.662419 9.261205 32.424348
23.196593 8.591539999999998 33.533498
22.611039999999996 10.652037 32.410553
23.693233 40.850778 27.439434999999996
23.659436 39.459154999999996 27.452515
23.107559000000002 38.778397 28.557558999999998
22.662419 40.903913 29.640769999999996
23.196593 41.573578 28.531619999999997
22.611039999999996 39.513081 29.654564999999998
23.693233 40.850778 21.489435
23.659436 39.459154999999996 21.502515
23.107559000000002 38.778397 22.607559000000002
22.662419 40.903913 23.69077
23.196593 41.573578 22.58162
22.611039999999996 39.513081 23.704564999999995
17.743232999999996 40.850778 15.539435
17.709435999999997 39.459154999999996 15.552515
17.157559 38.778397 16.657559
16.712418999999997 40.903913 17.740769999999998
17.246592999999997 41.573578 16.631619999999998
16.66104 39.513081 17.754565
23.693233 40.850778 15.539435
23.659436 39.459154999999996 15.552515
23.107559000000002 38.778397 16.657559
22.662419 40.903913 17.740769999999998
23.196593 41.573578 16.631619999999998
22.611039999999996 39.513081 17.754565
17.743232999999996 40.850778 27.439434999999996
17.709435999999997 39.459154999999996 27.452515
17.157559 38.778397 28.557558999999998
16.712418999999997 40.903913 29.640769999999996
17.246592999999997 41.573578 28.531619999999997
16.66104 39.513081 29.654564999999998
35.593233 40.850778 33.389435
35.559436 39.459154999999996 33.402515
35.007559 38.778397 34.507559
34.562419 40.903913 35.59077
35.096593 41.573578 34.48162
34.51104 39.513081 35.604565
35.593233 40.850778 27.439434999999996
35.559436 39.459154999999996 27.452515
35.007559 38.778397 28.557558999999998
34.562419 40.903913 29.640769999999996
35.096593 41.573578 28.531619999999997
34.51104 39.513081 29.654564999999998
29.643233000000002 40.850778 15.539435
29.609436000000002 39.459154999999996 15.552515
29.057558999999998 38.778397 16.657559
28.612418999999996 40.903913 17.740769999999998
29.146592999999996 41.573578 16.631619999999998
28.56104 39.513081 17.754565
29.643233000000002 40.850778 21.489435
29.609436000000002 39.459154999999996 21.502515
29.057558999999998 38.778397 22.607559000000002
28.612418999999996 40.903913 23.69077
29.146592999999996 41.573578 22.58162
28.56104 39.513081 23.704564999999995
29.643233000000002 40.850778 33.389435
29.609436000000002 39.459154999999996 33.402515
29.057558999999998 38.778397 34.507559
28.612418999999996 40.903913 35.59077
29.146592999999996 41.573578 34.48162
28.56104 39.513081 35.604565
12.139109 19.132559 12.139109
11.706897999999999 19.132559 31.032559
12.139109 19.132559 38.026009
12.139109 25.082558999999996 12.139109
11.706897999999999 25.082558999999996 19.132559
11.706897999999999 25.082558999999996 31.032559
12.139109 25.082558999999996 38.026009
12.139109 31.032559 12.139109
11.706897999999999 31.032559 25.082558999999996
11.706897999999999 31.032559 31.032559
12.139109 31.032559 38.026009
19.132559 12.139109 12.139109
19.132559 11.706897999999999 19.132559
19.132559 11.706897999999999 25.082558999999996
19.132559 19.132559 11.706897999999999
19.132559 19.132559 38.45822
19.132559 25.082558999999996 11.706897999999999
19.132559 25.082558999999996 38.45822
19.132559 38.45822 19.132559
19.132559 38.45822 31.032559
25.082558999999996 11.706897999999999 31.032559
25.082558999999996 12.139109 38.026009
25.082558999999996 25.082558999999996 38.45822
25.082558999999996 31.032559 11.706897999999999
25.082558999999996 38.45822 19.132559
25.082558999999996 38.45822 25.082558999999996
25.082558999999996 38.45822 31.032559
31.032559 12.139109 12.139109
31.032559 11.706897999999999 25.082558999999996
31.032559 11.706897999999999 31.032559
31.032559 12.139109 38.026009
31.032559 19.132559 11.706897999999999
31.032559 19.132559 38.45822
31.032559 25.082558999999996 11.706897999999999
31.032559 25.082558999999996 38.45822
31.032559 38.45822 19.132559
31.032559 38.45822 25.082558999999996
31.032559 38.026009 38.026009
38.026009 12.139109 19.132559
38.026009 12.139109 25.082558999999996
38.026009 12.139109 31.032559
38.45822 19.132559 19.132559
38.45822 19.132559 25.082558999999996
38.45822 19.132559 31.032559
38.026009 19.132559 38.026009
38.026009 25.082558999999996 12.139109
38.45822 25.082558999999996 19.132559
38.45822 25.082558999999996 31.032559
38.026009 25.082558999999996 38.026009
38.026009 31.032559 12.139109
38.45822 31.032559 31.032559
38.026009 38.026009 31.032559
13.182559 13.182559 19.132559
13.182559 13.182559 25.082558999999996
13.182559 13.182559 31.032559
13.182559 19.132559 19.132559
13.182559 31.032559 19.132559
13.182559 36.982559 19.132559
13.182559 36.982559 25.082558999999996
19.132559 13.182559 31.032559
19.132559 13.182559 36.982559
19.132559 19.132559 19.132559
19.132559 19.132559 25.082558999999996
19.132559 19.132559 31.032559
19.132559 25.082558999999996 19.132559
19.132559 25.082558999999996 25.082558999999996
19.132559 25.082558999999996 31.032559
19.132559 31.032559 13.182559
19.132559 31.032559 19.132559
19.132559 31.032559 25.082558999999996
19.132559 31.032559 31.032559
19.132559 31.032559 36.982559
19.132559 36.982559 13.182559
19.132559 36.982559 25.082558999999996
19.132559 36.982559 36.982559
25.082558999999996 13.182559 13.182559
25.082558999999996 13.182559 19.132559
25.082558999999996 13.182559 25.082558999999996
25.082558999999996 19.132559 13.182559
25.082558999999996 19.132559 19.132559
25.082558999999996 19.132559 25.082558999999996
25.082558999999996 19.132559 31.032559
25.082558999999996 19.132559 36.982559
25.082558999999996 25.082558999999996 13.182559
25.082558999999996 25.082558999999996 19.132559
25.082558999999996 25.082558999999996 25.082558999999996
25.082558999999996 25.082558999999996 31.032559
25.082558999999996 31.032559 19.132559
25.082558999999996 31.032559 25.082558999999996
25.082558999999996 31.032559 31.032559
25.082558999999996 31.032559 36.982559
25.082558999999996 36.982559 13.182559
25.082558999999996 36.982559 36.982559
31.032559 13.182559 19.132559
31.032559 19.132559 19.132559
31.032559 19.132559 25.082558999999996
31.032559 19.132559 31.032559
31.032559 25.082558999999996 19.132559
31.032559 25.082558999999996 25.082558999999996
31.032559 25.082558999999996 31.032559
31.032559 31.032559 13.182559
31.032559 31.032559 19.132559
31.032559 31.032559 25.082558999999996
31.032559 31.032559 31.032559
31.032559 31.032559 36.982559
31.032559 36.982559 31.032559
36.982559 19.132559 13.182559
36.982559 25.082558999999996 25.082558999999996
36.982559 31.032559 19.132559
36.982559 31.032559 25.082558999999996
36.982559 36.982559 19.132559
36.982559 36.982559 25.082558999999996
22.286372 13.722256 41.473431
23.228133 15.695019 42.66511799999999
24.107577 17.636668 41.378662
24.040774 17.606909 38.882298
22.192454999999995 13.701412999999999 38.98576
20.967807 15.353212999999998 36.630511999999996
28.236371999999996 25.622256 41.473431
29.178132999999995 27.595019 42.66511799999999
30.057577000000002 29.536668 41.378662
29.990774000000002 29.506909 38.882298
28.142454999999998 25.601413 38.98576
26.917806999999996 27.253212999999995 36.630511999999996
34.186372 25.622256 41.473431
35.128133 27.595019 42.66511799999999
36.007577 29.536668 41.378662
35.940774 29.506909 38.882298
34.092455 25.601413 38.98576
32.867807 27.253212999999995 36.630511999999996
22.286372 25.622256 41.473431
23.228133 27.595019 42.66511799999999
24.107577 29.536668 41.378662
24.040774 29.506909 38.882298
22.192454999999995 25.601413 38.98576
20.967807 27.253212999999995 36.630511999999996
34.186372 19.672255999999997 41.473431
35.128133 21.645018999999998 42.66511799999999
36.007577 23.586667999999996 41.378662
35.940774 23.556908999999997 38.882298
34.092455 19.651412999999998 38.98576
32.867807 21.303213 36.630511999999996
28.236371999999996 13.722256 41.473431
29.178132999999995 15.695019 42.66511799999999
30.057577000000002 17.636668 41.378662
29.990774000000002 17.606909 38.882298
28.142454999999998 13.701412999999999 38.98576
26.917806999999996 15.353212999999998 36.630511999999996
16.336371999999997 19.672255999999997 41.473431
17.278132999999997 21.645018999999998 42.66511799999999
18.157577 23.586667999999996 41.378662
18.090774 23.556908999999997 38.882298
16.242455 19.651412999999998 38.98576
15.017807 21.303213 36.630511999999996
16.336371999999997 25.622256 41.473431
17.278132999999997 27.595019 42.66511799999999
18.157577 29.536668 41.378662
18.090774 29.506909 38.882298
16.242455 25.601413 38.98576
15.017807 27.253212999999995 36.630511999999996
28.236371999999996 19.672255999999997 41.473431
29.178132999999995 21.645018999999998 42.66511799999999
30.057577000000002 23.586667999999996 41.378662
29.990774000000002 23.556908999999997 38.882298
28.142454999999998 19.651412999999998 38.98576
26.917806999999996 21.303213 36.630511999999996
34.186372 13.722256 41.473431
35.128133 15.695019 42.66511799999999
36.007577 17.636668 41.378662
35.940774 17.606909 38.882298
34.092455 13.701412999999999 38.98576
32.867807 15.353212999999998 36.630511999999996
15.978746 31.572256000000003 8.691686999999998
15.036985 33.545018999999996 7.499999999999999
14.157541 35.486668 8.786456
14.224344 35.456908999999996 11.28282
16.072663 31.551412999999997 11.179358
17.297311 33.203213 13.534606
27.878746 31.572256000000003 8.691686999999998
26.936985 33.545018999999996 7.499999999999999
26.057541 35.486668 8.786456
26.124344 35.456908999999996 11.28282
27.972662999999997 31.551412999999997 11.179358
29.197311 33.203213 13.534606
33.828746 25.622256 8.691686999999998
32.886985 27.595019 7.499999999999999
32.007540999999996 29.536668 8.786456
32.074343999999996 29.506909 11.28282
33.922663 25.601413 11.179358
35.147311 27.253212999999995 13.534606
15.978746 13.722256 8.691686999999998
15.036985 15.695019 7.499999999999999
14.157541 17.636668 8.786456
14.224344 17.606909 11.28282
16.072663 13.701412999999999 11.179358
17.297311 15.353212999999998 13.534606
33.828746 19.672255999999997 8.691686999999998
32.886985 21.645018999999998 7.499999999999999
32.007540999999996 23.586667999999996 8.786456
32.074343999999996 23.556908999999997 11.28282
33.922663 19.651412999999998 11.179358
35.147311 21.303213 13.534606
15.978746 19.672255999999997 8.691686999999998
15.036985 21.645018999999998 7.499999999999999
14.157541 23.586667999999996 8.786456
14.224344 23.556908999999997 11.28282
16.072663 19.651412999999998 11.179358
17.297311 21.303213 13.534606