1_train/79_cspbbr3_methylammonium_4_0.40\79_cspbbr3_methylammonium_4_0.40.xyz
1.0
47.741956 0 0
0 47.741956 0
0 0 47.741956
Br C Cs H N Pb 
240 34 78 204 34 64 
Cartesian
26.891612 27.137197999999998 29.820290999999997
24.078554999999998 26.960086999999998 26.846951999999998
32.988794999999996 26.722202 29.958444
26.909893 26.743315 23.639011
35.933966999999996 20.861185 20.69615
24.010828 26.726881 20.864544
26.919731 23.738417 21.098518
26.717893 23.976656 26.701590999999997
35.86390900000001 21.148781 14.832121999999998
23.743142 26.718014 32.804122
26.716188 23.717761 33.007042999999996
26.955257999999997 26.777624 17.760507999999998
26.848465 26.631095 35.65365
35.778009999999995 14.958530999999999 27.085303
35.538585999999995 15.047332999999998 20.946538999999998
26.705856999999998 32.698912 11.759094999999999
26.782000999999998 29.985087999999998 15.164916999999999
23.974861999999998 32.918047 15.086133999999998
35.925847000000005 15.069484999999998 15.077107999999999
26.719632999999998 33.026081 17.960366
26.980255 29.727453999999998 20.764867
23.984830999999996 32.94701 20.720502
32.777153 35.661259 32.541666
35.953795 14.917402 32.608239999999995
35.873041 20.702627 26.711809999999996
26.66029 27.065171 11.950543999999999
24.003325 26.998538 15.070260999999999
23.803903 14.833993 27.001611
35.765176999999994 33.002635999999995 32.674355
26.818811999999998 14.787137999999999 29.902523
35.557182999999995 32.717574 26.991044
26.932413999999998 11.828292999999999 32.944219000000004
23.757191 14.864738999999998 32.677515
26.697060999999998 14.933570999999999 35.92510300000001
35.783219 32.998851 20.725523
35.894356 32.983059 15.065767999999998
26.789123 20.783233999999997 12.215976999999999
26.702471999999997 17.77787 14.896002
24.104843999999996 20.721633999999998 14.979029999999998
26.942459 20.858203 18.142484
35.654735 21.087224 32.829367
26.687577 17.855729999999998 21.084194
35.939769 27.033818999999998 32.835156
26.939311 21.012562999999997 23.660708
27.048734 17.773835 26.873651999999996
23.719826 21.110848 26.831236
35.878085 26.805159999999997 27.120220999999997
35.861262999999994 26.661103999999998 20.835304999999998
26.715664 20.851269 29.629707999999997
26.909194 17.668181999999998 32.69108799999999
23.745687999999998 20.953622 32.956449
26.990821999999998 20.732575 35.727396
35.638161999999994 27.007029 14.821672999999999
32.921389 35.974360000000004 26.834357999999998
26.94363 23.843017999999997 14.777868999999999
24.099828999999996 20.740838999999998 20.935412
26.938947 32.611851 23.990534999999998
26.854575 29.651311 33.030646
23.970504 32.906063 26.994255999999996
29.706163 20.979663 15.132302999999999
30.092989 32.844730999999996 20.898609999999998
32.823657999999995 20.654861 17.940596999999997
32.941109 18.097224 21.020404
29.808573 20.779864999999997 21.097598
32.573828 29.798386999999998 20.734671
32.881538 20.765719999999998 23.682962
32.881709 17.965688999999998 27.025142
30.056472 20.833768 26.713200999999998
32.748345 32.627455 17.737923
32.702917 21.060366 29.874101
32.703884 18.068656 32.65034
29.729806999999997 20.751913 32.889009
32.88134599999999 21.037331 35.637141
29.69738 32.928284 14.877112999999998
32.94878 26.786655 11.882207
32.615472 23.725597999999998 15.107437999999998
30.025626 26.878908999999997 15.092709
32.849819999999994 29.927699999999998 15.219396999999999
33.000220999999996 26.69194 17.767305999999998
32.576788 23.723164999999998 20.778883999999998
32.948753999999994 32.624697999999995 12.151119
29.952536 26.70094 20.780858
32.792362 26.584019 23.934986
32.969458 23.85997 26.963528999999998
29.938131 26.765815 26.986014
29.911559 26.885918 32.643842
32.686592 17.899373999999998 15.218513999999999
32.998870999999994 21.022121 11.841569999999999
32.640449000000004 32.686953 24.099417999999996
32.67353 15.013269 35.574144000000004
32.92089 35.659366000000006 20.795723999999996
33.001053999999996 35.96356299999999 14.923694999999999
26.924232 32.921066999999994 29.618123999999998
32.906186 23.637394999999998 32.833783999999994
23.634145 32.892576 32.843462
26.894705 32.603037 35.748059999999995
26.960055999999998 35.932018 15.032798
26.713693 35.925392 20.697202
26.74664 35.937663 26.770687999999996
26.740716 35.78409499999999 32.957498
32.564983999999995 32.904407 35.711366999999996
29.596484999999998 32.718215 32.637682999999996
32.67402 15.026741999999999 12.174935999999999
26.86356 29.673329 26.700712
32.635957 12.132138999999999 15.090933
32.695161 29.864207999999998 32.626407
32.986804 14.877661 17.760334999999998
32.798666 11.846004999999998 20.720674999999996
29.661224999999998 14.786601999999998 20.817249999999998
32.648283 32.825368999999995 29.706865
32.7686 14.779785999999998 23.710472
32.89966 11.820725 26.755385
29.834324 15.120472 26.801736
30.020663 32.682945000000004 26.770236999999998
27.053346 12.117565999999998 26.927425
32.787139999999994 12.13684 32.687416999999996
32.711368 29.946398 27.009846999999997
29.989078 14.917634999999999 32.855435
29.968874999999997 15.039153999999998 14.999413999999998
32.615976 14.927586999999999 29.831131
32.787561999999994 26.888651 35.955104000000006
14.919139999999999 14.773748 30.039854
20.755141 11.872535 14.861396
15.088023999999999 18.141654 26.964062
18.139602999999997 14.830941999999999 14.948683999999998
15.027791999999998 20.724738 23.877776
11.713667 20.92579 21.036151999999998
20.780128 14.954479999999998 18.068566
20.739257 11.916367 20.782845
18.165775999999997 14.946048999999999 20.915356999999997
21.064614 15.122210999999998 23.99449
21.022821999999998 11.884320999999998 26.671307
17.871296 14.754877999999998 26.998769
20.968642 14.960631 30.014872999999998
15.112224 17.766219999999997 20.936017
20.975195 12.109317999999998 32.663326999999995
17.778499 15.101702 32.724160999999995
20.927604999999996 15.1802 35.778456000000006
15.140396999999998 20.975362999999998 17.781715
21.047082 20.795607 12.101467999999999
20.945002 17.966041999999998 14.741813999999998
17.884199 20.803164 15.136077999999998
11.885651999999999 21.068664 14.781861999999999
21.008971999999996 20.753531 18.061328999999997
14.773595999999998 17.788738 14.925120999999999
20.864448 17.963988999999998 20.697452
17.74843 20.817247 21.018013
15.052405999999998 20.743577 11.929129999999999
15.092398999999999 14.888651999999999 35.924357
14.869283999999999 23.692761 20.955035
20.955854 17.928658 26.60057
21.034577 15.036344999999999 12.069548999999999
14.788713999999999 35.789523 32.909043
11.816386999999999 20.809262999999998 26.778624999999998
14.869788999999999 35.951786999999996 26.81323
14.800861 26.942466 18.028222
15.039738 26.708772 24.014450999999998
14.810298999999999 23.666093 26.930164
12.027883999999998 26.756148999999997 27.003348
11.968595999999998 26.915907 14.716880999999999
15.109589 27.014097 29.66191
15.124702 23.911635 32.933008
11.892845 27.022797999999998 32.740877
15.015512999999999 26.817469 35.54157000000001
14.812859999999999 23.872711999999996 14.810856999999999
14.869913999999998 32.624683 11.781092999999998
15.110301 29.682032 15.08312
12.078149999999999 32.825642 15.133963999999999
14.714205 26.910352999999997 12.025329
18.136015999999998 20.824246 26.68144
14.829486999999999 20.829446 35.900283
14.772953 29.872222999999998 20.858718999999997
11.819299999999998 32.655754 20.952972
14.948325999999998 32.783429999999996 23.616685999999998
14.704949999999998 29.943742 26.790564
11.942770999999999 32.590322 26.709708
15.087926 32.652162 29.979117
14.769295999999999 29.81014 32.630371999999994
11.856058999999998 32.929614 32.959922
11.776682 20.77211 32.97918799999999
14.819443999999999 32.614691 35.692426
14.832462 17.764515 32.82434
15.003139 35.918632 15.083006
14.905111999999999 20.996337999999998 29.997927999999998
15.070811999999998 35.906071 21.037029
14.960825999999999 32.529386 18.002855999999998
12.015887999999999 14.767731999999999 32.97822
20.865334999999998 21.113224999999996 24.018320999999997
11.831217999999998 14.855674999999998 20.711502999999997
18.065093 32.934702 14.947655
20.840799999999998 21.033471 29.972936999999998
20.858036 32.652938 17.732651999999998
21.007323 29.993029999999997 20.730791999999997
17.836092999999998 32.765658 20.656283
15.112893999999999 11.952523999999999 21.108227
21.007572999999997 32.624562 24.014560999999997
21.076261 29.825509 26.913558
18.158191 32.682349 26.911953999999998
15.042417999999998 15.116174999999998 17.694063999999997
20.754229999999996 32.797455 29.988401999999997
21.079658 30.029045 32.868815
18.017305999999998 32.590051 32.849771000000004
20.749284 29.89135 14.783252999999998
21.110497999999996 32.60650699999999 35.705219
12.158615 14.737893 15.048423999999999
21.024238999999998 35.651849999999996 20.795562999999998
20.722672 35.818186 26.63419
15.005381999999999 12.007211999999999 14.778581999999998
21.110449 35.62039 32.846776
15.130500999999999 14.799019999999999 12.150104999999998
26.761511 14.794602 12.110807
26.912223 12.122791 15.161057
23.88975 14.807032 15.072332999999999
26.943288 14.806449999999998 24.024188
26.909803 15.126816999999999 17.940689
26.703678999999998 11.865998 20.66515
23.882577 14.991772999999998 20.630374
20.786815 35.779842 14.770041999999998
20.910135999999998 32.93139 11.831017
11.874709999999999 26.725035 20.782372999999996
14.771269999999998 11.959879999999998 26.738716
17.765041999999998 26.760088 14.756459999999999
20.735753 23.80732 14.842187
20.867324 24.088205 20.727749
18.027617 26.899213 21.146984999999997
11.818831 14.899491999999999 26.967415
15.102146999999999 12.121538 32.704333
20.730147 26.748631 23.942885999999998
21.026351 24.048557999999996 27.046615
18.066174 26.69089 26.760488
21.053312 26.749572999999998 17.949310999999998
20.715199 21.030278999999997 35.745479
20.667286999999998 26.712666 29.958069
20.825587 23.727562 32.985432
14.830713999999999 15.099979999999999 23.762024
17.721337 26.720972 32.855956
18.090325 20.879330999999997 32.891774999999996
20.878619999999998 18.059663999999998 32.922031000000004
20.775679 26.633173 35.938187
21.011021 27.060527999999998 11.868165
29.785721 36.86704 36.85327100000001
36.806113999999994 36.749982 29.874181999999998
17.980635 23.906937 10.453218999999999
29.779944 36.761436 10.868980999999998
10.978697999999998 36.850992000000005 23.909724999999998
10.889109999999999 23.825095 36.885096000000004
10.498086999999998 17.828435 23.841430999999996
17.951261 36.754576 10.898622999999999
17.871143999999997 37.295809000000006 29.867338999999998
18.004023 10.496989999999998 29.852748
10.557094999999999 23.822081999999998 17.893846
23.910366 17.982516999999998 10.435282999999998
37.244676999999996 29.897482 23.81301
17.96737 17.982429 10.480955999999999
10.493708999999999 23.895145 29.895384999999997
17.865323 17.948749 37.302333000000004
10.527085999999999 29.888879 23.870665
29.764564 37.216375 23.799107
36.880072 17.957752999999997 10.941363999999998
37.326888 29.838283 29.802602999999998
17.860094999999998 37.185041 23.88018
23.941287 37.280561000000006 23.840743
29.831733 29.804678 10.400462
29.785617 17.848330999999998 37.286573000000004
17.874125999999997 10.475442999999999 23.808764999999998
23.867859999999997 23.919203999999997 37.343343000000004
37.334751 23.86187 29.859683999999998
36.861157000000006 36.847886 23.923970999999998
10.858476 23.928510999999997 10.957711999999999
37.272052 17.98321 17.881563999999997
29.882486999999998 10.538189999999998 29.882934
10.435039999999999 17.931285 29.779483
23.935934 17.960748 37.205040999999994
37.16886100000001 17.942877 23.846867
35.998903 11.892384999999999 30.279577999999997
35.537741999999994 36.05831500000001 17.8845
29.580529 36.069782000000004 30.11179
35.480599999999995 29.751229 35.994046
30.112696999999997 29.762812999999998 17.406156
36.096451 12.420615999999999 18.018826999999998
36.269982 24.030072 12.276209999999999
11.882312999999998 12.479174999999998 17.873236
12.310483999999999 18.011573 17.791355
12.367249 12.256704999999998 29.935561999999997
35.761836 30.305215999999998 17.572114
12.270074 12.263418999999999 23.69857
11.720783999999998 18.158393999999998 35.905996
36.200277 23.611453 35.469879000000006
29.807430999999998 29.690438 24.390154999999996
29.899027 29.289572 35.824997999999994
35.287302 17.620109 29.944587
35.47936 23.725851 24.093763999999997
30.132635 29.423596 30.110504
36.195265000000006 24.239631999999997 18.084327
35.421628 17.609992 36.136495999999994
29.927965 35.444334999999995 17.777796
35.455439999999996 12.240447 24.084870999999996
23.492485 12.125941999999998 23.768698999999998
30.269705 23.896897999999997 35.441631
23.703197999999997 30.136440999999998 30.054945999999997
23.388935 30.000998 23.725808999999998
18.168523999999998 24.028494 17.461705
23.471804 30.046892 17.705402999999997
17.600074 23.781655999999998 23.576086999999998
23.697733 30.025883 12.237744999999999
23.490951 23.729899 30.177557999999998
18.038559 23.681172 36.072537
18.287851999999997 30.021296999999997 11.972286999999998
23.880453 23.56381 23.646713
17.719286999999998 29.966647 17.597554
17.663634 17.661738 29.4851
23.637341 23.567888 18.142787
23.719481 23.537381999999997 11.693397999999998
17.825280999999997 29.516406 29.626476
24.094875 17.428012 29.661129
17.746847 29.646468 35.44608100000001
24.153257999999997 17.888963999999998 24.165147
18.053689 35.547639000000004 18.3488
24.217744999999997 18.171089 17.807841
17.650951 36.138783000000004 35.460915
23.384117999999997 12.135587999999998 12.016511999999999
24.156854999999997 12.337893999999999 35.437082000000004
23.835289 11.630344 18.371689
18.240976999999997 29.828039 24.075442999999996
23.841962999999996 29.530846 35.546741
17.998361 24.296395999999998 30.241815
18.069979999999997 17.817329 24.199014
12.034163 23.924902 23.322092
29.547287999999998 23.503811 29.586551
30.227642 23.464513999999998 24.073052999999998
11.947309999999998 29.390795999999998 12.082944
23.954085 35.999798999999996 12.511050999999998
11.975886999999998 29.564292 17.618495
12.343746999999999 29.996961 30.047514
30.088003999999998 18.342292999999998 29.629068
12.193416 30.131304999999998 35.433978999999994
29.807665 18.167599999999997 23.591562999999997
12.047474 36.255076 17.744297
29.444173 17.597504 18.167886
17.795878 11.725464999999998 12.266392999999999
29.625667999999997 23.56141 18.255055
29.934428999999998 11.523737999999998 35.776739000000006
29.695460999999998 17.578370999999997 11.711424
23.640289999999997 35.979611000000006 30.124026999999998
29.839703999999998 11.523439999999999 12.046242999999999
17.852297999999998 17.681369999999998 18.206974
23.45065 36.022087 35.648426
18.065936999999998 11.546254999999999 36.076757
29.996779 12.215753 23.548568999999997
17.715339 12.295371 17.527053
29.431974 12.178218999999999 17.596377999999998
23.545830999999996 36.141338000000005 17.733544
10.174717999999999 18.746382999999998 29.250684
37.607960000000006 18.695788999999998 18.663895999999998
37.608335 16.8891 18.223696
10.161922999999998 16.946447 29.374769999999998
34.981173999999996 36.067530000000005 24.464057999999998
35.3681 18.862906 17.642542
35.424909 17.221217 17.281002
35.389965000000004 17.659235 18.878677
30.388249 36.010643 12.749863
28.896244 35.629490000000004 12.318881
30.197782 34.863496999999995 11.601857999999998
29.158292 36.49965 10.084276
37.60606800000001 23.68348 28.824773999999998
37.597628 24.848766 30.131718
37.593395 18.149857 16.871169
35.450491 35.611763999999994 22.940834
12.317777999999999 24.653366 29.256722999999997
12.344846999999998 17.140352999999998 30.420574
22.845927999999997 37.599273999999994 23.764709
23.477503 35.413489999999996 22.985859
23.315203999999998 35.359243000000006 24.658891
24.851338 35.422556 23.952233
17.683754999999998 10.158599999999998 24.867853999999998
18.959757999999997 10.167001999999998 23.625345
17.170188 10.177062999999999 23.106938
28.748597999999998 29.766600999999998 10.175901999999999
30.272658999999997 30.712018 10.162743999999998
10.179127 18.036284 30.8294
30.388768 28.936076 10.164157999999999
29.413057 28.964658999999997 12.377605999999998
29.262521999999997 30.621862999999998 12.377069999999998
12.322339 17.797586 28.867275
12.354990999999998 18.773638 30.174865999999998
36.37618500000001 37.709258000000005 23.496692999999997
37.163287 36.975761000000006 24.92155
37.671727000000004 36.436099 23.240469
36.124363 34.867580000000004 24.208831
37.614041 23.085038 30.479488999999997
30.751496 29.915819 12.326778999999998
35.372271 24.072146999999998 30.735612999999997
30.820421 36.915687000000005 10.596543999999998
35.418955999999994 24.572333999999998 29.199002
18.582798 24.566985 12.365979999999999
18.247757 22.990443 12.317089999999999
16.998179999999998 24.024314999999998 12.337578999999998
18.093438 18.895723 35.393428
18.637083 17.335503 35.383523
18.915526 18.288048999999997 37.581063
17.805688 16.875376 37.596543999999994
16.919773999999997 37.581996000000004 29.617307
18.255722 37.60020900000001 30.818918
18.593729 37.564453 29.059517
18.870293 35.424592000000004 29.962729
17.119611 18.592454999999998 37.563997
17.621985 35.392111 28.895477
17.259703 35.397035 30.565246
18.610568999999998 12.374721 24.556979
12.313558999999998 23.931807 30.775328
10.187129999999998 23.046044 30.446042
10.188493999999999 24.823806 30.245848
12.323846999999999 22.977836 29.440026
18.957017999999998 23.655662 10.187318999999999
17.558716999999998 24.840332 10.175992999999998
17.242992 23.11685 10.194814
17.028159 17.604457999999997 35.421088999999995
10.178106 23.804847999999996 28.777113999999997
29.429347999999997 37.738248999999996 11.415568999999998
36.355008 37.770073999999994 30.005715
37.511500999999996 36.575422 30.627454999999998
37.282627000000005 36.86027 28.836102
36.198273 34.867655 29.644700999999998
30.024613 35.374970000000005 24.837229999999998
28.878166 35.387916000000004 23.562285999999997
35.04083 35.934901999999994 29.137286999999997
35.359140999999994 22.981317 29.51317
35.267858000000004 35.733779999999996 30.700248
10.066374999999999 24.300202 36.398360999999994
10.782233999999999 22.854408 37.136594
29.613785 37.608200999999994 22.822368
30.772703 37.601158999999996 24.197799
11.329818999999999 24.469669999999997 37.661474999999996
12.845206999999998 23.480338 36.148036000000005
12.195538999999998 24.805388999999998 35.46768900000001
11.665494999999998 23.355909999999998 34.944925999999995
29.059344 37.543711 24.543893999999998
30.579065 35.380759 23.263265999999998
24.451767 37.600279 22.976912
12.371865 17.694955999999998 22.9372
30.629488 18.399668 35.423711
12.356433999999998 18.836057999999998 24.201873
17.121274999999997 10.163915999999999 29.173513999999997
18.915612 10.179827 29.426077
17.783065999999998 10.120804999999999 30.860654999999998
18.704105 12.316127999999999 30.418425
17.011094999999997 12.333568 30.180324
18.073968999999998 12.360494999999998 28.866052
37.578906 29.129355 23.107243999999998
37.559383 30.804610999999998 23.599066999999998
37.590663000000006 29.581598 24.868705
35.382723999999996 30.499261999999998 24.592992999999996
35.414545000000004 28.912931999999998 24.08719
35.396767 30.108441 22.926479999999998
29.674577 10.176269999999999 28.81309
30.774247 10.185289999999998 30.162141
29.044477 10.189680999999998 30.456546
29.982604 12.349754999999998 30.730998
28.950331 12.366314999999998 29.456115
30.533393999999998 12.350729 29.23642
16.899343 17.949551 10.135288
18.471947999999998 18.838279 10.146525999999998
18.431418999999998 16.981865999999997 10.138220999999998
18.89832 17.937084 12.345790999999998
17.411744 17.136302 12.343153
17.449574 18.714488 12.359433999999998
12.342460999999998 17.172244 24.505692
22.826491 17.718418 10.170677999999999
10.118613999999999 16.913922 23.551422
10.158138 18.166573 24.858265
17.016702 12.356765 24.090138
37.574849 28.814055 29.990721999999998
37.577162 30.192957 28.834204
37.548275000000004 30.438157999999998 30.626198
35.391757 30.738988 29.704825
35.376394000000005 29.439269 30.672258
35.402399 29.262653999999998 29.091282999999997
17.498762 37.59131000000001 22.938356
17.284829 37.596068 24.71727
18.978814 37.566585 23.984351
18.282062 35.433361000000005 24.740627
18.508786999999998 35.408604999999994 23.144569999999998
16.964661999999997 35.35680000000001 23.737556
23.355278 17.028803 37.571034
24.895701 17.987286 37.613521000000006
23.325107 18.772222 37.616039
24.326691999999998 18.790620999999998 35.42707
22.872984999999996 17.893290999999998 35.395168999999996
24.401056 17.142742 35.390423
10.188009 30.629438 23.261017
10.154684 28.836489 23.455997
10.139147 29.949406999999997 24.920014
12.360014 29.089273 24.486192999999997
12.355936999999999 30.737885 24.209808
12.32875 29.702499 22.954165
10.129501999999999 18.663119 23.169061
24.165059 18.872495999999998 10.151413999999999
24.546983 17.1833 10.169298999999999
24.799223 18.114772 12.313642999999999
34.966706 18.565444 11.738256999999999
36.16896 18.222748999999997 12.854492999999998
37.573447 18.894837 23.644972999999997
37.606097000000005 17.623102 24.895746
37.556383 17.176797999999998 23.097777999999998
35.376439000000005 16.955713 24.10851
35.433426 18.179318 22.928957
35.403223 18.558837 24.536769
9.960109999999998 24.030061 11.446003999999999
11.169355999999999 24.674162999999997 10.186886
10.907032999999998 22.909499999999998 10.432877
12.882929999999998 23.690749 11.579234999999999
11.821169999999999 23.115533 12.696375999999999
12.024759 24.738857 12.48998
23.417066 22.892242 37.600781
24.919097999999998 23.946949 37.555182
23.242061 24.693862 37.558988
24.234415 24.749038 35.390456
22.889162 23.756808 35.375383
24.416859999999996 23.087372 35.426857
30.721259 17.414554 37.561606999999995
29.814942 18.985093 37.562298999999996
28.906204 17.443073 37.551700999999994
29.007126 18.454255999999997 35.400959
29.783571 16.939473 35.429424
35.360558 16.977311 12.130156
36.365125000000006 17.626601 9.968409
37.574746000000005 17.203946 11.268992999999998
37.181972 18.902158999999997 10.834214999999999
23.552388999999998 17.020167999999998 12.327354
23.256995999999997 18.654185 12.354265999999999
10.131744999999999 24.584525 18.683355
10.173400999999998 24.179095999999998 16.892832
10.175332 22.832085 18.169223
12.321869 23.179520999999998 17.243302999999997
12.378227999999998 23.595682 18.856008
12.332469999999999 24.78619 17.648972
18.398608999999997 37.665694 11.345709
18.442488 36.459939000000006 10.043384999999999
16.882935 37.055651999999995 10.713085
17.416691999999998 34.896300999999994 11.631244999999998
24.326702 37.603958000000006 24.843951999999998
17.442386 36.117236000000005 12.848372
10.938244 37.320932 24.848035999999997
11.17118 37.504321000000004 23.070306999999996
9.929770999999999 36.315709999999996 23.651583999999996
11.987117 35.288814 22.988165
11.793371999999998 35.076204000000004 24.611216
12.904691999999999 36.179958 24.027328999999998
29.172560999999998 36.450432000000006 37.623222
30.831609 36.933633 37.217652
29.498911999999997 37.728170000000006 36.350671000000006
30.423519 36.012159999999994 35.018118
28.908115 35.652111000000005 35.404883
30.17646 34.85942300000001 36.142928
18.87743 35.528305 12.215271999999999
18.184302 12.316467999999999 22.966129999999996
35.863315 17.896279 17.933484999999997
11.906292999999998 23.835427999999997 29.813547
35.709010000000006 17.869709999999998 12.030605999999999
29.842321 11.917570999999999 29.750404
29.747891 29.767111 11.948815999999999
17.855856 17.889594 12.016386999999998
17.975084 35.711330000000004 29.784164999999998
29.856464 17.979419999999998 35.839281
29.806449999999998 35.695139999999995 35.724683
23.863198999999998 23.791825999999997 35.781912000000005
11.929034999999999 35.805648000000005 23.815644
12.002648999999998 23.806282 17.988927999999998
17.971245 23.829944 11.934408999999999
35.840256 17.913798999999997 23.933221
35.695237000000006 35.69806200000001 29.835849999999997
35.761264 35.805553 23.939811
17.968432999999997 35.854378999999994 11.997803999999999
12.012849 23.936307 35.736898
11.886987 23.825781 11.985107999999999
23.894484 17.937566999999998 12.036556999999998
35.792908 23.930545 29.784568
17.902732999999998 17.870928999999997 35.722493
17.890361 12.064314999999999 29.81804
11.971495999999998 18.024186999999998 23.862348
29.878961 35.849838000000005 23.831008
17.832636 35.74138000000001 23.896834
11.994749999999998 17.988286 29.885717999999997
17.884148 12.037672999999998 23.799933999999997
35.756493000000006 29.874762 23.927243999999998
29.827696999999997 35.685415000000006 11.940105999999998
12.036186999999998 29.814536 23.816249
23.936035999999998 35.792902999999995 23.908572
35.83174700000001 29.879721999999997 29.762891
23.901889 17.996664999999997 35.817161
15.192296999999998 15.071015 14.851036999999998
21.086184999999997 20.856438999999998 20.684268
32.792994 14.811058999999998 14.686905
20.865185 21.010514999999998 14.736434999999998
32.826029 15.147018999999998 21.166973
32.978297999999995 14.791014999999998 26.961989999999997
21.016347999999997 14.831852999999999 33.084449
21.054852 14.949099999999998 26.547659
33.013588999999996 14.925222999999999 32.762405
20.675304999999998 15.0659 20.872730999999998
32.694557 20.652086 15.131728999999998
21.102636999999998 14.740810999999999 15.119297999999999
32.678265999999994 20.623485 20.74106
32.986011 21.074657 26.975661999999996
32.742284999999995 21.188205 32.74878
14.756369999999999 32.710901 32.587766
14.765353 32.627258999999995 26.762435999999997
32.956976 27.032429999999998 14.953603999999999
14.940857999999999 32.753558999999996 20.630608999999996
32.733574 26.665747999999997 21.069544999999998
14.812631 32.944338 15.094351999999999
33.001221 26.877874 27.031533999999997
20.691337 20.694620999999998 26.914261
15.067809999999998 26.950542 32.645225999999994
21.110839 20.934988 33.081703
20.99732 26.669456 14.667879
26.872423 14.947160999999998 32.462683999999996
26.753009 14.654174999999999 21.015666999999997
26.594461999999996 21.039122 15.153514999999999
27.146908 15.126187999999999 14.853706999999998
26.700329 20.7848 20.754623
26.654740999999998 21.104032999999998 26.936597
26.589382999999998 21.022462 32.632776
20.801649 32.695639 33.021574
20.590453 32.891071 26.842761
27.007265999999998 26.740167 15.101080999999999
20.641816 33.008544 20.804565999999998
26.676081 27.064784 20.838309
21.194278 32.884264 14.964623
26.884435999999997 26.616321 26.730898
26.616142 26.627484 32.813066
20.977244 26.99937 33.009327
26.770363999999997 32.965956 14.778870999999999
20.954444999999996 26.706875 27.037311999999996
26.788071 32.757604 20.621090999999996
20.964937 26.901324 21.238677999999997
27.032261 32.863763 27.115317
26.692224999999997 32.601063999999994 32.891622
32.657236 26.784198 32.637269
27.046331 15.094998999999998 26.64668
15.063441 20.898118999999998 26.555792999999998
14.730032999999999 26.938033 26.993788
15.008771 20.830651999999997 32.996033999999995
32.902465 32.833068999999995 26.564767999999997
14.699463999999999 14.942595999999998 26.896565
32.557750999999996 32.991307 15.099072999999999
14.982675999999998 20.827665999999997 15.272479999999998
14.766174999999999 20.630703 20.836153
15.035968999999998 14.631588999999998 32.915251
14.792710999999999 26.969576999999997 14.717835
32.631804 33.060895 20.852482
14.779695999999998 26.952575999999997 20.782594999999997
32.659219 32.681075 32.510768
15.053536999999999 14.679246 20.72682
