1_train/19_cspbbr3_methylammonium_3_0.30\19_cspbbr3_methylammonium_3_0.30.xyz
1.0
41.832315 0 0
0 41.832315 0
0 0 41.832315
Br C Cs H N Pb 
108 14 40 84 14 27 
Cartesian
27.106002500000002 14.9909915 18.0626795
29.7058975 15.1314405 26.8851815
24.075435499999998 14.8308205 15.1003845
26.764920500000002 11.8581425 14.8806155
26.7136785 14.884584499999999 11.7932915
29.9186515 21.0709765 14.7910295
29.6906425 21.0804975 20.8108975
20.9137265 29.6469695 26.9728555
21.069114499999998 29.7826075 20.8001315
21.1431185 29.7849235 15.0394185
23.743039500000002 26.9145945 20.8142265
27.1228035 11.9289425 20.825934500000002
18.0268875 27.1024375 26.7811795
21.042395499999998 24.023073500000002 26.8977505
20.937704500000002 26.6794765 23.8693265
29.9769985 26.8483075 15.0848045
17.742520499999998 26.7375535 21.0994455
20.9821805 23.6636415 20.830437500000002
20.8594045 26.705665500000002 18.0490985
30.0058105 26.7325565 20.844790500000002
29.6566575 27.0797855 26.8941925
17.7860655 26.6978025 14.9174395
21.194961499999998 23.9614795 15.0387755
20.8301255 26.960150499999997 29.9904535
29.6517195 21.059568499999997 26.9854855
29.6036235 15.0086105 20.754374499999997
29.6887935 15.0280115 14.7245675
26.9901855 26.7602105 17.6985375
26.6338795 26.834698500000002 23.776970499999997
23.8213065 27.074996499999997 14.7733665
26.738612500000002 24.0978855 14.966243500000001
26.724289499999998 26.7402965 12.1280075
27.0302145 23.9644905 26.9045375
23.9430925 27.128797499999997 26.9581585
26.9597235 20.7561185 29.9211455
23.698815500000002 20.746156499999998 26.9410275
26.7776755 17.7276125 27.051185500000003
26.6688165 20.7656785 23.745416499999997
26.839043500000002 26.6627635 30.0318555
26.6413075 29.9469855 15.0004215
23.9003825 20.8070575 21.1108585
26.9699175 17.7968765 20.8248955
21.1429715 26.8146255 11.9807925
27.0117805 29.9659435 21.1079495
23.9657725 20.7549505 14.815267500000001
26.7050655 17.8409245 15.0139775
26.772042499999998 21.038044499999998 12.1216465
26.7991055 29.6527925 27.0894025
26.910694499999998 14.8811785 29.6518155
23.6111315 14.9141005 26.8821345
26.8088625 11.871520499999999 26.716911500000002
27.0489475 14.781060499999999 23.7543255
24.0281425 14.8757015 21.074416499999998
26.811218500000003 21.0752065 17.7451595
27.038048500000002 23.800914499999998 21.096953499999998
11.8800125 21.1141245 14.9439835
20.7587345 11.7615485 15.0452855
20.819875500000002 15.1067065 12.0669645
14.8374585 12.1353745 20.7748705
14.839947500000001 29.7246065 26.9868585
14.9186915 20.8773655 18.154335500000002
14.8394025 29.6687845 21.079041500000002
12.0068805 15.1499775 20.7902885
14.8823405 14.7581005 23.7684225
14.7943455 29.9912965 15.1561395
15.1412655 26.9558335 29.9615715
12.1535305 26.9408495 26.923140500000002
14.8769325 11.8776375 26.7435355
14.8786465 23.7063555 26.8564845
14.8613265 26.835330499999998 24.0757415
12.1838805 26.9197055 20.8114425
15.104504500000001 23.8610245 20.6743375
14.9112695 17.7601695 26.8826945
14.780248499999999 26.695434499999998 17.8234555
11.7858235 15.1003075 26.9970195
11.8189535 26.7297355 14.955102499999999
15.038351500000001 24.006631499999997 15.188900499999999
12.0152365 20.8107415 26.588454499999997
14.7785415 27.0595195 11.8707505
18.0175345 15.1634225 14.8143095
15.2355395 14.8785035 29.7941675
14.8155345 20.7598965 23.9364235
20.8721195 12.2273595 21.0039245
20.7508725 20.8381455 29.9286185
17.7789735 21.031226500000002 26.767933499999998
20.6513955 18.0778945 26.8556125
20.9930475 21.0837185 24.0886845
14.7404115 17.7779165 20.9439555
15.0844635 17.8082805 14.8814595
18.0865325 20.8698655 21.0150195
21.121813500000002 17.7660985 21.000283500000002
20.7118145 21.081317499999997 17.9788535
15.1657125 14.8785975 12.1713745
12.2013665 20.861583500000002 20.7340995
17.882309499999998 20.8209565 15.217895500000001
20.857245499999998 17.9231195 15.1952705
21.0859345 20.962577500000002 11.9165175
14.9017965 12.1955555 15.0042045
12.1652065 15.0659735 14.8056425
20.9963445 14.9925325 30.0765595
17.9065455 15.0959175 26.702057500000002
14.8525185 20.7711895 12.0221335
20.817815500000002 12.1810715 26.6714385
14.8825905 14.8694455 17.7665415
20.8582955 15.0980865 23.7251865
17.825919499999998 15.0547445 21.0334935
20.959404499999998 14.7900315 17.9130475
14.7904125 20.9760075 29.9012375
10.9460605 23.925687500000002 10.8624415
23.9585705 10.8878995 30.8770765
30.8937235 17.9720275 10.8469365
23.9648355 10.9357155 10.9058905
31.2431575 23.826724499999997 17.9062105
23.9450315 23.8415155 31.2966095
23.818493500000002 10.5379275 23.9024485
17.8921425 23.820130499999998 31.3704915
17.8863335 10.4815575 23.808856499999997
10.866526499999999 10.9691685 23.8711615
10.9326395 10.8963005 17.9958945
18.0171275 10.8794955 30.9061145
23.829724499999998 31.2775355 17.965950499999998
23.965273500000002 10.4950715 17.9487775
12.0543955 17.5637175 11.9145045
23.9365105 29.5184975 12.2326575
17.6060225 23.8265635 12.2051025
23.6581795 30.2157045 29.8727375
29.4082375 11.7458755 18.0119745
29.6220825 12.3203235 24.1079235
30.1321125 17.6116865 23.7890435
29.4154145 18.0736355 29.5819575
29.9885045 24.1917865 11.8048665
29.3797125 23.8411215 24.106823499999997
30.0256175 30.1341825 18.2160505
30.2072445 29.6356725 23.9719925
24.0676135 30.2609875 23.6991855
29.838116499999998 17.4888425 18.1589225
23.549536500000002 24.0257005 18.2967735
24.0047855 23.8785585 23.3902885
17.9054135 18.2821335 30.0149765
11.5985495 18.0948815 18.214664499999998
18.1985755 18.2667155 23.6914375
18.0785715 23.605292499999997 24.161258500000002
17.6440015 18.2082555 17.7158655
18.3127015 18.1144455 12.0173315
18.2953745 30.1719285 11.9858565
17.9923055 30.1983125 17.8194655
17.8356455 29.5576095 24.1150035
17.5969165 30.2424935 29.8464955
17.9166645 12.1758125 17.6063925
17.7370965 12.4426165 12.1157705
17.5861425 24.2179805 17.682008500000002
12.3556565 29.4915815 18.2111295
23.707372499999998 17.5533385 11.7527145
11.6317045 23.7468845 29.7564775
23.5252975 17.7525305 17.8436035
23.9335925 18.3512265 24.0220855
12.3116475 24.2648535 17.6553215
23.6124105 17.7492045 29.4063185
24.1482145 24.1203835 12.2475155
11.7710635 17.7317415 29.3487145
12.1630995 29.6330205 24.2201485
12.207753499999999 17.9014885 24.1987415
17.2827945 10.151118499999999 24.6994485
24.4970165 12.3692285 17.252688499999998
22.9222645 12.3719885 17.7300535
24.2048845 12.3411995 18.8706355
23.1607555 10.1838535 18.7199545
24.8860745 10.2019705 18.1523855
23.5211115 10.1551465 16.951089500000002
22.9491265 29.4976065 17.7150245
24.189110499999998 29.4327605 18.8598905
12.8456985 23.3260755 11.6802745
11.6345765 23.5007965 12.8895905
10.0833045 24.5096725 11.3277615
10.6898735 22.865063499999998 10.7758135
11.364105499999999 24.3620755 10.0180715
16.9734635 24.3486705 31.6594975
18.0318155 22.8692885 31.6932455
24.795143500000002 11.9848275 29.3027995
12.2855285 24.8652545 12.2258315
24.504368499999998 29.4638545 17.2597855
23.5489335 31.6310475 16.9275745
10.0254215 11.4421705 24.1479405
17.1086855 11.9703965 29.2462015
17.8952795 10.0059155 30.4188975
17.0466275 11.1341865 31.5126915
18.8302115 11.0321715 31.4858115
18.7073545 11.8864655 29.2257805
12.7046895 11.8479375 18.691616500000002
12.4762225 12.0474525 17.0193275
11.5956945 12.9456335 18.0801825
23.1682475 11.8379475 29.1190165
10.2715755 11.181504499999999 17.1712485
11.4223835 9.9588805 17.7449865
23.1671205 31.6620865 18.726833499999998
24.9314655 31.6224985 18.1787585
11.7732545 12.7780845 23.2221435
12.066245499999999 12.4289875 24.794196499999998
12.9156545 11.5812835 23.6049245
11.2610345 10.1987445 24.5977805
10.9312945 10.5161175 22.8747105
10.4498665 11.0053125 18.938177500000002
23.7161765 12.9511115 30.2295205
22.9540295 10.9983015 31.3748605
24.6979855 11.2031955 31.6188895
24.423962500000002 24.762859499999998 31.6560485
24.415273499999998 22.9663285 31.6208285
23.1289315 10.210784499999999 24.5619085
23.6529655 10.1744765 22.9028615
23.9869955 12.9698185 11.5850245
23.032680499999998 11.9417625 12.5617245
24.665563499999998 11.9102255 12.6527135
23.778422499999998 9.9952925 11.4769515
24.847288499999998 10.9980715 10.4321135
23.0006245 11.1168595 10.296350499999999
22.9934675 12.3409085 23.6258635
24.562980500000002 12.3521985 23.2467915
17.0322185 12.3585245 23.7023975
18.2378595 12.3914945 24.783032499999997
18.5709395 12.3853255 23.1296955
18.9307825 10.1767675 24.0688515
17.6013375 10.1867685 22.9440095
22.8777155 23.896420499999998 31.6161545
23.3859265 24.7197475 29.5021245
23.4057845 23.096604499999998 29.4573585
24.873583500000002 23.9064635 29.4455515
24.044262500000002 9.9568675 30.4179355
18.7862655 24.4497505 31.6362215
18.8479905 23.4790155 29.4541235
28.9322315 17.7935835 11.5594445
29.9937215 17.1803135 12.6577515
29.8183785 18.8148515 12.5127775
31.8577365 18.0892115 11.4434205
30.6854985 18.7373825 10.2453155
24.0719875 12.3916845 24.8388755
30.8986245 16.9929435 10.4501215
17.1414355 23.3212345 29.4998525
29.4407795 24.0661725 18.8626075
29.4621365 24.570846500000002 17.314172499999998
29.4900205 22.9870525 17.6619575
31.6285915 23.6658385 16.8994395
31.6602075 23.1418515 18.6687815
31.6435245 24.9109945 18.2614075
24.8970135 10.1618705 24.244902500000002
17.8215385 24.8521215 29.4807965
17.9574765 12.9295765 30.2728645
17.9274035 11.9376125 29.9071485
11.9254255 23.9016615 11.9637825
23.9188865 11.9466165 29.7870235
12.0027945 11.9883585 23.961772500000002
29.8366095 17.8748495 11.9371945
11.9038545 11.9834175 17.9364365
29.9008665 23.911426499999997 17.9797635
23.8498755 23.8697285 29.7777215
23.9675195 12.0428035 12.0241065
18.013952500000002 11.9819775 23.8646685
23.9298935 11.9675065 18.0151275
17.9932535 23.8447325 29.8857965
23.843487500000002 29.8807595 17.9901415
23.9369175 12.0178715 23.8283245
14.9732355 15.1078525 14.7810265
27.0967105 26.6808625 14.8195115
14.8991045 26.620901500000002 14.9460255
15.1211765 26.800334499999998 21.0859735
26.7204755 21.0536295 26.689023499999998
14.8101715 26.7356685 26.975959500000002
26.9868765 21.0372365 20.6490905
27.123959499999998 20.8564205 14.7578815
27.1495045 14.9464665 27.091365500000002
26.8127005 26.621841500000002 20.729944500000002
20.7196505 14.8587345 15.0784415
20.7301005 15.1595865 21.0483075
20.9133235 15.181492500000001 26.6592385
27.055463500000002 15.0221635 15.1246635
20.7426765 21.0672505 15.0169955
21.116870499999997 27.0671205 26.798606499999998
21.1562205 20.893690499999998 20.9093425
20.920050500000002 26.5872405 20.8148475
20.8750325 20.686521499999998 26.719603499999998
26.754403500000002 15.2041805 20.7346805
14.9043495 21.1098745 27.0489875
21.1368315 26.6988245 14.740655499999999
26.591016500000002 26.933186499999998 27.0403905
15.105304499999999 20.6946275 20.754025499999997
14.969583499999999 14.6587475 26.8954785
15.2523955 14.9616645 20.7899065
15.1729465 20.889660499999998 15.1184815
