3_train/214_cspbbr3_MA-TPC_4_0.20\214_cspbbr3_MA-TPC_4_0.20.xyz
1.0
48.324594000000005 0 0
0 48.324594000000005 0
0 0 48.324594000000005
Br C Cs H N O Pb S 
216 137 95 174 17 48 64 24 
Cartesian
15.237297000000002 12.262297000000002 15.237297000000002
12.262297000000002 15.237297000000002 15.237297000000002
15.237297000000002 15.237297000000002 18.212297
15.237297000000002 12.262297000000002 21.187297
12.262297000000002 15.237297000000002 21.187297
15.237297000000002 15.237297000000002 24.162297000000002
15.237297000000002 15.237297000000002 30.112297000000005
15.237297000000002 12.262297000000002 33.087297
12.262297000000002 15.237297000000002 33.087297
15.237297000000002 15.237297000000002 36.062297
15.237297000000002 18.212297 15.237297000000002
12.262297000000002 21.187297 15.237297000000002
15.237297000000002 21.187297 18.212297
15.237297000000002 18.212297 21.187297
12.262297000000002 21.187297 21.187297
15.237297000000002 21.187297 24.162297000000002
15.237297000000002 18.212297 27.137297000000004
15.237297000000002 21.187297 30.112297000000005
15.237297000000002 18.212297 33.087297
12.262297000000002 21.187297 33.087297
15.237297000000002 21.187297 36.062297
15.237297000000002 27.137297000000004 12.262297000000002
15.237297000000002 24.162297000000002 15.237297000000002
12.262297000000002 27.137297000000004 15.237297000000002
15.237297000000002 27.137297000000004 18.212297
15.237297000000002 24.162297000000002 21.187297
15.237297000000002 27.137297000000004 24.162297000000002
15.237297000000002 24.162297000000002 27.137297000000004
12.262297000000002 27.137297000000004 27.137297000000004
15.237297000000002 27.137297000000004 30.112297000000005
15.237297000000002 24.162297000000002 33.087297
15.237297000000002 30.112297000000005 15.237297000000002
12.262297000000002 33.087297 15.237297000000002
15.237297000000002 33.087297 18.212297
15.237297000000002 30.112297000000005 21.187297
12.262297000000002 33.087297 21.187297
15.237297000000002 33.087297 24.162297000000002
15.237297000000002 30.112297000000005 27.137297000000004
12.262297000000002 33.087297 27.137297000000004
15.237297000000002 33.087297 30.112297000000005
15.237297000000002 30.112297000000005 33.087297
12.262297000000002 33.087297 33.087297
15.237297000000002 33.087297 36.062297
15.237297000000002 36.062297 21.187297
15.237297000000002 36.062297 27.137297000000004
15.237297000000002 36.062297 33.087297
21.187297 15.237297000000002 12.262297000000002
18.212297 15.237297000000002 15.237297000000002
21.187297 15.237297000000002 18.212297
21.187297 12.262297000000002 21.187297
18.212297 15.237297000000002 21.187297
21.187297 15.237297000000002 24.162297000000002
21.187297 12.262297000000002 27.137297000000004
18.212297 15.237297000000002 27.137297000000004
21.187297 15.237297000000002 30.112297000000005
21.187297 12.262297000000002 33.087297
18.212297 15.237297000000002 33.087297
21.187297 15.237297000000002 36.062297
21.187297 21.187297 12.262297000000002
21.187297 18.212297 15.237297000000002
18.212297 21.187297 15.237297000000002
21.187297 21.187297 18.212297
21.187297 18.212297 21.187297
18.212297 21.187297 21.187297
21.187297 21.187297 24.162297000000002
21.187297 18.212297 27.137297000000004
18.212297 21.187297 27.137297000000004
21.187297 21.187297 30.112297000000005
21.187297 18.212297 33.087297
18.212297 21.187297 33.087297
21.187297 21.187297 36.062297
21.187297 27.137297000000004 12.262297000000002
21.187297 24.162297000000002 15.237297000000002
18.212297 27.137297000000004 15.237297000000002
21.187297 27.137297000000004 18.212297
21.187297 24.162297000000002 21.187297
18.212297 27.137297000000004 21.187297
21.187297 27.137297000000004 24.162297000000002
21.187297 24.162297000000002 27.137297000000004
18.212297 27.137297000000004 27.137297000000004
21.187297 27.137297000000004 30.112297000000005
21.187297 24.162297000000002 33.087297
18.212297 27.137297000000004 33.087297
21.187297 27.137297000000004 36.062297
21.187297 33.087297 12.262297000000002
21.187297 30.112297000000005 15.237297000000002
18.212297 33.087297 15.237297000000002
21.187297 33.087297 18.212297
21.187297 30.112297000000005 21.187297
18.212297 33.087297 21.187297
21.187297 33.087297 24.162297000000002
21.187297 30.112297000000005 27.137297000000004
18.212297 33.087297 27.137297000000004
21.187297 33.087297 30.112297000000005
21.187297 30.112297000000005 33.087297
18.212297 33.087297 33.087297
21.187297 33.087297 36.062297
21.187297 36.062297 15.237297000000002
21.187297 36.062297 21.187297
21.187297 36.062297 27.137297000000004
21.187297 36.062297 33.087297
27.137297000000004 12.262297000000002 15.237297000000002
24.162297000000002 15.237297000000002 15.237297000000002
27.137297000000004 15.237297000000002 18.212297
27.137297000000004 12.262297000000002 21.187297
24.162297000000002 15.237297000000002 21.187297
27.137297000000004 15.237297000000002 24.162297000000002
27.137297000000004 12.262297000000002 27.137297000000004
24.162297000000002 15.237297000000002 27.137297000000004
27.137297000000004 15.237297000000002 30.112297000000005
27.137297000000004 12.262297000000002 33.087297
24.162297000000002 15.237297000000002 33.087297
27.137297000000004 15.237297000000002 36.062297
27.137297000000004 21.187297 12.262297000000002
27.137297000000004 18.212297 15.237297000000002
24.162297000000002 21.187297 15.237297000000002
27.137297000000004 21.187297 18.212297
27.137297000000004 18.212297 21.187297
24.162297000000002 21.187297 21.187297
27.137297000000004 21.187297 24.162297000000002
27.137297000000004 18.212297 27.137297000000004
24.162297000000002 21.187297 27.137297000000004
27.137297000000004 21.187297 30.112297000000005
27.137297000000004 18.212297 33.087297
24.162297000000002 21.187297 33.087297
27.137297000000004 21.187297 36.062297
27.137297000000004 27.137297000000004 12.262297000000002
27.137297000000004 24.162297000000002 15.237297000000002
24.162297000000002 27.137297000000004 15.237297000000002
27.137297000000004 27.137297000000004 18.212297
27.137297000000004 24.162297000000002 21.187297
24.162297000000002 27.137297000000004 21.187297
27.137297000000004 27.137297000000004 24.162297000000002
27.137297000000004 24.162297000000002 27.137297000000004
24.162297000000002 27.137297000000004 27.137297000000004
27.137297000000004 27.137297000000004 30.112297000000005
27.137297000000004 24.162297000000002 33.087297
24.162297000000002 27.137297000000004 33.087297
27.137297000000004 27.137297000000004 36.062297
27.137297000000004 33.087297 12.262297000000002
27.137297000000004 30.112297000000005 15.237297000000002
24.162297000000002 33.087297 15.237297000000002
27.137297000000004 33.087297 18.212297
27.137297000000004 30.112297000000005 21.187297
24.162297000000002 33.087297 21.187297
27.137297000000004 33.087297 24.162297000000002
27.137297000000004 30.112297000000005 27.137297000000004
24.162297000000002 33.087297 27.137297000000004
27.137297000000004 33.087297 30.112297000000005
27.137297000000004 30.112297000000005 33.087297
24.162297000000002 33.087297 33.087297
27.137297000000004 36.062297 15.237297000000002
27.137297000000004 36.062297 21.187297
27.137297000000004 36.062297 27.137297000000004
27.137297000000004 36.062297 33.087297
33.087297 15.237297000000002 12.262297000000002
33.087297 12.262297000000002 15.237297000000002
30.112297000000005 15.237297000000002 15.237297000000002
33.087297 15.237297000000002 18.212297
30.112297000000005 15.237297000000002 21.187297
33.087297 15.237297000000002 24.162297000000002
33.087297 12.262297000000002 27.137297000000004
30.112297000000005 15.237297000000002 27.137297000000004
33.087297 15.237297000000002 30.112297000000005
30.112297000000005 15.237297000000002 33.087297
33.087297 15.237297000000002 36.062297
33.087297 21.187297 12.262297000000002
33.087297 18.212297 15.237297000000002
30.112297000000005 21.187297 15.237297000000002
33.087297 21.187297 18.212297
33.087297 18.212297 21.187297
30.112297000000005 21.187297 21.187297
33.087297 21.187297 24.162297000000002
33.087297 18.212297 27.137297000000004
30.112297000000005 21.187297 27.137297000000004
33.087297 21.187297 30.112297000000005
33.087297 18.212297 33.087297
30.112297000000005 21.187297 33.087297
33.087297 27.137297000000004 12.262297000000002
33.087297 24.162297000000002 15.237297000000002
30.112297000000005 27.137297000000004 15.237297000000002
33.087297 27.137297000000004 18.212297
33.087297 24.162297000000002 21.187297
30.112297000000005 27.137297000000004 21.187297
33.087297 27.137297000000004 24.162297000000002
33.087297 24.162297000000002 27.137297000000004
30.112297000000005 27.137297000000004 27.137297000000004
33.087297 27.137297000000004 30.112297000000005
33.087297 24.162297000000002 33.087297
30.112297000000005 27.137297000000004 33.087297
33.087297 27.137297000000004 36.062297
33.087297 33.087297 12.262297000000002
33.087297 30.112297000000005 15.237297000000002
30.112297000000005 33.087297 15.237297000000002
33.087297 33.087297 18.212297
33.087297 30.112297000000005 21.187297
30.112297000000005 33.087297 21.187297
33.087297 33.087297 24.162297000000002
33.087297 30.112297000000005 27.137297000000004
30.112297000000005 33.087297 27.137297000000004
33.087297 33.087297 30.112297000000005
33.087297 30.112297000000005 33.087297
30.112297000000005 33.087297 33.087297
33.087297 36.062297 21.187297
36.062297 15.237297000000002 21.187297
36.062297 15.237297000000002 33.087297
36.062297 21.187297 15.237297000000002
36.062297 21.187297 21.187297
36.062297 21.187297 27.137297000000004
36.062297 21.187297 33.087297
36.062297 27.137297000000004 15.237297000000002
36.062297 27.137297000000004 33.087297
36.062297 33.087297 15.237297000000002
36.062297 33.087297 21.187297
36.062297 33.087297 27.137297000000004
36.062297 33.087297 33.087297
32.661109 32.490365000000004 39.71858400000001
32.450804000000005 32.187053 38.354884000000006
33.087297 33.087297 37.5129
33.450746 33.610404 39.889759000000005
33.087297 33.087297 36.062297
32.355189 21.142780000000002 39.71858400000001
31.987125 21.115304000000002 38.354884000000006
33.087297 21.187297 37.5129
33.722550000000005 21.234103000000005 39.889759000000005
33.087297 21.187297 36.062297
26.952361000000003 33.797059000000004 39.71858400000001
26.854386000000005 34.152906 38.354884000000006
27.137297000000004 33.087297 37.5129
27.305791000000006 32.473012000000004 39.889759000000005
27.137297000000004 33.087297 36.062297
15.705974000000003 27.701483000000003 39.71858400000001
15.937885000000001 27.988613 38.354884000000006
15.237297000000002 27.137297000000004 37.5129
14.836586000000002 26.642153 39.889759000000005
15.237297000000002 27.137297000000004 36.062297
26.42002 15.390520000000002 8.606010000000001
26.060172 15.472591000000003 9.969710000000003
27.137297000000004 15.237297000000002 10.811694000000003
27.758461000000004 15.096258000000002 8.434835000000001
27.137297000000004 15.237297000000002 12.262297000000002
14.732557000000002 32.555131 8.606010000000001
14.474898000000001 32.290862000000004 9.969710000000003
15.237297000000002 33.087297 10.811694000000003
15.681526000000002 33.543802 8.434835000000001
15.237297000000002 33.087297 12.262297000000002
15.805022000000003 20.722914000000003 8.606010000000001
16.087463 20.485315 9.969710000000003
15.237297000000002 21.187297 10.811694000000003
14.749464000000001 21.596876 8.434835000000001
15.237297000000002 21.187297 12.262297000000002
15.707360000000003 15.800328000000002 8.606010000000001
15.947785000000001 16.080368 9.969710000000003
15.237297000000002 15.237297000000002 10.811694000000003
14.822837000000002 14.753603000000002 8.434835000000001
15.237297000000002 15.237297000000002 12.262297000000002
8.606010000000001 27.824586000000004 21.443416000000006
9.969710000000003 28.172184 21.567521000000006
10.811694000000003 27.137297000000004 21.187297
8.434835000000001 26.537618000000002 20.972537000000003
12.262297000000002 27.137297000000004 21.187297
8.606010000000001 15.832456000000002 27.565957000000004
9.969710000000003 16.134893 27.777519000000005
10.811694000000003 15.237297000000002 27.137297000000004
8.434835000000001 14.715702000000002 26.771681
12.262297000000002 15.237297000000002 27.137297000000004
8.606010000000001 21.408313 27.836665000000004
9.969710000000003 21.524371000000002 28.187032000000002
10.811694000000003 21.187297 27.137297000000004
8.434835000000001 20.987587000000005 26.53244
12.262297000000002 21.187297 27.137297000000004
8.606010000000001 26.946097 33.795397
9.969710000000003 26.854801000000002 34.153016
10.811694000000003 27.137297000000004 33.087297
8.434835000000001 27.295450000000002 32.470269
12.262297000000002 27.137297000000004 33.087297
39.71858400000001 27.867901000000003 27.072636000000003
38.354884000000006 28.235966000000005 27.045166000000002
37.5129 27.137297000000004 27.137297000000004
39.889759000000005 26.502135000000003 27.185316
36.062297 27.137297000000004 27.137297000000004
39.71858400000001 15.394491000000002 14.520880000000002
38.354884000000006 15.478554000000003 14.161492000000003
37.5129 15.237297000000002 15.237297000000002
39.889759000000005 15.092819000000002 15.857670000000002
36.062297 15.237297000000002 15.237297000000002
39.71858400000001 14.797772000000002 27.724478000000005
38.354884000000006 14.572546000000003 28.01688
37.5129 15.237297000000002 27.137297000000004
39.889759000000005 15.625507000000002 26.632292
36.062297 15.237297000000002 27.137297000000004
39.71858400000001 27.810004000000006 21.479580000000006
38.354884000000006 28.146461000000002 21.631312
37.5129 27.137297000000004 21.187297
39.889759000000005 26.556385000000006 20.925997000000002
36.062297 27.137297000000004 21.187297
32.372407 8.606010000000001 33.251295
32.01156 9.969710000000003 33.328856
33.087297 10.811694000000003 33.087297
33.709919 8.434835000000001 32.952841
33.087297 12.262297000000002 33.087297
15.093166000000002 8.606010000000001 27.856456
15.015658000000002 9.969710000000003 28.217314000000002
15.237297000000002 10.811694000000003 27.137297000000004
15.370461000000002 8.434835000000001 26.514397000000002
15.237297000000002 12.262297000000002 27.137297000000004
32.948459 8.606010000000001 21.907497000000006
32.873607 9.969710000000003 22.268915
33.087297 10.811694000000003 21.187297
33.215876 8.434835000000001 20.563435000000002
33.087297 12.262297000000002 21.187297
20.512787000000003 8.606010000000001 15.525393000000003
20.171397 9.969710000000003 15.665677000000002
21.187297 10.811694000000003 15.237297000000002
21.776235 8.434835000000001 14.994627000000003
21.187297 12.262297000000002 15.237297000000002
33.230421 39.71858400000001 27.856657000000006
33.307424000000005 38.354884000000006 28.217624
33.087297 37.5129 27.137297000000004
32.955005 39.889759000000005 26.514212
33.087297 36.062297 27.137297000000004
14.513624000000002 39.71858400000001 15.356717000000002
14.150324000000001 38.354884000000006 15.421824000000003
15.237297000000002 37.5129 15.237297000000002
15.864391000000003 39.889759000000005 15.125541000000002
15.237297000000002 36.062297 15.237297000000002
32.390647 39.71858400000001 32.857859000000005
32.038524 38.354884000000006 32.747244
33.087297 37.5129 33.087297
33.694808 39.889759000000005 33.278783000000004
33.087297 36.062297 33.087297
32.461896 39.71858400000001 15.620490000000002
32.149871000000005 38.354884000000006 15.817637000000003
33.087297 37.5129 15.237297000000002
33.626118000000005 39.889759000000005 14.897579000000002
33.087297 36.062297 15.237297000000002
11.218847000000002 11.218847000000002 18.212297
37.537958 24.162297000000002 24.162297000000002
30.112297000000005 30.112297000000005 37.537958
24.162297000000002 37.537958 18.212297
11.218847000000002 30.112297000000005 37.10574700000001
24.162297000000002 10.786636000000001 18.212297
24.162297000000002 30.112297000000005 37.537958
37.537958 24.162297000000002 18.212297
37.10574700000001 18.212297 37.10574700000001
37.10574700000001 37.10574700000001 24.162297000000002
18.212297 24.162297000000002 37.537958
30.112297000000005 11.218847000000002 11.218847000000002
11.218847000000002 37.10574700000001 30.112297000000005
30.112297000000005 37.10574700000001 37.10574700000001
10.786636000000001 30.112297000000005 24.162297000000002
11.218847000000002 24.162297000000002 37.10574700000001
24.162297000000002 37.537958 30.112297000000005
12.262297000000002 12.262297000000002 24.162297000000002
12.262297000000002 12.262297000000002 30.112297000000005
12.262297000000002 18.212297 12.262297000000002
12.262297000000002 18.212297 18.212297
12.262297000000002 18.212297 24.162297000000002
12.262297000000002 18.212297 30.112297000000005
12.262297000000002 18.212297 36.062297
12.262297000000002 24.162297000000002 12.262297000000002
12.262297000000002 24.162297000000002 18.212297
12.262297000000002 24.162297000000002 24.162297000000002
12.262297000000002 24.162297000000002 30.112297000000005
12.262297000000002 30.112297000000005 12.262297000000002
12.262297000000002 30.112297000000005 18.212297
12.262297000000002 36.062297 18.212297
12.262297000000002 36.062297 24.162297000000002
18.212297 12.262297000000002 12.262297000000002
18.212297 12.262297000000002 24.162297000000002
18.212297 12.262297000000002 30.112297000000005
18.212297 12.262297000000002 36.062297
18.212297 18.212297 12.262297000000002
18.212297 18.212297 18.212297
18.212297 18.212297 24.162297000000002
18.212297 18.212297 30.112297000000005
18.212297 18.212297 36.062297
18.212297 24.162297000000002 12.262297000000002
18.212297 24.162297000000002 18.212297
18.212297 24.162297000000002 24.162297000000002
18.212297 24.162297000000002 30.112297000000005
18.212297 30.112297000000005 12.262297000000002
18.212297 30.112297000000005 18.212297
18.212297 30.112297000000005 24.162297000000002
18.212297 30.112297000000005 30.112297000000005
18.212297 30.112297000000005 36.062297
18.212297 36.062297 12.262297000000002
18.212297 36.062297 18.212297
18.212297 36.062297 24.162297000000002
18.212297 36.062297 30.112297000000005
18.212297 36.062297 36.062297
24.162297000000002 12.262297000000002 12.262297000000002
24.162297000000002 12.262297000000002 24.162297000000002
24.162297000000002 12.262297000000002 30.112297000000005
24.162297000000002 18.212297 12.262297000000002
24.162297000000002 18.212297 18.212297
24.162297000000002 18.212297 24.162297000000002
24.162297000000002 18.212297 30.112297000000005
24.162297000000002 18.212297 36.062297
24.162297000000002 24.162297000000002 12.262297000000002
24.162297000000002 24.162297000000002 18.212297
24.162297000000002 24.162297000000002 24.162297000000002
24.162297000000002 24.162297000000002 30.112297000000005
24.162297000000002 24.162297000000002 36.062297
24.162297000000002 30.112297000000005 12.262297000000002
24.162297000000002 30.112297000000005 18.212297
24.162297000000002 30.112297000000005 24.162297000000002
24.162297000000002 30.112297000000005 30.112297000000005
24.162297000000002 36.062297 12.262297000000002
24.162297000000002 36.062297 24.162297000000002
24.162297000000002 36.062297 36.062297
30.112297000000005 12.262297000000002 18.212297
30.112297000000005 12.262297000000002 24.162297000000002
30.112297000000005 12.262297000000002 30.112297000000005
30.112297000000005 12.262297000000002 36.062297
30.112297000000005 18.212297 12.262297000000002
30.112297000000005 18.212297 18.212297
30.112297000000005 18.212297 24.162297000000002
30.112297000000005 18.212297 30.112297000000005
30.112297000000005 18.212297 36.062297
30.112297000000005 24.162297000000002 12.262297000000002
30.112297000000005 24.162297000000002 18.212297
30.112297000000005 24.162297000000002 24.162297000000002
30.112297000000005 24.162297000000002 30.112297000000005
30.112297000000005 24.162297000000002 36.062297
30.112297000000005 30.112297000000005 12.262297000000002
30.112297000000005 30.112297000000005 18.212297
30.112297000000005 30.112297000000005 24.162297000000002
30.112297000000005 30.112297000000005 30.112297000000005
30.112297000000005 36.062297 18.212297
30.112297000000005 36.062297 24.162297000000002
30.112297000000005 36.062297 30.112297000000005
36.062297 12.262297000000002 18.212297
36.062297 12.262297000000002 24.162297000000002
36.062297 12.262297000000002 30.112297000000005
36.062297 18.212297 12.262297000000002
36.062297 18.212297 18.212297
36.062297 18.212297 30.112297000000005
36.062297 24.162297000000002 12.262297000000002
36.062297 24.162297000000002 30.112297000000005
36.062297 24.162297000000002 36.062297
36.062297 30.112297000000005 12.262297000000002
36.062297 30.112297000000005 18.212297
36.062297 30.112297000000005 24.162297000000002
36.062297 30.112297000000005 30.112297000000005
36.062297 30.112297000000005 36.062297
36.062297 36.062297 18.212297
36.062297 36.062297 30.112297000000005
33.770672000000005 34.065576 40.824594000000005
32.250691 31.913573 40.546312
31.860300000000002 31.349386000000003 37.984476
34.277617 21.271973000000003 40.824594000000005
31.648657 21.098684000000006 40.546312
30.964525000000002 21.046959 37.984476
27.450045000000003 31.935681000000002 40.824594000000005
26.772773 34.481808 40.546312
26.590022000000005 35.143105 37.984476
14.484249000000002 26.211582 40.824594000000005
16.157451000000002 28.246736000000006 40.546312
16.588034 28.780881 37.984476
28.301669000000004 14.976015000000002 7.500000000000002
25.727970000000006 15.539513000000001 7.778282000000002
25.059207 15.692707000000002 10.340118000000002
16.067363 33.944630000000004 7.500000000000002
14.244580000000003 32.042285 7.778282000000002
13.765160000000002 31.551501000000002 10.340118000000002
14.321437000000001 21.952301000000006 7.500000000000002
16.352251000000003 20.273834 7.778282000000002
16.876850000000005 19.831671 10.340118000000002
14.463130000000001 14.329169000000002 7.500000000000002
16.161916 16.343018 7.778282000000002
16.609327 16.863148000000002 10.340118000000002
7.500000000000002 26.014862 20.782118000000004
7.778282000000002 28.488326 21.689551
10.340118000000002 29.134681 21.919631000000003
7.500000000000002 14.261861000000001 26.449870000000004
7.778282000000002 16.407541000000002 27.978765000000003
10.340118000000002 16.970104 28.371493
7.500000000000002 20.816023 26.003195000000005
7.778282000000002 21.622709 28.511326000000004
10.340118000000002 21.839064 29.162404000000002
7.500000000000002 27.436510000000006 31.932090000000002
7.778282000000002 26.762652000000003 34.479123
10.340118000000002 26.593578 35.144049
40.824594000000005 25.947597000000002 27.230269
40.546312 28.573151000000003 27.011355000000002
37.984476 29.257381000000002 26.960944000000005
40.824594000000005 14.969570000000003 16.400204000000002
40.546312 15.547314000000002 13.829665000000002
37.984476 15.704211000000003 13.161761000000002
40.824594000000005 15.962185000000002 26.189369000000006
40.546312 14.372654000000002 28.290523
37.984476 13.953472000000001 28.833661
40.824594000000005 26.047763000000003 20.700525000000003
40.546312 28.458822000000005 21.762718
37.984476 29.083982 22.045362000000004
34.253095 7.500000000000002 32.832452
31.68217 7.778282000000002 33.408476
31.011268 10.340118000000002 33.552014
15.483817000000002 7.500000000000002 25.969710000000006
14.952947000000002 7.778282000000002 28.550337
14.808231000000001 10.340118000000002 29.220986000000003
33.325223 7.500000000000002 20.017929000000002
32.813347 7.778282000000002 22.60239
32.673567 10.340118000000002 23.274085
22.289477000000005 7.500000000000002 14.779881000000001
19.861332000000004 7.778282000000002 15.802411000000001
19.226487000000002 10.340118000000002 16.062575000000002
32.842412 40.824594000000005 25.969366
33.369668000000004 40.546312 28.550734
33.513445000000004 37.984476 29.221585000000005
16.412640000000003 40.824594000000005 15.030902000000003
13.815348000000002 40.546312 15.473094000000001
13.140138000000002 37.984476 15.594760000000003
34.224515000000004 40.824594000000005 33.448911
31.717913000000003 40.546312 32.63749
31.06317 37.984476 32.432494000000005
34.098349 40.824594000000005 14.603416000000001
31.858875000000005 40.546312 15.991298000000002
31.279213 37.984476 16.358318000000004
11.246584000000002 10.718875000000002 19.182290000000002
10.256805000000002 11.708654000000003 18.050455
11.444799000000003 10.520659000000002 17.404146000000004
12.284110000000002 12.770449000000003 17.318346000000002
13.196295000000003 11.858264000000002 18.361452
12.101434000000001 12.953126000000003 18.957093
37.87187900000001 23.689886 23.236580000000004
37.87187900000001 25.200197000000003 24.216036000000003
37.87187900000001 23.596808000000003 25.034275
35.687555 24.597673 25.015443000000005
35.687555 23.205763000000005 24.112771000000002
35.687555 24.683455000000002 23.358677
29.827373 29.112825 37.87187900000001
31.120327000000003 30.365282 37.87187900000001
29.389191000000004 30.858784 37.87187900000001
30.374884 31.033415000000005 35.687555
29.183292 29.879145 35.687555
30.778715000000005 29.424331000000002 35.687555
23.184248000000004 37.87187900000001 18.563787000000005
24.955721000000004 37.87187900000001 18.883567
24.346922000000006 37.87187900000001 17.189537
25.063672000000004 35.687555 17.888361000000003
23.431073000000005 35.687555 17.593651
23.992146000000005 35.687555 19.154878000000004
11.505497000000002 29.38185 37.864632
11.168652000000002 31.117777000000004 37.527787000000004
10.274040000000003 29.837264000000005 36.633175
12.045494000000001 30.785481000000004 35.315529000000005
12.355933000000002 29.185641000000004 35.625968
13.180412000000002 30.365769 36.450446
23.255179000000005 10.452715000000001 17.705087
25.055113000000006 10.452715000000001 17.680315
24.176599000000003 10.452715000000001 19.251489
24.998301000000005 12.637039000000001 18.679745000000004
23.339473000000005 12.637039000000001 18.702574000000002
24.149116 12.637039000000001 17.254572000000003
23.125094000000004 30.178133000000003 37.87187900000001
24.623883000000006 29.181135000000005 37.87187900000001
24.737914000000004 30.977623 37.87187900000001
25.118189 30.051623 35.687555
23.736897000000006 30.970461 35.687555
23.631806000000005 29.314807000000002 35.687555
37.87187900000001 25.057941 17.685090000000002
37.87187900000001 24.17105 19.251551
37.87187900000001 23.257901000000004 17.700250000000004
35.687555 23.336867000000005 18.698173000000004
35.687555 24.154231000000003 17.254515000000005
35.687555 24.995793000000006 18.684202
38.017405000000004 18.62146 36.666324
36.753534 18.835080000000005 37.930195000000005
37.254655 17.180350000000004 37.429074
35.174733 17.835210000000004 36.419896
36.339523 17.638337 35.255105
35.877687 19.163344000000002 35.716941
37.908383 36.775346 23.500301
36.653217000000005 38.030512 23.799454000000004
37.463994 37.219736000000005 25.187135000000005
35.275208 36.319421000000006 24.772396
36.431975 35.162653 24.496694000000005
35.684759 35.909869 23.217801
17.805334000000002 23.205999000000006 37.87187900000001
19.243957 24.288005000000005 37.87187900000001
17.587600000000002 24.992886000000006 37.87187900000001
18.587356 25.043626000000003 35.687555
17.261514000000002 24.046443000000004 35.687555
18.788021 23.396822 35.687555
29.19388 11.326702000000001 10.638757000000002
30.992784 11.373157000000003 10.592302000000002
30.150227 10.248330000000003 11.717129000000002
30.958715000000005 12.210272000000002 12.844287000000001
29.300835 12.167460000000002 12.887099000000003
30.077341000000004 13.204106000000001 11.850453000000002
10.799668000000002 37.158803000000006 31.118827000000003
11.690631000000002 38.049766000000005 29.833235000000002
10.457889000000002 36.817024 29.384829000000003
12.695989 35.966024000000004 29.184674
11.874874000000002 35.144908 30.369482000000005
13.010976000000001 36.28101 30.782735000000002
29.443098 37.90413600000001 36.779594
29.758258000000005 36.65093 38.032799000000004
31.135535000000004 37.470528 37.213201000000005
30.729035000000003 35.279123 36.315506
30.438581 36.434083 35.160545
29.169276000000004 35.678737000000005 35.915892
10.452715000000001 30.46374 25.140363
10.452715000000001 30.783605 23.368905000000005
10.452715000000001 29.089546 23.977623
12.637039000000001 29.788405000000004 23.260907000000003
12.637039000000001 29.493616000000003 24.893491000000004
12.637039000000001 31.05487 24.332493
10.852640000000001 25.185175 37.211776
10.421392 23.491532 36.780527000000006
11.674156000000002 23.810184 38.033291000000006
12.647171000000002 23.219608 35.917205
13.044611000000002 24.780477000000005 36.314646
11.890057000000002 24.486806 35.160092
23.123097 37.87187900000001 30.126038
24.693797000000004 37.87187900000001 31.0054
24.669997000000002 37.87187900000001 29.205453
25.120029000000002 35.687555 30.099633000000004
23.672464000000005 35.687555 29.289209
23.694399000000004 35.687555 30.948049000000005
12.262297000000002 12.262297000000002 18.212297
36.062297 24.162297000000002 24.162297000000002
30.112297000000005 30.112297000000005 36.062297
24.162297000000002 36.062297 18.212297
12.262297000000002 30.112297000000005 36.062297
24.162297000000002 12.262297000000002 18.212297
24.162297000000002 30.112297000000005 36.062297
36.062297 24.162297000000002 18.212297
36.062297 18.212297 36.062297
36.062297 36.062297 24.162297000000002
18.212297 24.162297000000002 36.062297
30.112297000000005 12.262297000000002 12.262297000000002
12.262297000000002 36.062297 30.112297000000005