3_train/188_cspbbr3_MA-PhP_4_0.40\188_cspbbr3_MA-PhP_4_0.40.xyz
1.0
50.165118 0 0
0 50.165118 0
0 0 50.165118
Br C Cs H N O P Pb 
198 290 74 480 38 126 42 64 
Cartesian
16.157559 16.157559 13.182559
16.157559 13.182559 16.157559
16.157559 16.157559 19.132559
16.157559 16.157559 25.082558999999996
13.182559 16.157559 28.057558999999998
16.157559 16.157559 31.032559
16.157559 16.157559 36.982559
16.157559 22.107559000000002 13.182559
16.157559 19.132559 16.157559
13.182559 22.107559000000002 16.157559
16.157559 22.107559000000002 19.132559
16.157559 19.132559 22.107559000000002
13.182559 22.107559000000002 22.107559000000002
16.157559 22.107559000000002 25.082558999999996
16.157559 19.132559 28.057558999999998
16.157559 22.107559000000002 31.032559
16.157559 19.132559 34.007559
16.157559 22.107559000000002 36.982559
16.157559 28.057558999999998 13.182559
16.157559 25.082558999999996 16.157559
13.182559 28.057558999999998 16.157559
16.157559 28.057558999999998 19.132559
16.157559 25.082558999999996 22.107559000000002
13.182559 28.057558999999998 22.107559000000002
16.157559 28.057558999999998 25.082558999999996
16.157559 25.082558999999996 28.057558999999998
13.182559 28.057558999999998 28.057558999999998
16.157559 28.057558999999998 31.032559
16.157559 25.082558999999996 34.007559
13.182559 28.057558999999998 34.007559
16.157559 28.057558999999998 36.982559
16.157559 34.007559 13.182559
16.157559 31.032559 16.157559
16.157559 34.007559 19.132559
16.157559 31.032559 22.107559000000002
13.182559 34.007559 22.107559000000002
16.157559 34.007559 25.082558999999996
16.157559 31.032559 28.057558999999998
13.182559 34.007559 28.057558999999998
16.157559 34.007559 31.032559
16.157559 31.032559 34.007559
16.157559 36.982559 16.157559
16.157559 36.982559 22.107559000000002
16.157559 36.982559 34.007559
22.107559000000002 16.157559 13.182559
22.107559000000002 13.182559 16.157559
19.132559 16.157559 16.157559
22.107559000000002 16.157559 19.132559
19.132559 16.157559 22.107559000000002
22.107559000000002 16.157559 25.082558999999996
22.107559000000002 13.182559 28.057558999999998
19.132559 16.157559 28.057558999999998
22.107559000000002 16.157559 31.032559
22.107559000000002 13.182559 34.007559
19.132559 16.157559 34.007559
22.107559000000002 19.132559 16.157559
19.132559 22.107559000000002 16.157559
22.107559000000002 22.107559000000002 19.132559
22.107559000000002 19.132559 22.107559000000002
19.132559 22.107559000000002 22.107559000000002
22.107559000000002 22.107559000000002 25.082558999999996
22.107559000000002 19.132559 28.057558999999998
19.132559 22.107559000000002 28.057558999999998
22.107559000000002 22.107559000000002 31.032559
22.107559000000002 19.132559 34.007559
19.132559 22.107559000000002 34.007559
22.107559000000002 25.082558999999996 16.157559
19.132559 28.057558999999998 16.157559
22.107559000000002 28.057558999999998 19.132559
22.107559000000002 25.082558999999996 22.107559000000002
19.132559 28.057558999999998 22.107559000000002
22.107559000000002 28.057558999999998 25.082558999999996
22.107559000000002 25.082558999999996 28.057558999999998
19.132559 28.057558999999998 28.057558999999998
22.107559000000002 28.057558999999998 31.032559
22.107559000000002 25.082558999999996 34.007559
19.132559 28.057558999999998 34.007559
22.107559000000002 28.057558999999998 36.982559
22.107559000000002 31.032559 16.157559
19.132559 34.007559 16.157559
22.107559000000002 34.007559 19.132559
22.107559000000002 31.032559 22.107559000000002
19.132559 34.007559 22.107559000000002
22.107559000000002 34.007559 25.082558999999996
22.107559000000002 31.032559 28.057558999999998
19.132559 34.007559 28.057558999999998
22.107559000000002 34.007559 31.032559
22.107559000000002 31.032559 34.007559
19.132559 34.007559 34.007559
22.107559000000002 34.007559 36.982559
22.107559000000002 36.982559 22.107559000000002
22.107559000000002 36.982559 28.057558999999998
28.057558999999998 13.182559 16.157559
25.082558999999996 16.157559 16.157559
28.057558999999998 16.157559 19.132559
28.057558999999998 13.182559 22.107559000000002
25.082558999999996 16.157559 22.107559000000002
28.057558999999998 16.157559 25.082558999999996
25.082558999999996 16.157559 28.057558999999998
28.057558999999998 16.157559 31.032559
25.082558999999996 16.157559 34.007559
28.057558999999998 16.157559 36.982559
28.057558999999998 22.107559000000002 13.182559
28.057558999999998 19.132559 16.157559
25.082558999999996 22.107559000000002 16.157559
28.057558999999998 22.107559000000002 19.132559
28.057558999999998 19.132559 22.107559000000002
25.082558999999996 22.107559000000002 22.107559000000002
28.057558999999998 22.107559000000002 25.082558999999996
28.057558999999998 19.132559 28.057558999999998
25.082558999999996 22.107559000000002 28.057558999999998
28.057558999999998 22.107559000000002 31.032559
28.057558999999998 19.132559 34.007559
25.082558999999996 22.107559000000002 34.007559
28.057558999999998 28.057558999999998 13.182559
28.057558999999998 25.082558999999996 16.157559
25.082558999999996 28.057558999999998 16.157559
28.057558999999998 28.057558999999998 19.132559
28.057558999999998 25.082558999999996 22.107559000000002
25.082558999999996 28.057558999999998 22.107559000000002
28.057558999999998 28.057558999999998 25.082558999999996
28.057558999999998 25.082558999999996 28.057558999999998
25.082558999999996 28.057558999999998 28.057558999999998
28.057558999999998 28.057558999999998 31.032559
28.057558999999998 25.082558999999996 34.007559
25.082558999999996 28.057558999999998 34.007559
28.057558999999998 28.057558999999998 36.982559
28.057558999999998 31.032559 16.157559
25.082558999999996 34.007559 16.157559
28.057558999999998 34.007559 19.132559
28.057558999999998 31.032559 22.107559000000002
25.082558999999996 34.007559 22.107559000000002
28.057558999999998 34.007559 25.082558999999996
28.057558999999998 31.032559 28.057558999999998
25.082558999999996 34.007559 28.057558999999998
28.057558999999998 34.007559 31.032559
28.057558999999998 31.032559 34.007559
25.082558999999996 34.007559 34.007559
28.057558999999998 36.982559 16.157559
28.057558999999998 36.982559 22.107559000000002
34.007559 13.182559 16.157559
31.032559 16.157559 16.157559
34.007559 16.157559 19.132559
34.007559 13.182559 22.107559000000002
31.032559 16.157559 22.107559000000002
34.007559 16.157559 25.082558999999996
34.007559 13.182559 28.057558999999998
31.032559 16.157559 28.057558999999998
34.007559 16.157559 31.032559
31.032559 16.157559 34.007559
34.007559 16.157559 36.982559
34.007559 19.132559 16.157559
31.032559 22.107559000000002 16.157559
34.007559 22.107559000000002 19.132559
34.007559 19.132559 22.107559000000002
31.032559 22.107559000000002 22.107559000000002
34.007559 22.107559000000002 25.082558999999996
34.007559 19.132559 28.057558999999998
31.032559 22.107559000000002 28.057558999999998
34.007559 22.107559000000002 31.032559
34.007559 19.132559 34.007559
31.032559 22.107559000000002 34.007559
34.007559 28.057558999999998 13.182559
34.007559 25.082558999999996 16.157559
31.032559 28.057558999999998 16.157559
34.007559 28.057558999999998 19.132559
34.007559 25.082558999999996 22.107559000000002
31.032559 28.057558999999998 22.107559000000002
34.007559 28.057558999999998 25.082558999999996
34.007559 25.082558999999996 28.057558999999998
31.032559 28.057558999999998 28.057558999999998
34.007559 28.057558999999998 31.032559
34.007559 25.082558999999996 34.007559
31.032559 28.057558999999998 34.007559
34.007559 34.007559 13.182559
34.007559 31.032559 16.157559
31.032559 34.007559 16.157559
34.007559 34.007559 19.132559
34.007559 31.032559 22.107559000000002
31.032559 34.007559 22.107559000000002
34.007559 34.007559 25.082558999999996
34.007559 31.032559 28.057558999999998
31.032559 34.007559 28.057558999999998
34.007559 34.007559 31.032559
34.007559 31.032559 34.007559
31.032559 34.007559 34.007559
34.007559 34.007559 36.982559
34.007559 36.982559 16.157559
34.007559 36.982559 28.057558999999998
36.982559 16.157559 16.157559
36.982559 16.157559 28.057558999999998
36.982559 16.157559 34.007559
36.982559 22.107559000000002 16.157559
36.982559 22.107559000000002 34.007559
36.982559 28.057558999999998 22.107559000000002
36.982559 34.007559 22.107559000000002
36.982559 34.007559 28.057558999999998
36.982559 34.007559 34.007559
35.593233 22.725682999999997 40.850778
35.559436 22.712603 39.459154999999996
35.007559 21.607559000000002 38.778397
34.562419 20.524348 40.903913
35.096593 21.633498 41.573578
34.51104 20.510553 39.513081
35.593233 28.675683 40.850778
35.559436 28.662602999999997 39.459154999999996
35.007559 27.557558999999998 38.778397
34.562419 26.474348 40.903913
35.096593 27.583498 41.573578
34.51104 26.460552999999997 39.513081
29.643233000000002 34.625683 40.850778
29.609436000000002 34.612603 39.459154999999996
29.057558999999998 33.507559 38.778397
28.612418999999996 32.424348 40.903913
29.146592999999996 33.533498 41.573578
28.56104 32.410553 39.513081
29.643233000000002 22.725682999999997 40.850778
29.609436000000002 22.712603 39.459154999999996
29.057558999999998 21.607559000000002 38.778397
28.612418999999996 20.524348 40.903913
29.146592999999996 21.633498 41.573578
28.56104 20.510553 39.513081
23.693233 22.725682999999997 40.850778
23.659436 22.712603 39.459154999999996
23.107559000000002 21.607559000000002 38.778397
22.662419 20.524348 40.903913
23.196593 21.633498 41.573578
22.611039999999996 20.510553 39.513081
17.743232999999996 34.625683 40.850778
17.709435999999997 34.612603 39.459154999999996
17.157559 33.507559 38.778397
16.712418999999997 32.424348 40.903913
17.246592999999997 33.533498 41.573578
16.66104 32.410553 39.513081
23.693233 16.775683 40.850778
23.659436 16.762603 39.459154999999996
23.107559000000002 15.657559 38.778397
22.662419 14.574347999999999 40.903913
23.196593 15.683497999999998 41.573578
22.611039999999996 14.560552999999999 39.513081
20.521884999999997 34.625683 9.31434
20.555681999999997 34.612603 10.705963
21.107559000000002 33.507559 11.386721
21.552698999999997 32.424348 9.261205
21.018524999999997 33.533498 8.591539999999998
21.604078 32.410553 10.652037
26.471885 34.625683 9.31434
26.505682 34.612603 10.705963
27.057558999999998 33.507559 11.386721
27.502699 32.424348 9.261205
26.968525 33.533498 8.591539999999998
27.554077999999997 32.410553 10.652037
32.421884999999996 22.725682999999997 9.31434
32.455681999999996 22.712603 10.705963
33.007559 21.607559000000002 11.386721
33.452699 20.524348 9.261205
32.918525 21.633498 8.591539999999998
33.504078 20.510553 10.652037
20.521884999999997 28.675683 9.31434
20.555681999999997 28.662602999999997 10.705963
21.107559000000002 27.557558999999998 11.386721
21.552698999999997 26.474348 9.261205
21.018524999999997 27.583498 8.591539999999998
21.604078 26.460552999999997 10.652037
26.471885 16.775683 9.31434
26.505682 16.762603 10.705963
27.057558999999998 15.657559 11.386721
27.502699 14.574347999999999 9.261205
26.968525 15.683497999999998 8.591539999999998
27.554077999999997 14.560552999999999 10.652037
20.521884999999997 22.725682999999997 9.31434
20.555681999999997 22.712603 10.705963
21.107559000000002 21.607559000000002 11.386721
21.552698999999997 20.524348 9.261205
21.018524999999997 21.633498 8.591539999999998
21.604078 20.510553 10.652037
32.421884999999996 16.775683 9.31434
32.455681999999996 16.762603 10.705963
33.007559 15.657559 11.386721
33.452699 14.574347999999999 9.261205
32.918525 15.683497999999998 8.591539999999998
33.504078 14.560552999999999 10.652037
9.31434 22.725682999999997 29.643233000000002
10.705963 22.712603 29.609436000000002
11.386721 21.607559000000002 29.057558999999998
9.261205 20.524348 28.612418999999996
8.591539999999998 21.633498 29.146592999999996
10.652037 20.510553 28.56104
9.31434 34.625683 17.743232999999996
10.705963 34.612603 17.709435999999997
11.386721 33.507559 17.157559
9.261205 32.424348 16.712418999999997
8.591539999999998 33.533498 17.246592999999997
10.652037 32.410553 16.66104
9.31434 16.775683 35.593233
10.705963 16.762603 35.559436
11.386721 15.657559 35.007559
9.261205 14.574347999999999 34.562419
8.591539999999998 15.683497999999998 35.096593
10.652037 14.560552999999999 34.51104
9.31434 34.625683 35.593233
10.705963 34.612603 35.559436
11.386721 33.507559 35.007559
9.261205 32.424348 34.562419
8.591539999999998 33.533498 35.096593
10.652037 32.410553 34.51104
9.31434 16.775683 17.743232999999996
10.705963 16.762603 17.709435999999997
11.386721 15.657559 17.157559
9.261205 14.574347999999999 16.712418999999997
8.591539999999998 15.683497999999998 17.246592999999997
10.652037 14.560552999999999 16.66104
9.31434 16.775683 23.693233
10.705963 16.762603 23.659436
11.386721 15.657559 23.107559000000002
9.261205 14.574347999999999 22.662419
8.591539999999998 15.683497999999998 23.196593
10.652037 14.560552999999999 22.611039999999996
9.31434 22.725682999999997 35.593233
10.705963 22.712603 35.559436
11.386721 21.607559000000002 35.007559
9.261205 20.524348 34.562419
8.591539999999998 21.633498 35.096593
10.652037 20.510553 34.51104
40.850778 28.675683 26.471885
39.459154999999996 28.662602999999997 26.505682
38.778397 27.557558999999998 27.057558999999998
40.903913 26.474348 27.502699
41.573578 27.583498 26.968525
39.513081 26.460552999999997 27.554077999999997
40.850778 28.675683 32.421884999999996
39.459154999999996 28.662602999999997 32.455681999999996
38.778397 27.557558999999998 33.007559
40.903913 26.474348 33.452699
41.573578 27.583498 32.918525
39.513081 26.460552999999997 33.504078
40.850778 22.725682999999997 20.521884999999997
39.459154999999996 22.712603 20.555681999999997
38.778397 21.607559000000002 21.107559000000002
40.903913 20.524348 21.552698999999997
41.573578 21.633498 21.018524999999997
39.513081 20.510553 21.604078
40.850778 34.625683 14.571885
39.459154999999996 34.612603 14.605682
38.778397 33.507559 15.157559
40.903913 32.424348 15.602699
41.573578 33.533498 15.068525
39.513081 32.410553 15.654078
40.850778 22.725682999999997 26.471885
39.459154999999996 22.712603 26.505682
38.778397 21.607559000000002 27.057558999999998
40.903913 20.524348 27.502699
41.573578 21.633498 26.968525
39.513081 20.510553 27.554077999999997
40.850778 16.775683 20.521884999999997
39.459154999999996 16.762603 20.555681999999997
38.778397 15.657559 21.107559000000002
40.903913 14.574347999999999 21.552698999999997
41.573578 15.683497999999998 21.018524999999997
39.513081 14.560552999999999 21.604078
40.850778 28.675683 14.571885
39.459154999999996 28.662602999999997 14.605682
38.778397 27.557558999999998 15.157559
40.903913 26.474348 15.602699
41.573578 27.583498 15.068525
39.513081 26.460552999999997 15.654078
35.593233 9.31434 34.625683
35.559436 10.705963 34.612603
35.007559 11.386721 33.507559
34.562419 9.261205 32.424348
35.096593 8.591539999999998 33.533498
34.51104 10.652037 32.410553
29.643233000000002 9.31434 28.675683
29.609436000000002 10.705963 28.662602999999997
29.057558999999998 11.386721 27.557558999999998
28.612418999999996 9.261205 26.474348
29.146592999999996 8.591539999999998 27.583498
28.56104 10.652037 26.460552999999997
29.643233000000002 9.31434 34.625683
29.609436000000002 10.705963 34.612603
29.057558999999998 11.386721 33.507559
28.612418999999996 9.261205 32.424348
29.146592999999996 8.591539999999998 33.533498
28.56104 10.652037 32.410553
17.743232999999996 9.31434 34.625683
17.709435999999997 10.705963 34.612603
17.157559 11.386721 33.507559
16.712418999999997 9.261205 32.424348
17.246592999999997 8.591539999999998 33.533498
16.66104 10.652037 32.410553
17.743232999999996 9.31434 28.675683
17.709435999999997 10.705963 28.662602999999997
17.157559 11.386721 27.557558999999998
16.712418999999997 9.261205 26.474348
17.246592999999997 8.591539999999998 27.583498
16.66104 10.652037 26.460552999999997
17.743232999999996 9.31434 22.725682999999997
17.709435999999997 10.705963 22.712603
17.157559 11.386721 21.607559000000002
16.712418999999997 9.261205 20.524348
17.246592999999997 8.591539999999998 21.633498
16.66104 10.652037 20.510553
23.693233 9.31434 22.725682999999997
23.659436 10.705963 22.712603
23.107559000000002 11.386721 21.607559000000002
22.662419 9.261205 20.524348
23.196593 8.591539999999998 21.633498
22.611039999999996 10.652037 20.510553
29.643233000000002 40.850778 27.439434999999996
29.609436000000002 39.459154999999996 27.452515
29.057558999999998 38.778397 28.557558999999998
28.612418999999996 40.903913 29.640769999999996
29.146592999999996 41.573578 28.531619999999997
28.56104 39.513081 29.654564999999998
23.693233 40.850778 33.389435
23.659436 39.459154999999996 33.402515
23.107559000000002 38.778397 34.507559
22.662419 40.903913 35.59077
23.196593 41.573578 34.48162
22.611039999999996 39.513081 35.604565
35.593233 40.850778 33.389435
35.559436 39.459154999999996 33.402515
35.007559 38.778397 34.507559
34.562419 40.903913 35.59077
35.096593 41.573578 34.48162
34.51104 39.513081 35.604565
35.593233 40.850778 21.489435
35.559436 39.459154999999996 21.502515
35.007559 38.778397 22.607559000000002
34.562419 40.903913 23.69077
35.096593 41.573578 22.58162
34.51104 39.513081 23.704564999999995
29.643233000000002 40.850778 33.389435
29.609436000000002 39.459154999999996 33.402515
29.057558999999998 38.778397 34.507559
28.612418999999996 40.903913 35.59077
29.146592999999996 41.573578 34.48162
28.56104 39.513081 35.604565
17.743232999999996 40.850778 27.439434999999996
17.709435999999997 39.459154999999996 27.452515
17.157559 38.778397 28.557558999999998
16.712418999999997 40.903913 29.640769999999996
17.246592999999997 41.573578 28.531619999999997
16.66104 39.513081 29.654564999999998
23.693233 40.850778 15.539435
23.659436 39.459154999999996 15.552515
23.107559000000002 38.778397 16.657559
22.662419 40.903913 17.740769999999998
23.196593 41.573578 16.631619999999998
22.611039999999996 39.513081 17.754565
12.139109 12.139109 19.132559
12.139109 12.139109 25.082558999999996
11.706897999999999 19.132559 31.032559
12.139109 19.132559 38.026009
11.706897999999999 31.032559 19.132559
12.139109 31.032559 38.026009
19.132559 11.706897999999999 19.132559
19.132559 11.706897999999999 25.082558999999996
19.132559 11.706897999999999 31.032559
19.132559 19.132559 11.706897999999999
19.132559 25.082558999999996 11.706897999999999
19.132559 31.032559 11.706897999999999
19.132559 31.032559 38.45822
19.132559 38.45822 31.032559
25.082558999999996 12.139109 12.139109
25.082558999999996 11.706897999999999 19.132559
25.082558999999996 12.139109 38.026009
25.082558999999996 19.132559 38.45822
25.082558999999996 31.032559 11.706897999999999
25.082558999999996 38.45822 19.132559
25.082558999999996 38.026009 38.026009
31.032559 12.139109 12.139109
31.032559 11.706897999999999 25.082558999999996
31.032559 11.706897999999999 31.032559
31.032559 19.132559 11.706897999999999
31.032559 31.032559 38.45822
31.032559 38.45822 31.032559
31.032559 38.026009 38.026009
38.026009 12.139109 19.132559
38.45822 19.132559 19.132559
38.45822 19.132559 25.082558999999996
38.026009 19.132559 38.026009
38.026009 25.082558999999996 12.139109
38.45822 25.082558999999996 25.082558999999996
38.45822 25.082558999999996 31.032559
38.026009 25.082558999999996 38.026009
38.026009 31.032559 12.139109
38.026009 38.026009 25.082558999999996
13.182559 13.182559 31.032559
13.182559 19.132559 13.182559
13.182559 19.132559 19.132559
13.182559 19.132559 25.082558999999996
13.182559 25.082558999999996 13.182559
13.182559 25.082558999999996 19.132559
13.182559 25.082558999999996 25.082558999999996
13.182559 25.082558999999996 31.032559
13.182559 25.082558999999996 36.982559
13.182559 31.032559 13.182559
13.182559 31.032559 25.082558999999996
13.182559 36.982559 19.132559
13.182559 36.982559 25.082558999999996
13.182559 36.982559 31.032559
19.132559 13.182559 13.182559
19.132559 13.182559 36.982559
19.132559 19.132559 19.132559
19.132559 19.132559 25.082558999999996
19.132559 19.132559 31.032559
19.132559 19.132559 36.982559
19.132559 25.082558999999996 19.132559
19.132559 25.082558999999996 25.082558999999996
19.132559 25.082558999999996 31.032559
19.132559 25.082558999999996 36.982559
19.132559 31.032559 19.132559
19.132559 31.032559 25.082558999999996
19.132559 31.032559 31.032559
19.132559 36.982559 13.182559
19.132559 36.982559 25.082558999999996
19.132559 36.982559 36.982559
25.082558999999996 13.182559 25.082558999999996
25.082558999999996 13.182559 31.032559
25.082558999999996 19.132559 13.182559
25.082558999999996 19.132559 19.132559
25.082558999999996 19.132559 25.082558999999996
25.082558999999996 19.132559 31.032559
25.082558999999996 25.082558999999996 13.182559
25.082558999999996 25.082558999999996 19.132559
25.082558999999996 25.082558999999996 25.082558999999996
25.082558999999996 25.082558999999996 31.032559
25.082558999999996 25.082558999999996 36.982559
25.082558999999996 31.032559 19.132559
25.082558999999996 31.032559 25.082558999999996
25.082558999999996 31.032559 31.032559
25.082558999999996 31.032559 36.982559
25.082558999999996 36.982559 13.182559
25.082558999999996 36.982559 25.082558999999996
25.082558999999996 36.982559 31.032559
31.032559 13.182559 19.132559
31.032559 13.182559 36.982559
31.032559 19.132559 19.132559
31.032559 19.132559 25.082558999999996
31.032559 19.132559 31.032559
31.032559 25.082558999999996 13.182559
31.032559 25.082558999999996 19.132559
31.032559 25.082558999999996 25.082558999999996
31.032559 25.082558999999996 31.032559
31.032559 25.082558999999996 36.982559
31.032559 31.032559 13.182559
31.032559 31.032559 19.132559
31.032559 31.032559 25.082558999999996
31.032559 31.032559 31.032559
31.032559 36.982559 13.182559
31.032559 36.982559 19.132559
31.032559 36.982559 25.082558999999996
36.982559 13.182559 25.082558999999996
36.982559 19.132559 13.182559
36.982559 19.132559 31.032559
36.982559 25.082558999999996 19.132559
36.982559 31.032559 19.132559
36.982559 31.032559 25.082558999999996
36.982559 31.032559 31.032559
36.982559 31.032559 36.982559
36.982559 36.982559 19.132559
34.186372 19.672255999999997 41.473431
35.128133 21.645018999999998 42.66511799999999
36.007577 23.586667999999996 41.378662
35.940774 23.556908999999997 38.882298
34.092455 19.651412999999998 38.98576
32.867807 21.303213 36.630511999999996
34.186372 25.622256 41.473431
35.128133 27.595019 42.66511799999999
36.007577 29.536668 41.378662
35.940774 29.506909 38.882298
34.092455 25.601413 38.98576
32.867807 27.253212999999995 36.630511999999996
28.236371999999996 31.572256000000003 41.473431
29.178132999999995 33.545018999999996 42.66511799999999
30.057577000000002 35.486668 41.378662
29.990774000000002 35.456908999999996 38.882298
28.142454999999998 31.551412999999997 38.98576
26.917806999999996 33.203213 36.630511999999996
28.236371999999996 19.672255999999997 41.473431
29.178132999999995 21.645018999999998 42.66511799999999
30.057577000000002 23.586667999999996 41.378662
29.990774000000002 23.556908999999997 38.882298
28.142454999999998 19.651412999999998 38.98576
26.917806999999996 21.303213 36.630511999999996
22.286372 19.672255999999997 41.473431
23.228133 21.645018999999998 42.66511799999999
24.107577 23.586667999999996 41.378662
24.040774 23.556908999999997 38.882298
22.192454999999995 19.651412999999998 38.98576
20.967807 21.303213 36.630511999999996
16.336371999999997 31.572256000000003 41.473431
17.278132999999997 33.545018999999996 42.66511799999999
18.157577 35.486668 41.378662
18.090774 35.456908999999996 38.882298
16.242455 31.551412999999997 38.98576
15.017807 33.203213 36.630511999999996
22.286372 13.722256 41.473431
23.228133 15.695019 42.66511799999999
24.107577 17.636668 41.378662
24.040774 17.606909 38.882298
22.192454999999995 13.701412999999999 38.98576
20.967807 15.353212999999998 36.630511999999996
21.928745999999997 31.572256000000003 8.691686999999998
20.986984999999997 33.545018999999996 7.499999999999999
20.107540999999998 35.486668 8.786456
20.174343999999998 35.456908999999996 11.28282
22.022663 31.551412999999997 11.179358
23.247310999999996 33.203213 13.534606
27.878746 31.572256000000003 8.691686999999998
26.936985 33.545018999999996 7.499999999999999
26.057541 35.486668 8.786456
26.124344 35.456908999999996 11.28282
27.972662999999997 31.551412999999997 11.179358
29.197311 33.203213 13.534606
33.828746 19.672255999999997 8.691686999999998
32.886985 21.645018999999998 7.499999999999999
32.007540999999996 23.586667999999996 8.786456
32.074343999999996 23.556908999999997 11.28282
33.922663 19.651412999999998 11.179358
35.147311 21.303213 13.534606
21.928745999999997 25.622256 8.691686999999998
20.986984999999997 27.595019 7.499999999999999
20.107540999999998 29.536668 8.786456
20.174343999999998 29.506909 11.28282
22.022663 25.601413 11.179358
23.247310999999996 27.253212999999995 13.534606
27.878746 13.722256 8.691686999999998
26.936985 15.695019 7.499999999999999
26.057541 17.636668 8.786456
26.124344 17.606909 11.28282
27.972662999999997 13.701412999999999 11.179358
29.197311 15.353212999999998 13.534606
21.928745999999997 19.672255999999997 8.691686999999998
20.986984999999997 21.645018999999998 7.499999999999999
20.107540999999998 23.586667999999996 8.786456
20.174343999999998 23.556908999999997 11.28282
22.022663 19.651412999999998 11.179358
23.247310999999996 21.303213 13.534606
33.828746 13.722256 8.691686999999998
32.886985 15.695019 7.499999999999999
32.007540999999996 17.636668 8.786456
32.074343999999996 17.606909 11.28282
33.922663 13.701412999999999 11.179358
35.147311 15.353212999999998 13.534606
8.691686999999998 19.672255999999997 28.236371999999996
7.499999999999999 21.645018999999998 29.178132999999995
8.786456 23.586667999999996 30.057577000000002
11.28282 23.556908999999997 29.990774000000002
11.179358 19.651412999999998 28.142454999999998
13.534606 21.303213 26.917806999999996
8.691686999999998 31.572256000000003 16.336371999999997
7.499999999999999 33.545018999999996 17.278132999999997
8.786456 35.486668 18.157577
11.28282 35.456908999999996 18.090774
11.179358 31.551412999999997 16.242455
13.534606 33.203213 15.017807
8.691686999999998 13.722256 34.186372
7.499999999999999 15.695019 35.128133
8.786456 17.636668 36.007577
11.28282 17.606909 35.940774
11.179358 13.701412999999999 34.092455
13.534606 15.353212999999998 32.867807
8.691686999999998 31.572256000000003 34.186372
7.499999999999999 33.545018999999996 35.128133
8.786456 35.486668 36.007577
11.28282 35.456908999999996 35.940774
11.179358 31.551412999999997 34.092455
13.534606 33.203213 32.867807
8.691686999999998 13.722256 16.336371999999997
7.499999999999999 15.695019 17.278132999999997
8.786456 17.636668 18.157577
11.28282 17.606909 18.090774
11.179358 13.701412999999999 16.242455
13.534606 15.353212999999998 15.017807
8.691686999999998 13.722256 22.286372
7.499999999999999 15.695019 23.228133
8.786456 17.636668 24.107577
11.28282 17.606909 24.040774
11.179358 13.701412999999999 22.192454999999995
13.534606 15.353212999999998 20.967807
8.691686999999998 19.672255999999997 34.186372
7.499999999999999 21.645018999999998 35.128133
8.786456 23.586667999999996 36.007577
11.28282 23.556908999999997 35.940774
11.179358 19.651412999999998 34.092455
13.534606 21.303213 32.867807
41.473431 25.622256 27.878746
42.66511799999999 27.595019 26.936985
41.378662 29.536668 26.057541
38.882298 29.506909 26.124344
38.98576 25.601413 27.972662999999997
36.630511999999996 27.253212999999995 29.197311
41.473431 25.622256 33.828746
42.66511799999999 27.595019 32.886985
41.378662 29.536668 32.007540999999996
38.882298 29.506909 32.074343999999996
38.98576 25.601413 33.922663
36.630511999999996 27.253212999999995 35.147311
41.473431 19.672255999999997 21.928745999999997
42.66511799999999 21.645018999999998 20.986984999999997
41.378662 23.586667999999996 20.107540999999998
38.882298 23.556908999999997 20.174343999999998
38.98576 19.651412999999998 22.022663
36.630511999999996 21.303213 23.247310999999996
41.473431 31.572256000000003 15.978746
42.66511799999999 33.545018999999996 15.036985
41.378662 35.486668 14.157541
38.882298 35.456908999999996 14.224344
38.98576 31.551412999999997 16.072663
36.630511999999996 33.203213 17.297311
41.473431 19.672255999999997 27.878746
42.66511799999999 21.645018999999998 26.936985
41.378662 23.586667999999996 26.057541
38.882298 23.556908999999997 26.124344
38.98576 19.651412999999998 27.972662999999997
36.630511999999996 21.303213 29.197311
41.473431 13.722256 21.928745999999997
42.66511799999999 15.695019 20.986984999999997
41.378662 17.636668 20.107540999999998
38.882298 17.606909 20.174343999999998
38.98576 13.701412999999999 22.022663
36.630511999999996 15.353212999999998 23.247310999999996
41.473431 25.622256 15.978746
42.66511799999999 27.595019 15.036985
41.378662 29.536668 14.157541
38.882298 29.506909 14.224344
38.98576 25.601413 16.072663
36.630511999999996 27.253212999999995 17.297311
34.186372 8.691686999999998 31.572256000000003
35.128133 7.499999999999999 33.545018999999996
36.007577 8.786456 35.486668
35.940774 11.28282 35.456908999999996
34.092455 11.179358 31.551412999999997
32.867807 13.534606 33.203213
28.236371999999996 8.691686999999998 25.622256
29.178132999999995 7.499999999999999 27.595019
30.057577000000002 8.786456 29.536668