1_train/12_cspbbr3_methylammonium_3_0.30\12_cspbbr3_methylammonium_3_0.30.xyz
1.0
41.796315 0 0
0 41.796315 0
0 0 41.796315
Br C Cs H N Pb 
108 14 40 84 14 27 
Cartesian
30.0857635 26.7695065 26.8022985
26.9755285 15.0665415 17.7971425
30.0632105 14.8527355 20.8268865
23.7373345 15.024015499999999 14.734475499999999
26.6927285 11.821942499999999 14.9808975
29.6601335 14.8706635 26.974202499999997
26.8399165 15.2170965 12.099772499999998
29.571115499999998 20.8640035 14.965693499999999
21.0577455 29.9923765 26.6682835
30.0669205 21.0106515 20.942448499999998
21.1506005 29.7658475 21.002224499999997
21.0608795 29.9811415 14.978334499999999
20.9280615 27.0275205 29.675631499999998
18.0143305 26.9816455 26.6872625
21.0518835 26.6829215 11.776394499999999
20.888734499999998 24.0139305 26.9917505
20.9608195 27.0742855 23.6935285
29.897246499999998 20.7227035 26.7186605
18.080053499999998 26.9926775 20.986509499999997
29.810771499999998 27.0260525 14.794219499999999
20.901894499999997 23.9202715 20.6783335
21.028076499999997 26.7582295 18.098270499999998
29.9530435 26.9344845 20.9962105
17.8331965 26.6921825 14.8871515
20.8468095 24.0828105 15.106842499999999
24.050551499999997 26.9489155 21.053371499999997
23.8626525 15.066727499999999 21.0376125
29.7820285 15.135990499999998 15.0466065
26.9109375 23.884569499999998 21.0945545
23.8292895 26.7332405 14.807836499999999
27.0326935 26.8708185 23.717017499999997
26.7395045 23.981699499999998 15.119320499999999
26.6749065 26.899229499999997 12.016657499999999
26.9874655 23.7430485 26.688435499999997
26.9963015 20.8318655 29.5993985
23.8378275 21.0672775 26.7607285
26.7395915 18.0189205 26.6915685
23.7227985 26.6724845 26.9603235
26.789347499999998 20.7803115 23.673567499999997
23.7746705 20.7464285 21.0570815
26.6539365 26.980849499999998 29.8316135
26.6167905 17.7720625 20.8192855
26.7270415 20.7164785 18.0503495
26.6720775 29.6431075 14.9650425
23.7412295 21.0171115 14.7969715
26.943419499999997 30.0249985 20.8166595
26.7092395 18.0636365 14.740516499999998
26.8581765 21.0820895 11.883146499999999
27.018645499999998 29.7595815 27.0782575
26.9181885 14.8134205 29.9353765
23.7113795 15.133751499999999 26.7972255
26.7119045 12.089622499999999 26.8885385
26.7360295 15.144178499999999 23.7446465
26.635633499999997 12.0404755 21.0249935
20.869888500000002 21.1774675 29.8626125
26.9266165 26.6445195 18.1186645
17.7171025 20.9914415 26.9060385
14.8524055 12.1697695 21.0395105
11.9592925 21.183445499999998 14.8929075
11.919570499999999 15.1033495 20.7039205
14.9072575 29.942521499999998 14.769513499999999
14.9287365 26.702817500000002 29.9849295
12.0372305 26.645410499999997 26.879816499999997
14.7174635 23.845515499999998 27.0297515
15.094089499999999 26.7464095 24.0168985
15.142972499999999 14.8236505 24.054094499999998
11.8177515 26.9254405 20.6748025
14.9445295 24.1342275 20.8694275
15.0307155 26.8400855 17.762966499999997
14.937464499999999 14.8194175 18.1805735
12.144916499999999 27.0775255 14.9951905
15.0870325 26.963257499999997 11.962135499999999
15.050611499999999 11.753840499999999 26.7613815
14.754792499999999 20.994625499999998 29.7562095
11.9329685 20.8307925 27.0871005
14.798012499999999 17.9983645 26.658527499999998
14.7882115 21.0918325 23.8928685
11.9380595 14.845687499999999 26.6595755
14.8010545 15.050103499999999 29.8819505
12.1113115 20.9596475 20.6671655
15.032349499999999 17.756904499999997 21.1195345
15.089487499999999 21.0429395 17.9026715
14.998412499999999 20.751602499999997 12.107816499999998
15.1251825 23.7339215 14.953851499999999
14.8307845 29.8733365 27.0374865
14.8471835 29.6253495 20.717605499999998
20.8956725 15.0809815 11.818002499999999
20.8960645 17.829831499999997 27.058670499999998
21.0944975 21.0643345 23.8897015
17.9369095 20.6580145 20.877795499999998
20.7086525 17.8304665 20.960789499999997
21.079403499999998 21.021153499999997 17.7595155
18.066522499999998 20.9173765 14.8155225
20.9651955 18.1099455 14.990903499999998
21.0265505 21.0302765 12.108010499999999
20.6818325 14.873759499999998 29.6715815
15.103073499999999 15.0032445 12.1045305
17.9467465 14.849470499999999 26.6838195
14.889023499999999 12.1162005 15.1953815
21.0475425 11.8499485 26.8237955
15.1793705 17.935246499999998 15.049158499999999
21.0550645 11.9768475 15.0948265
17.736537499999997 15.083091499999998 20.7882285
12.173138499999999 14.848027499999999 15.0790525
21.0127165 12.0932895 20.8096345
21.054184499999998 14.792045499999999 23.8438485
20.8216825 15.1525015 17.9526265
18.0398645 14.8824125 14.797894499999998
23.7907375 10.908023499999999 10.862760499999998
23.9006895 31.376537499999998 17.9799785
17.8691255 17.9230005 10.5718295
10.547257499999999 23.9184545 17.8817625
23.8317265 23.9144875 31.2084615
17.960516499999997 23.791700499999997 10.439681499999999
23.9061035 23.9419245 10.425001499999999
31.2255635 23.8853195 23.882661499999998
31.3659735 17.9876495 17.963026499999998
23.9005675 17.9713565 31.352051499999998
17.9913895 31.2197505 17.9415615
10.904052499999999 23.8955895 30.9547035
17.9839435 11.0165805 30.8410445
30.8786445 17.8710505 10.8590105
29.5427155 11.7538165 17.8302545
12.2472535 17.8782125 12.2153935
12.2034715 11.517595499999999 17.8865835
17.9195735 17.536640499999997 29.8327135
24.2147025 29.9165165 12.2394295
30.2177385 29.3903235 24.0137875
29.6687415 30.362205499999998 18.0680805
29.692054499999998 23.501737499999997 29.3856085
24.0472735 30.1827315 23.7930945
29.643555499999998 11.623170499999999 24.077529499999997
11.554781499999999 12.0330765 23.9177875
29.5703125 18.3327795 23.807778499999998
29.7775435 24.2293455 18.2692405
29.702198499999998 23.5575515 12.292410499999999
23.904715500000002 30.042592499999998 30.3233805
24.2025335 23.4697795 17.874156499999998
24.2472015 23.630795499999998 24.1541445
12.0660745 17.6476375 18.201347499999997
17.5122115 23.6300005 17.6539285
17.5843955 17.6394455 17.6442895
18.3201805 23.752193499999997 23.730827499999997
18.374809499999998 23.8000995 29.8103375
18.3303025 29.3732585 11.996539499999999
17.5678575 29.6332545 23.672478499999997
17.714194499999998 29.553845499999998 29.5296855
18.4177565 12.0492165 17.7983935
17.9472195 18.3522195 24.160385499999997
17.9035455 11.7388465 11.6884375
23.5246895 12.2570185 23.6403635
24.122203499999998 12.4626405 18.0082745
12.2981105 30.1185135 18.3287455
12.3743425 29.671214499999998 23.5492745
11.9957935 17.778118499999998 30.1891715
11.6356595 23.6252445 11.894067499999998
23.9385915 18.034740499999998 24.3231555
11.720722499999999 18.3076705 23.6301545
11.825179499999999 24.1212785 23.6122195
24.2934405 18.103426499999998 12.033182499999999
23.6685415 12.1615205 30.1699795
24.1714885 18.4308235 18.0531075
31.831798499999998 18.150070499999998 11.423900499999998
18.2604735 11.6368435 28.926692499999998
16.960710499999998 12.290362499999999 29.6195795
18.528366499999997 12.7659425 30.1109585
17.549570499999998 11.346527499999999 31.7824815
18.9237855 10.6261145 31.0074665
17.2989465 10.0772005 30.5347585
29.4602775 18.7685435 18.435989499999998
29.4720135 17.1013425 18.3824725
23.1664095 23.2549025 12.3691555
23.662411499999997 24.8207925 12.3780995
24.6496875 24.554570499999997 10.193094499999999
22.889114499999998 24.159003499999997 10.2020305
24.0683845 22.8590725 10.1834995
31.6654125 23.497932499999997 24.8552525
31.6101705 23.1958945 23.0486955
17.0759015 23.4681625 12.3256795
24.795691499999997 23.562554499999997 12.3268495
29.4615915 17.9179825 16.9729495
31.6045855 18.8128995 17.4183645
24.8906085 17.961833499999997 31.6281355
11.635384499999999 24.3678855 28.9476865
10.0354835 23.3948435 30.441567499999998
10.6717365 24.8882495 31.1306315
11.3019485 23.3648515 31.738148499999998
12.228353499999999 22.8842705 29.5783125
18.2442635 29.4715865 18.845605499999998
16.9978515 29.4702815 17.7846185
18.534352499999997 29.4698155 17.161226499999998
18.7232225 23.2840875 12.3725635
17.5437925 31.6504075 16.9602985
17.2283015 31.6076975 18.7451565
31.629319499999998 17.8921155 18.925873499999998
31.6413315 17.0150845 17.3935285
24.3664865 18.7324475 29.4652925
24.3868955 17.1146915 29.4383365
22.932936499999997 17.8746685 29.452167499999998
23.384986499999997 17.0469675 31.6338245
23.3110835 18.8219105 31.6467845
18.9588805 31.6508585 18.1276175
18.0452225 24.844170499999997 12.3295015
18.8561465 24.3188365 10.136958499999999
17.102323499999997 24.5062105 10.1777695
22.8936085 10.8760455 10.501415499999998
24.1881405 10.004939499999999 11.3609095
10.147767499999999 22.8952745 18.3306695
10.1443385 24.7424975 18.536551499999998
24.8201225 29.415653499999998 18.0138265
23.3039575 29.4866735 18.6991125
23.4819915 29.4840225 17.0375655
22.8674695 31.6194675 17.8099465
24.528777499999997 31.6392535 17.0724305
24.2467595 31.617427499999998 18.8627425
12.3134985 23.7878585 18.8748775
12.3204465 24.739416499999997 17.512946499999998
30.0523275 17.255937499999998 12.7072465
29.7564725 18.8573735 12.3983425
28.8675115 17.6948345 11.6069325
30.592733499999998 18.6486895 10.2069435
30.8743995 16.929661499999998 10.4623615
24.623855499999998 11.224962499999998 10.148577499999998
23.6176075 12.8777625 11.6139985
24.8321415 12.0618555 12.3913835
23.2441315 11.753610499999999 12.716811499999999
17.8063785 22.8117875 10.1953485
31.6026115 24.910773499999998 23.6998465
29.4890455 24.2078085 22.986281499999997
24.549020499999997 23.1717475 29.4766245
22.9153035 23.618764499999997 29.4240005
24.1339655 24.835336499999997 29.4612205
23.1417665 24.6370025 31.6533625
24.8521865 24.1127285 31.6330065
12.3271055 23.0650975 17.377301499999998
23.5640185 22.858354499999997 31.6375735
29.4320725 22.9633605 24.0255335
18.6428475 18.601853499999997 12.344486499999999
17.0206715 18.2129325 12.388009499999999
18.1501315 16.9688765 12.386229499999999
17.1891505 17.185691499999997 10.1636335
18.9343745 17.6468015 10.1390625
17.718362499999998 18.909138499999997 10.148318499999998
10.1318785 23.9692415 16.9073525
29.4787855 24.4635885 24.5993135
12.834930499999999 24.3122555 30.1741055
17.9585105 11.9208465 29.8919305
23.8432325 23.814634499999997 12.0465965
17.8828815 23.9248095 11.9268355
23.8618365 17.9896365 29.8881855
23.9114565 23.948780499999998 29.8768675
18.0047385 29.8080575 17.956742499999997
17.9849785 17.8750215 12.008780499999999
23.8534335 11.9881335 11.886787499999999
29.859723499999998 18.020843499999998 11.9655575
23.971382499999997 29.8393035 17.8853685
12.0098065 23.9433495 29.875314499999998
29.755024499999998 23.8438995 23.938798499999997
29.8838585 17.8536505 17.871315499999998
11.9421635 23.8087205 17.9489865
14.8303975 15.074479499999999 14.7793345
26.5747805 26.7685115 14.787281499999999
14.9566245 26.6090365 15.0431675
26.876858499999997 21.1402925 26.6787105
14.774547499999999 26.862108499999998 20.7619135
20.8593755 26.5084705 15.036557499999999
15.1173395 27.0553825 27.0746275
26.9113485 20.909543499999998 15.1626315
27.0086785 14.634559499999998 26.7805885
14.7135345 20.943439499999997 26.8543375
20.8792035 15.1495105 15.112249499999999
20.6048895 15.038748499999999 20.8798205
27.0334675 15.1903095 15.133547499999999
20.6656885 15.1398725 26.683248499999998
20.8021705 20.8272205 15.132168499999999
20.7636175 26.703802500000002 27.0675745
20.6258305 20.7850215 20.845273499999998
20.7482945 26.7230265 20.6839035
21.1414735 20.6994345 26.9528715
26.7891205 14.7387065 20.791227499999998
27.052510499999997 26.793127499999997 20.6441395
27.0499105 20.962908499999998 20.9645205
15.0906095 15.0924445 21.0241965
14.852428499999998 20.6832695 20.8796145
15.1857385 20.9063745 14.8327745
15.0090805 15.036759499999999 27.1463975
26.9235555 26.7820265 27.117917499999997
