3_train/232_cspbbr3_MA-AbzO_4_0.20\232_cspbbr3_MA-AbzO_4_0.20.xyz
1.0
49.572974 0 0
0 49.572974 0
0 0 49.572974
Br C Cs H N O Pb 
216 185 95 246 41 48 64 
Cartesian
15.861487 15.861487 12.886487
15.861487 12.886487 15.861487
15.861487 15.861487 18.836486999999998
15.861487 12.886487 21.811487
12.886487 15.861487 21.811487
15.861487 15.861487 24.786487
15.861487 12.886487 27.761487000000002
12.886487 15.861487 27.761487000000002
15.861487 15.861487 30.736487000000004
12.886487 15.861487 33.711487
15.861487 21.811487 12.886487
15.861487 18.836486999999998 15.861487
12.886487 21.811487 15.861487
15.861487 21.811487 18.836486999999998
15.861487 18.836486999999998 21.811487
12.886487 21.811487 21.811487
15.861487 21.811487 24.786487
15.861487 18.836486999999998 27.761487000000002
12.886487 21.811487 27.761487000000002
15.861487 21.811487 30.736487000000004
15.861487 18.836486999999998 33.711487
12.886487 21.811487 33.711487
15.861487 21.811487 36.686487
15.861487 27.761487000000002 12.886487
15.861487 24.786487 15.861487
12.886487 27.761487000000002 15.861487
15.861487 27.761487000000002 18.836486999999998
15.861487 24.786487 21.811487
12.886487 27.761487000000002 21.811487
15.861487 27.761487000000002 24.786487
15.861487 24.786487 27.761487000000002
15.861487 27.761487000000002 30.736487000000004
15.861487 24.786487 33.711487
12.886487 27.761487000000002 33.711487
15.861487 27.761487000000002 36.686487
15.861487 33.711487 12.886487
15.861487 30.736487000000004 15.861487
15.861487 33.711487 18.836486999999998
15.861487 30.736487000000004 21.811487
12.886487 33.711487 21.811487
15.861487 33.711487 24.786487
15.861487 30.736487000000004 27.761487000000002
15.861487 33.711487 30.736487000000004
15.861487 30.736487000000004 33.711487
12.886487 33.711487 33.711487
15.861487 33.711487 36.686487
15.861487 36.686487 15.861487
15.861487 36.686487 21.811487
15.861487 36.686487 27.761487000000002
15.861487 36.686487 33.711487
21.811487 15.861487 12.886487
21.811487 12.886487 15.861487
18.836486999999998 15.861487 15.861487
21.811487 15.861487 18.836486999999998
21.811487 12.886487 21.811487
18.836486999999998 15.861487 21.811487
21.811487 15.861487 24.786487
21.811487 12.886487 27.761487000000002
18.836486999999998 15.861487 27.761487000000002
21.811487 15.861487 30.736487000000004
21.811487 12.886487 33.711487
18.836486999999998 15.861487 33.711487
21.811487 15.861487 36.686487
21.811487 21.811487 12.886487
21.811487 18.836486999999998 15.861487
18.836486999999998 21.811487 15.861487
21.811487 21.811487 18.836486999999998
21.811487 18.836486999999998 21.811487
18.836486999999998 21.811487 21.811487
21.811487 21.811487 24.786487
21.811487 18.836486999999998 27.761487000000002
18.836486999999998 21.811487 27.761487000000002
21.811487 21.811487 30.736487000000004
21.811487 18.836486999999998 33.711487
18.836486999999998 21.811487 33.711487
21.811487 21.811487 36.686487
21.811487 27.761487000000002 12.886487
21.811487 24.786487 15.861487
18.836486999999998 27.761487000000002 15.861487
21.811487 27.761487000000002 18.836486999999998
21.811487 24.786487 21.811487
18.836486999999998 27.761487000000002 21.811487
21.811487 27.761487000000002 24.786487
21.811487 24.786487 27.761487000000002
18.836486999999998 27.761487000000002 27.761487000000002
21.811487 27.761487000000002 30.736487000000004
21.811487 24.786487 33.711487
18.836486999999998 27.761487000000002 33.711487
21.811487 30.736487000000004 15.861487
18.836486999999998 33.711487 15.861487
21.811487 33.711487 18.836486999999998
21.811487 30.736487000000004 21.811487
18.836486999999998 33.711487 21.811487
21.811487 33.711487 24.786487
21.811487 30.736487000000004 27.761487000000002
18.836486999999998 33.711487 27.761487000000002
21.811487 33.711487 30.736487000000004
21.811487 30.736487000000004 33.711487
18.836486999999998 33.711487 33.711487
21.811487 33.711487 36.686487
21.811487 36.686487 15.861487
21.811487 36.686487 21.811487
21.811487 36.686487 27.761487000000002
27.761487000000002 15.861487 12.886487
27.761487000000002 12.886487 15.861487
24.786487 15.861487 15.861487
27.761487000000002 15.861487 18.836486999999998
27.761487000000002 12.886487 21.811487
24.786487 15.861487 21.811487
27.761487000000002 15.861487 24.786487
27.761487000000002 12.886487 27.761487000000002
24.786487 15.861487 27.761487000000002
27.761487000000002 15.861487 30.736487000000004
24.786487 15.861487 33.711487
27.761487000000002 15.861487 36.686487
27.761487000000002 21.811487 12.886487
27.761487000000002 18.836486999999998 15.861487
24.786487 21.811487 15.861487
27.761487000000002 21.811487 18.836486999999998
27.761487000000002 18.836486999999998 21.811487
24.786487 21.811487 21.811487
27.761487000000002 21.811487 24.786487
27.761487000000002 18.836486999999998 27.761487000000002
24.786487 21.811487 27.761487000000002
27.761487000000002 21.811487 30.736487000000004
27.761487000000002 18.836486999999998 33.711487
24.786487 21.811487 33.711487
27.761487000000002 24.786487 15.861487
24.786487 27.761487000000002 15.861487
27.761487000000002 27.761487000000002 18.836486999999998
27.761487000000002 24.786487 21.811487
24.786487 27.761487000000002 21.811487
27.761487000000002 27.761487000000002 24.786487
27.761487000000002 24.786487 27.761487000000002
24.786487 27.761487000000002 27.761487000000002
27.761487000000002 27.761487000000002 30.736487000000004
27.761487000000002 24.786487 33.711487
24.786487 27.761487000000002 33.711487
27.761487000000002 27.761487000000002 36.686487
27.761487000000002 30.736487000000004 15.861487
24.786487 33.711487 15.861487
27.761487000000002 33.711487 18.836486999999998
27.761487000000002 30.736487000000004 21.811487
24.786487 33.711487 21.811487
27.761487000000002 33.711487 24.786487
27.761487000000002 30.736487000000004 27.761487000000002
24.786487 33.711487 27.761487000000002
27.761487000000002 33.711487 30.736487000000004
27.761487000000002 30.736487000000004 33.711487
24.786487 33.711487 33.711487
27.761487000000002 33.711487 36.686487
27.761487000000002 36.686487 21.811487
27.761487000000002 36.686487 33.711487
33.711487 15.861487 12.886487
30.736487000000004 15.861487 15.861487
33.711487 15.861487 18.836486999999998
33.711487 12.886487 21.811487
30.736487000000004 15.861487 21.811487
33.711487 15.861487 24.786487
33.711487 12.886487 27.761487000000002
30.736487000000004 15.861487 27.761487000000002
33.711487 15.861487 30.736487000000004
30.736487000000004 15.861487 33.711487
33.711487 21.811487 12.886487
33.711487 18.836486999999998 15.861487
30.736487000000004 21.811487 15.861487
33.711487 21.811487 18.836486999999998
33.711487 18.836486999999998 21.811487
30.736487000000004 21.811487 21.811487
33.711487 21.811487 24.786487
33.711487 18.836486999999998 27.761487000000002
30.736487000000004 21.811487 27.761487000000002
33.711487 21.811487 30.736487000000004
33.711487 18.836486999999998 33.711487
30.736487000000004 21.811487 33.711487
33.711487 21.811487 36.686487
33.711487 27.761487000000002 12.886487
33.711487 24.786487 15.861487
30.736487000000004 27.761487000000002 15.861487
33.711487 27.761487000000002 18.836486999999998
33.711487 24.786487 21.811487
30.736487000000004 27.761487000000002 21.811487
33.711487 27.761487000000002 24.786487
33.711487 24.786487 27.761487000000002
30.736487000000004 27.761487000000002 27.761487000000002
33.711487 27.761487000000002 30.736487000000004
33.711487 24.786487 33.711487
30.736487000000004 27.761487000000002 33.711487
33.711487 27.761487000000002 36.686487
33.711487 30.736487000000004 15.861487
30.736487000000004 33.711487 15.861487
33.711487 33.711487 18.836486999999998
33.711487 30.736487000000004 21.811487
30.736487000000004 33.711487 21.811487
33.711487 33.711487 24.786487
33.711487 30.736487000000004 27.761487000000002
30.736487000000004 33.711487 27.761487000000002
33.711487 33.711487 30.736487000000004
33.711487 30.736487000000004 33.711487
30.736487000000004 33.711487 33.711487
33.711487 33.711487 36.686487
33.711487 36.686487 15.861487
33.711487 36.686487 27.761487000000002
33.711487 36.686487 33.711487
36.686487 15.861487 15.861487
36.686487 15.861487 27.761487000000002
36.686487 15.861487 33.711487
36.686487 21.811487 27.761487000000002
36.686487 21.811487 33.711487
36.686487 27.761487000000002 15.861487
36.686487 27.761487000000002 21.811487
36.686487 27.761487000000002 27.761487000000002
36.686487 27.761487000000002 33.711487
36.686487 33.711487 15.861487
36.686487 33.711487 21.811487
36.686487 33.711487 33.711487
33.782717 17.094867 40.281516
33.924724 17.046177 38.893687
33.711487 15.861487 38.19108800000001
33.19422 14.742439000000001 40.331509000000004
33.393515 15.940559 40.991377
33.711487 15.861487 36.686487
33.406501 14.667219000000001 38.92822700000001
21.882717 28.994867 40.281516
22.024724 28.946177 38.893687
21.811487 27.761487000000002 38.19108800000001
21.294220000000003 26.642439000000003 40.331509000000004
21.493515000000002 27.840559 40.991377
21.811487 27.761487000000002 36.686487
21.506501 26.567219 38.92822700000001
27.832717000000002 23.044867000000004 40.281516
27.974724000000002 22.996177000000003 38.893687
27.761487000000002 21.811487 38.19108800000001
27.24422 20.692439 40.331509000000004
27.443515000000005 21.890559000000003 40.991377
27.761487000000002 21.811487 36.686487
27.456501000000003 20.617219 38.92822700000001
15.932717 17.094867 40.281516
16.074724000000003 17.046177 38.893687
15.861487 15.861487 38.19108800000001
15.344220000000002 14.742439000000001 40.331509000000004
15.543515000000001 15.940559 40.991377
15.861487 15.861487 36.686487
15.556501 14.667219000000001 38.92822700000001
33.640257 34.944867 9.291458
33.49825 34.896177 10.679287
33.711487 33.711487 11.381886000000002
34.228754 32.592439 9.241465000000002
34.029459 33.790559 8.581597
33.711487 33.711487 12.886487
34.016473 32.517219 10.644747
21.740257 34.944867 9.291458
21.59825 34.896177 10.679287
21.811487 33.711487 11.381886000000002
22.328754000000004 32.592439 9.241465000000002
22.129459000000004 33.790559 8.581597
21.811487 33.711487 12.886487
22.116473 32.517219 10.644747
27.690257000000003 34.944867 9.291458
27.548250000000003 34.896177 10.679287
27.761487000000002 33.711487 11.381886000000002
28.278754 32.592439 9.241465000000002
28.079459 33.790559 8.581597
27.761487000000002 33.711487 12.886487
28.066473000000002 32.517219 10.644747
27.690257000000003 28.994867 9.291458
27.548250000000003 28.946177 10.679287
27.761487000000002 27.761487000000002 11.381886000000002
28.278754 26.642439000000003 9.241465000000002
28.079459 27.840559 8.581597
27.761487000000002 27.761487000000002 12.886487
28.066473000000002 26.567219 10.644747
9.291458 34.944867 27.832717000000002
10.679287 34.896177 27.974724000000002
11.381886000000002 33.711487 27.761487000000002
9.241465000000002 32.592439 27.24422
8.581597 33.790559 27.443515000000005
12.886487 33.711487 27.761487000000002
10.644747 32.517219 27.456501000000003
9.291458 17.094867 15.932717
10.679287 17.046177 16.074724000000003
11.381886000000002 15.861487 15.861487
9.241465000000002 14.742439000000001 15.344220000000002
8.581597 15.940559 15.543515000000001
12.886487 15.861487 15.861487
10.644747 14.667219000000001 15.556501
9.291458 28.994867 27.832717000000002
10.679287 28.946177 27.974724000000002
11.381886000000002 27.761487000000002 27.761487000000002
9.241465000000002 26.642439000000003 27.24422
8.581597 27.840559 27.443515000000005
12.886487 27.761487000000002 27.761487000000002
10.644747 26.567219 27.456501000000003
9.291458 34.944867 15.932717
10.679287 34.896177 16.074724000000003
11.381886000000002 33.711487 15.861487
9.241465000000002 32.592439 15.344220000000002
8.581597 33.790559 15.543515000000001
12.886487 33.711487 15.861487
10.644747 32.517219 15.556501
40.281516 34.944867 27.690257000000003
38.893687 34.896177 27.548250000000003
38.19108800000001 33.711487 27.761487000000002
40.331509000000004 32.592439 28.278754
40.991377 33.790559 28.079459
36.686487 33.711487 27.761487000000002
38.92822700000001 32.517219 28.066473000000002
40.281516 23.044867000000004 21.740257
38.893687 22.996177000000003 21.59825
38.19108800000001 21.811487 21.811487
40.331509000000004 20.692439 22.328754000000004
40.991377 21.890559000000003 22.129459000000004
36.686487 21.811487 21.811487
38.92822700000001 20.617219 22.116473
40.281516 23.044867000000004 15.790257
38.893687 22.996177000000003 15.64825
38.19108800000001 21.811487 15.861487
40.331509000000004 20.692439 16.378754
40.991377 21.890559000000003 16.179459
36.686487 21.811487 15.861487
38.92822700000001 20.617219 16.166473000000003
40.281516 17.094867 21.740257
38.893687 17.046177 21.59825
38.19108800000001 15.861487 21.811487
40.331509000000004 14.742439000000001 22.328754000000004
40.991377 15.940559 22.129459000000004
36.686487 15.861487 21.811487
38.92822700000001 14.667219000000001 22.116473
15.932717 9.291458 34.944867
16.074724000000003 10.679287 34.896177
15.861487 11.381886000000002 33.711487
15.344220000000002 9.241465000000002 32.592439
15.543515000000001 8.581597 33.790559
15.861487 12.886487 33.711487
15.556501 10.644747 32.517219
27.832717000000002 9.291458 34.944867
27.974724000000002 10.679287 34.896177
27.761487000000002 11.381886000000002 33.711487
27.24422 9.241465000000002 32.592439
27.443515000000005 8.581597 33.790559
27.761487000000002 12.886487 33.711487
27.456501000000003 10.644747 32.517219
33.782717 9.291458 34.944867
33.924724 10.679287 34.896177
33.711487 11.381886000000002 33.711487
33.19422 9.241465000000002 32.592439
33.393515 8.581597 33.790559
33.711487 12.886487 33.711487
33.406501 10.644747 32.517219
33.782717 9.291458 17.094867
33.924724 10.679287 17.046177
33.711487 11.381886000000002 15.861487
33.19422 9.241465000000002 14.742439000000001
33.393515 8.581597 15.940559
33.711487 12.886487 15.861487
33.406501 10.644747 14.667219000000001
27.832717000000002 40.281516 26.528107
27.974724000000002 38.893687 26.576797
27.761487000000002 38.19108800000001 27.761487000000002
27.24422 40.331509000000004 28.880535000000002
27.443515000000005 40.991377 27.682415
27.761487000000002 36.686487 27.761487000000002
27.456501000000003 38.92822700000001 28.955755000000003
21.882717 40.281516 32.478107
22.024724 38.893687 32.526797
21.811487 38.19108800000001 33.711487
21.294220000000003 40.331509000000004 34.830535
21.493515000000002 40.991377 33.632415
21.811487 36.686487 33.711487
21.506501 38.92822700000001 34.905755
27.832717000000002 40.281516 14.628107
27.974724000000002 38.893687 14.676797
27.761487000000002 38.19108800000001 15.861487
27.24422 40.331509000000004 16.980535000000003
27.443515000000005 40.991377 15.782415
27.761487000000002 36.686487 15.861487
27.456501000000003 38.92822700000001 17.055754999999998
33.782717 40.281516 20.578107000000003
33.924724 38.893687 20.626797000000003
33.711487 38.19108800000001 21.811487
33.19422 40.331509000000004 22.930535
33.393515 40.991377 21.732415000000003
33.711487 36.686487 21.811487
33.406501 38.92822700000001 23.005755
18.836486999999998 38.162148 30.736487000000004
30.736487000000004 37.72993700000001 11.843037
18.836486999999998 24.786487 11.410826
11.410826 30.736487000000004 18.836486999999998
30.736487000000004 11.843037 37.72993700000001
30.736487000000004 38.162148 30.736487000000004
24.786487 38.162148 30.736487000000004
18.836486999999998 11.410826 18.836486999999998
24.786487 30.736487000000004 11.410826
37.72993700000001 30.736487000000004 11.843037
24.786487 11.843037 11.843037
18.836486999999998 11.410826 30.736487000000004
11.843037 11.843037 24.786487
37.72993700000001 24.786487 37.72993700000001
11.410826 30.736487000000004 24.786487
30.736487000000004 11.410826 24.786487
11.410826 18.836486999999998 18.836486999999998
12.886487 12.886487 18.836486999999998
12.886487 12.886487 30.736487000000004
12.886487 18.836486999999998 12.886487
12.886487 18.836486999999998 24.786487
12.886487 18.836486999999998 30.736487000000004
12.886487 18.836486999999998 36.686487
12.886487 24.786487 12.886487
12.886487 24.786487 18.836486999999998
12.886487 24.786487 24.786487
12.886487 24.786487 30.736487000000004
12.886487 24.786487 36.686487
12.886487 30.736487000000004 30.736487000000004
12.886487 30.736487000000004 36.686487
12.886487 36.686487 18.836486999999998
12.886487 36.686487 24.786487
12.886487 36.686487 30.736487000000004
18.836486999999998 12.886487 12.886487
18.836486999999998 12.886487 24.786487
18.836486999999998 18.836486999999998 12.886487
18.836486999999998 18.836486999999998 18.836486999999998
18.836486999999998 18.836486999999998 24.786487
18.836486999999998 18.836486999999998 30.736487000000004
18.836486999999998 18.836486999999998 36.686487
18.836486999999998 24.786487 18.836486999999998
18.836486999999998 24.786487 24.786487
18.836486999999998 24.786487 30.736487000000004
18.836486999999998 24.786487 36.686487
18.836486999999998 30.736487000000004 12.886487
18.836486999999998 30.736487000000004 18.836486999999998
18.836486999999998 30.736487000000004 24.786487
18.836486999999998 30.736487000000004 30.736487000000004
18.836486999999998 30.736487000000004 36.686487
18.836486999999998 36.686487 12.886487
18.836486999999998 36.686487 18.836486999999998
18.836486999999998 36.686487 24.786487
18.836486999999998 36.686487 36.686487
24.786487 12.886487 18.836486999999998
24.786487 12.886487 24.786487
24.786487 12.886487 30.736487000000004
24.786487 12.886487 36.686487
24.786487 18.836486999999998 12.886487
24.786487 18.836486999999998 18.836486999999998
24.786487 18.836486999999998 24.786487
24.786487 18.836486999999998 30.736487000000004
24.786487 18.836486999999998 36.686487
24.786487 24.786487 18.836486999999998
24.786487 24.786487 24.786487
24.786487 24.786487 30.736487000000004
24.786487 24.786487 36.686487
24.786487 30.736487000000004 18.836486999999998
24.786487 30.736487000000004 24.786487
24.786487 30.736487000000004 30.736487000000004
24.786487 30.736487000000004 36.686487
24.786487 36.686487 12.886487
24.786487 36.686487 18.836486999999998
24.786487 36.686487 24.786487
24.786487 36.686487 36.686487
30.736487000000004 12.886487 12.886487
30.736487000000004 12.886487 18.836486999999998
30.736487000000004 12.886487 30.736487000000004
30.736487000000004 18.836486999999998 12.886487
30.736487000000004 18.836486999999998 18.836486999999998
30.736487000000004 18.836486999999998 24.786487
30.736487000000004 18.836486999999998 30.736487000000004
30.736487000000004 18.836486999999998 36.686487
30.736487000000004 24.786487 18.836486999999998
30.736487000000004 24.786487 24.786487
30.736487000000004 24.786487 30.736487000000004
30.736487000000004 24.786487 36.686487
30.736487000000004 30.736487000000004 18.836486999999998
30.736487000000004 30.736487000000004 24.786487
30.736487000000004 30.736487000000004 30.736487000000004
30.736487000000004 30.736487000000004 36.686487
30.736487000000004 36.686487 18.836486999999998
30.736487000000004 36.686487 24.786487
30.736487000000004 36.686487 36.686487
36.686487 12.886487 18.836486999999998
36.686487 12.886487 24.786487
36.686487 12.886487 30.736487000000004
36.686487 18.836486999999998 12.886487
36.686487 18.836486999999998 18.836486999999998
36.686487 18.836486999999998 24.786487
36.686487 18.836486999999998 30.736487000000004
36.686487 18.836486999999998 36.686487
36.686487 24.786487 12.886487
36.686487 24.786487 18.836486999999998
36.686487 24.786487 24.786487
36.686487 24.786487 30.736487000000004
36.686487 30.736487000000004 18.836486999999998
36.686487 30.736487000000004 24.786487
36.686487 30.736487000000004 30.736487000000004
36.686487 30.736487000000004 36.686487
36.686487 36.686487 18.836486999999998
36.686487 36.686487 24.786487
36.686487 36.686487 30.736487000000004
32.905094 13.841239 40.877487
33.253914 15.990658000000002 42.072974
33.93874 18.033585000000002 40.815304
34.155304 17.943946 38.316549
32.954101 12.670722000000001 38.693952
33.522637 13.58239 37.22656
21.005094 25.741239 40.877487
21.353914000000003 27.890658000000002 42.072974
22.038740000000004 29.933585 40.815304
22.255304000000002 29.843946000000003 38.316549
21.054101000000003 24.570722000000004 38.693952
21.622637000000005 25.482390000000002 37.22656
26.955094000000003 19.791239 40.877487
27.303914 21.940658 42.072974
27.98874 23.983585000000005 40.815304
28.205303999999998 23.893946 38.316549
27.004101 18.620722 38.693952
27.572637 19.53239 37.22656
15.055094 13.841239 40.877487
15.403914 15.990658000000002 42.072974
16.08874 18.033585000000002 40.815304
16.305304 17.943946 38.316549
15.104101000000002 12.670722000000001 38.693952
15.672637 13.58239 37.22656
34.51788 31.691239000000003 8.695487
34.16906 33.840658 7.500000000000001
33.484234 35.883585000000004 8.757670000000001
33.26767 35.793946 11.256425
34.468873 30.520722 10.879022
33.900337 31.432389999999998 12.346414000000001
22.61788 31.691239000000003 8.695487
22.269060000000003 33.840658 7.500000000000001
21.584234000000002 35.883585000000004 8.757670000000001
21.36767 35.793946 11.256425
22.568873000000004 30.520722 10.879022
22.000337000000002 31.432389999999998 12.346414000000001
28.567880000000002 31.691239000000003 8.695487
28.21906 33.840658 7.500000000000001
27.534234000000005 35.883585000000004 8.757670000000001
27.31767 35.793946 11.256425
28.518873 30.520722 10.879022
27.950337000000005 31.432389999999998 12.346414000000001
28.567880000000002 25.741239 8.695487
28.21906 27.890658000000002 7.500000000000001
27.534234000000005 29.933585 8.757670000000001
27.31767 29.843946000000003 11.256425
28.518873 24.570722000000004 10.879022
27.950337000000005 25.482390000000002 12.346414000000001
8.695487 31.691239000000003 26.955094000000003
7.500000000000001 33.840658 27.303914
8.757670000000001 35.883585000000004 27.98874
11.256425 35.793946 28.205303999999998
10.879022 30.520722 27.004101
12.346414000000001 31.432389999999998 27.572637
8.695487 13.841239 15.055094
7.500000000000001 15.990658000000002 15.403914
8.757670000000001 18.033585000000002 16.08874
11.256425 17.943946 16.305304
10.879022 12.670722000000001 15.104101000000002
12.346414000000001 13.58239 15.672637
8.695487 25.741239 26.955094000000003
7.500000000000001 27.890658000000002 27.303914
8.757670000000001 29.933585 27.98874
11.256425 29.843946000000003 28.205303999999998
10.879022 24.570722000000004 27.004101
12.346414000000001 25.482390000000002 27.572637
8.695487 31.691239000000003 15.055094
7.500000000000001 33.840658 15.403914
8.757670000000001 35.883585000000004 16.08874
11.256425 35.793946 16.305304
10.879022 30.520722 15.104101000000002
12.346414000000001 31.432389999999998 15.672637
40.877487 31.691239000000003 28.567880000000002
42.072974 33.840658 28.21906
40.815304 35.883585000000004 27.534234000000005
38.316549 35.793946 27.31767
38.693952 30.520722 28.518873
37.22656 31.432389999999998 27.950337000000005
40.877487 19.791239 22.61788
42.072974 21.940658 22.269060000000003
40.815304 23.983585000000005 21.584234000000002
38.316549 23.893946 21.36767
38.693952 18.620722 22.568873000000004
37.22656 19.53239 22.000337000000002
40.877487 19.791239 16.66788
42.072974 21.940658 16.31906
40.815304 23.983585000000005 15.634234000000001
38.316549 23.893946 15.417670000000001
38.693952 18.620722 16.618873
37.22656 19.53239 16.050337
40.877487 13.841239 22.61788
42.072974 15.990658000000002 22.269060000000003
40.815304 18.033585000000002 21.584234000000002
38.316549 17.943946 21.36767
38.693952 12.670722000000001 22.568873000000004
37.22656 13.58239 22.000337000000002
15.055094 8.695487 31.691239000000003
15.403914 7.500000000000001 33.840658
16.08874 8.757670000000001 35.883585000000004
16.305304 11.256425 35.793946
15.104101000000002 10.879022 30.520722
15.672637 12.346414000000001 31.432389999999998
26.955094000000003 8.695487 31.691239000000003
27.303914 7.500000000000001 33.840658
27.98874 8.757670000000001 35.883585000000004
28.205303999999998 11.256425 35.793946
27.004101 10.879022 30.520722
27.572637 12.346414000000001 31.432389999999998
32.905094 8.695487 31.691239000000003
33.253914 7.500000000000001 33.840658
33.93874 8.757670000000001 35.883585000000004
34.155304 11.256425 35.793946
32.954101 10.879022 30.520722
33.522637 12.346414000000001 31.432389999999998
32.905094 8.695487 13.841239
33.253914 7.500000000000001 15.990658000000002
33.93874 8.757670000000001 18.033585000000002
34.155304 11.256425 17.943946
32.954101 10.879022 12.670722000000001
33.522637 12.346414000000001 13.58239
26.955094000000003 40.877487 29.781734999999998
27.303914 42.072974 27.632316000000003
27.98874 40.815304 25.589389000000004
28.205303999999998 38.316549 25.679028000000002
27.004101 38.693952 30.952252
27.572637 37.22656 30.040584000000003
21.005094 40.877487 35.731735
21.353914000000003 42.072974 33.582316
22.038740000000004 40.815304 31.539389
22.255304000000002 38.316549 31.629027999999998
21.054101000000003 38.693952 36.902252
21.622637000000005 37.22656 35.990584
26.955094000000003 40.877487 17.881735
27.303914 42.072974 15.732316
27.98874 40.815304 13.689389
28.205303999999998 38.316549 13.779028
27.004101 38.693952 19.052252000000003
27.572637 37.22656 18.140584
32.905094 40.877487 23.831735000000002
33.253914 42.072974 21.682316
33.93874 40.815304 19.639389
34.155304 38.316549 19.729028
32.954101 38.693952 25.002252
33.522637 37.22656 24.090584
19.700155000000002 38.496069000000006 30.158385000000003
17.904002 38.496069000000006 30.27758
18.905304 38.496069000000006 31.773497
18.040526 36.311745 31.269269
19.69587 36.311745 31.159418000000002
18.773063999999998 36.311745 29.780774
29.697934000000004 37.993743 11.634608
31.289675000000003 38.588191 12.229056
31.221851 37.316229 10.957094000000001
31.693621999999998 36.395986 13.125951
30.226666 35.84814 12.578106000000002
30.289172999999998 37.020387 13.750352000000001
17.803086999999998 24.89698 11.076905
19.448877000000003 25.626191 11.076905
19.257497 23.836289999999998 11.076905
19.788874 24.684656000000004 13.261229
18.272105000000003 24.012611 13.261229
18.448482 25.662194 13.261229
11.076905 29.720439 18.617921000000003
11.076905 31.055227000000002 19.825694
11.076905 31.433795000000003 18.065846
13.261229 31.672882 19.037917999999998
13.261229 30.442734 17.924829000000003
13.261229 30.093845 19.546714
31.470238000000002 11.086471 37.445606
31.007028 12.316473 38.675608000000004
29.732194 11.417815000000001 37.77695
30.060257999999997 13.631118 36.901153
30.487155 12.497542000000001 35.767576
31.662048 13.325750000000001 36.595784
29.726984 38.496069000000006 30.983525
31.45518 38.496069000000006 31.487223
31.027296999999997 38.496069000000006 29.738712
31.666850000000004 36.311745 30.508815
30.074135 36.311745 30.044605000000004
30.468474999999998 36.311745 31.656041000000002
25.801324 38.496069000000006 30.512365000000003
24.084973000000005 38.496069000000006 29.969673
24.473164000000004 38.496069000000006 31.727423
23.851208 36.311745 30.943040000000003
25.433006 36.311745 31.443185999999997
25.075247000000005 36.311745 29.823235000000004
19.735563 11.076905 19.357819
17.935462 11.076905 19.354444
18.838436 11.076905 17.797198
18.007894 13.261229 18.356023999999998
19.666876000000002 13.261229 18.359136
18.834691 13.261229 19.794301
25.75481 31.113946 11.076905
24.629215000000002 29.709165 11.076905
23.975436000000002 31.38635 11.076905
23.894075 30.388619 13.261229
24.93143 31.683272000000002 13.261229
25.533955 30.137570000000004 13.261229
38.564334 31.340017000000003 12.205199
38.036500000000004 29.701982 11.677365000000002
37.29733 31.167462 10.938195
35.870127000000004 30.180270999999998 12.600092
36.356582 31.689892 13.086547
37.037804 30.339298 13.76777
25.023795 10.891444 12.322395
23.791558000000002 11.819336 11.394503
25.544108 12.109978000000002 11.103861
24.567783 13.810855 12.492084000000002
25.703418 12.955705000000002 13.347234
24.08826 12.687848 13.615091000000001
19.861401 11.076905 30.908754000000002
18.174841999999998 11.076905 31.537955000000004
18.473218000000003 11.076905 29.762752
17.891921000000004 13.261229 30.577725
19.446262 13.261229 29.99785
19.171278 13.261229 31.633887
10.937324 12.276515 24.358225000000004
12.203973000000001 11.009866 24.180534
11.679461 11.534377000000001 25.820702000000004
13.768572 12.534367 25.181176
12.601222 13.701717 25.344936000000004
13.084615 13.218325 23.833349
37.453203 25.530860000000004 38.478906
37.766647000000006 23.786188000000003 38.165462000000005
38.678314 25.042413000000003 37.253795000000004
36.894151 24.100469000000004 35.948857000000004
36.605279 25.708368 36.237729
35.765082 24.550624 37.077926
11.076905 31.594825999999998 25.372472000000002
11.076905 30.814796 23.750151000000002
11.076905 29.799839 25.236838
13.261229 29.945437 24.24644
13.261229 30.664318 25.74158
13.261229 31.599705999999998 24.371441000000004
31.012881 11.076905 25.788351
29.730650000000004 11.076905 24.524919000000004
31.46593 11.076905 24.046191
30.481761 13.261229 23.863164000000005
31.663471 13.261229 25.027550000000005
30.064228999999997 13.261229 25.468747
11.076905 19.737307 18.318175000000004
11.076905 17.937205 18.315510000000003
11.076905 18.834949 19.875776000000002
13.261229 18.006286000000003 19.314166999999998
13.261229 19.66527 19.316622000000002
13.261229 18.837905 17.878672
33.381384000000004 13.488621 38.265816