3_train/201_cspbbr3_MA-Pyr-2-COO_3_0.60\201_cspbbr3_MA-Pyr-2-COO_3_0.60.xyz
1.0
42.109188 0 0
0 42.109188 0
0 0 42.109188
Br C Cs H N O Pb 
72 208 26 312 64 72 27 
Cartesian
15.104593999999999 15.104593999999999 18.079594
15.104593999999999 12.129593999999999 21.054594
15.104593999999999 15.104593999999999 24.029593999999996
15.104593999999999 12.129593999999999 27.004593999999997
15.104593999999999 15.104593999999999 29.979594
15.104593999999999 21.054594 12.129593999999999
15.104593999999999 18.079594 15.104593999999999
12.129593999999999 21.054594 15.104593999999999
15.104593999999999 21.054594 18.079594
15.104593999999999 18.079594 21.054594
12.129593999999999 21.054594 21.054594
15.104593999999999 21.054594 24.029593999999996
15.104593999999999 18.079594 27.004593999999997
15.104593999999999 21.054594 29.979594
15.104593999999999 24.029593999999996 15.104593999999999
12.129593999999999 27.004593999999997 15.104593999999999
15.104593999999999 27.004593999999997 18.079594
15.104593999999999 24.029593999999996 21.054594
15.104593999999999 27.004593999999997 24.029593999999996
15.104593999999999 24.029593999999996 27.004593999999997
18.079594 15.104593999999999 15.104593999999999
21.054594 15.104593999999999 18.079594
18.079594 15.104593999999999 21.054594
21.054594 15.104593999999999 24.029593999999996
18.079594 15.104593999999999 27.004593999999997
21.054594 21.054594 12.129593999999999
21.054594 18.079594 15.104593999999999
18.079594 21.054594 15.104593999999999
21.054594 21.054594 18.079594
21.054594 18.079594 21.054594
18.079594 21.054594 21.054594
21.054594 21.054594 24.029593999999996
21.054594 18.079594 27.004593999999997
18.079594 21.054594 27.004593999999997
21.054594 27.004593999999997 12.129593999999999
21.054594 24.029593999999996 15.104593999999999
18.079594 27.004593999999997 15.104593999999999
21.054594 27.004593999999997 18.079594
21.054594 24.029593999999996 21.054594
18.079594 27.004593999999997 21.054594
21.054594 27.004593999999997 24.029593999999996
21.054594 24.029593999999996 27.004593999999997
18.079594 27.004593999999997 27.004593999999997
21.054594 29.979594 15.104593999999999
21.054594 29.979594 21.054594
21.054594 29.979594 27.004593999999997
24.029593999999996 15.104593999999999 15.104593999999999
27.004593999999997 15.104593999999999 18.079594
24.029593999999996 15.104593999999999 21.054594
27.004593999999997 15.104593999999999 24.029593999999996
27.004593999999997 12.129593999999999 27.004593999999997
24.029593999999996 15.104593999999999 27.004593999999997
27.004593999999997 18.079594 15.104593999999999
24.029593999999996 21.054594 15.104593999999999
27.004593999999997 21.054594 18.079594
27.004593999999997 18.079594 21.054594
24.029593999999996 21.054594 21.054594
27.004593999999997 21.054594 24.029593999999996
27.004593999999997 18.079594 27.004593999999997
24.029593999999996 21.054594 27.004593999999997
27.004593999999997 24.029593999999996 15.104593999999999
24.029593999999996 27.004593999999997 15.104593999999999
27.004593999999997 27.004593999999997 18.079594
27.004593999999997 24.029593999999996 21.054594
24.029593999999996 27.004593999999997 21.054594
27.004593999999997 27.004593999999997 24.029593999999996
27.004593999999997 24.029593999999996 27.004593999999997
24.029593999999996 27.004593999999997 27.004593999999997
27.004593999999997 27.004593999999997 29.979594
29.979594 21.054594 15.104593999999999
29.979594 21.054594 21.054594
29.979594 21.054594 27.004593999999997
27.364278 15.443487 33.658679
27.746285 15.861312999999999 32.376357
27.004593999999997 15.104593999999999 31.450865999999998
26.389144 14.447619999999999 33.502663
27.004593999999997 15.104593999999999 29.979594
15.135129 26.511350999999998 33.658679
15.212072999999998 25.950469999999996 32.376357
15.104593999999999 27.004593999999997 31.450865999999998
14.993072 27.897878 33.502663
15.104593999999999 27.004593999999997 29.979594
20.575045 14.985206 33.658679
20.037384 14.807923999999998 32.376357
21.054594 15.104593999999999 31.450865999999998
21.912892999999997 15.376102 33.502663
21.054594 15.104593999999999 29.979594
20.891087 27.470948 33.658679
20.664527999999997 27.989773 32.376357
21.054594 27.004593999999997 31.450865999999998
21.404815 26.175294 33.502663
21.054594 27.004593999999997 29.979594
21.291038 20.620641 33.658679
21.598158999999995 20.145052 32.376357
21.054594 21.054594 31.450865999999998
20.575446 21.816704 33.502663
21.054594 21.054594 29.979594
26.672497 21.420561999999997 33.658679
26.261899 21.810328 32.376357
27.004593999999997 21.054594 31.450865999999998
27.649926 20.426947 33.502663
27.004593999999997 21.054594 29.979594
20.736371 14.726500999999999 8.450508999999998
20.340587999999997 14.321698999999999 9.732831
21.054594 15.104593999999999 10.658321999999998
21.67608 15.755861999999999 8.606525
21.054594 15.104593999999999 12.129593999999999
26.555064 20.849305 8.450508999999998
26.024011 20.653112 9.732831
27.004593999999997 21.054594 10.658321999999998
27.845183 21.376782 8.606525
27.004593999999997 21.054594 12.129593999999999
27.456696 26.805033 8.450508999999998
27.956165 26.5385 9.732831
27.004593999999997 27.004593999999997 10.658321999999998
26.205298999999997 27.418746999999996 8.606525
27.004593999999997 27.004593999999997 12.129593999999999
14.861305 26.574441 8.450508999999998
14.546688999999999 26.103777 9.732831
15.104593999999999 27.004593999999997 10.658321999999998
15.595754999999999 27.759017999999998 8.606525
15.104593999999999 27.004593999999997 12.129593999999999
26.633199999999995 14.778576999999999 8.450508999999998
26.181115 14.437800999999999 9.732831
27.004593999999997 15.104593999999999 10.658321999999998
27.716834999999996 15.655145999999998 8.606525
27.004593999999997 15.104593999999999 12.129593999999999
15.507053999999998 15.39138 8.450508999999998
15.991283999999998 15.684688999999999 9.732831
15.104593999999999 15.104593999999999 10.658321999999998
14.340326999999998 14.628893999999999 8.606525
15.104593999999999 15.104593999999999 12.129593999999999
8.450508999999998 20.573813 26.890268999999996
9.732831 20.014815 26.800660999999998
10.658321999999998 21.054594 27.004593999999997
8.606525 21.941671 27.157852999999996
12.129593999999999 21.054594 27.004593999999997
8.450508999999998 14.617754999999999 21.139494
9.732831 14.068824 21.277999
10.658321999999998 15.104593999999999 21.054594
8.606525 15.980063999999999 20.844958999999996
12.129593999999999 15.104593999999999 21.054594
8.450508999999998 15.433278999999999 26.635559
9.732831 15.777302999999998 26.185941
10.658321999999998 15.104593999999999 27.004593999999997
8.606525 14.548924999999999 27.712849
12.129593999999999 15.104593999999999 27.004593999999997
8.450508999999998 14.800089999999999 14.715366
9.732831 14.419030999999999 14.296674999999999
10.658321999999998 15.104593999999999 15.104593999999999
8.606525 15.702401 15.777662
12.129593999999999 15.104593999999999 15.104593999999999
8.450508999999998 27.449492999999997 20.839452
9.732831 27.939403999999996 20.555735
10.658321999999998 27.004593999999997 21.054594
8.606525 26.220165 21.496254999999998
12.129593999999999 27.004593999999997 21.054594
8.450508999999998 27.027752999999997 27.498238
9.732831 27.096305 28.060207
10.658321999999998 27.004593999999997 27.004593999999997
8.606525 26.906436 26.109741999999997
12.129593999999999 27.004593999999997 27.004593999999997
33.658679 27.497355 26.967081999999998
32.376357 28.063488999999997 26.966246999999996
31.450865999999998 27.004593999999997 27.004593999999997
33.502663 26.104458 27.016841
29.979594 27.004593999999997 27.004593999999997
33.658679 15.505256 14.815301
32.376357 15.987646 14.518975999999999
31.450865999999998 15.104593999999999 15.104593999999999
33.502663 14.343310999999998 15.585054999999999
29.979594 15.104593999999999 15.104593999999999
33.658679 15.524997999999998 27.264364999999998
32.376357 15.98312 27.596979999999995
31.450865999999998 15.104593999999999 27.004593999999997
33.502663 14.369765 26.484573999999995
29.979594 15.104593999999999 27.004593999999997
33.658679 15.085061999999999 21.548395
32.376357 15.020641 22.110852
31.450865999999998 15.104593999999999 21.054594
33.502663 15.196174999999998 20.159045
29.979594 15.104593999999999 21.054594
33.658679 27.114709999999995 14.622831999999999
32.376357 27.28159 14.081850999999999
31.450865999999998 27.004593999999997 15.104593999999999
33.502663 26.74969 15.96797
29.979594 27.004593999999997 15.104593999999999
33.658679 27.027541999999997 20.56094
32.376357 27.095852999999998 19.998942
31.450865999999998 27.004593999999997 21.054594
33.502663 26.906819 21.949486999999998
29.979594 27.004593999999997 21.054594
20.573129 8.450508999999998 21.166005
20.013599 9.732831 21.252226
21.054594 10.658321999999998 21.054594
21.942583 8.606525 20.906711
21.054594 12.129593999999999 21.054594
20.898941999999998 8.450508999999998 27.473627999999998
20.681128 9.732831 27.996184999999997
21.054594 10.658321999999998 27.004593999999997
21.390839 8.606525 26.169528999999997
21.054594 12.129593999999999 27.004593999999997
26.548983999999997 8.450508999999998 15.296010999999998
26.012167999999996 9.732831 15.475836999999999
27.004593999999997 10.658321999999998 15.104593999999999
27.854661 8.606525 14.808316999999999
27.004593999999997 12.129593999999999 15.104593999999999
14.858386 8.450508999999998 15.533081999999999
14.540576999999999 9.732831 16.001596999999997
15.104593999999999 10.658321999999998 15.104593999999999
15.600872999999998 8.606525 14.353527
15.104593999999999 12.129593999999999 15.104593999999999
20.663587999999997 8.450508999999998 15.406809999999998
20.191127 9.732831 15.718722999999999
21.054594 10.658321999999998 15.104593999999999
21.799788999999997 8.606525 14.599540999999999
21.054594 12.129593999999999 15.104593999999999
27.213915 8.450508999999998 20.606927
27.49122 9.732831 20.113357999999998
27.004593999999997 10.658321999999998 21.054594
26.5732 8.606525 21.844716999999996
27.004593999999997 12.129593999999999 21.054594
27.36224 33.658679 20.713552
27.741737 32.376357 20.293444
27.004593999999997 31.450865999999998 21.054594
26.393091999999996 33.502663 21.715244999999996
27.004593999999997 29.979594 21.054594
27.498627999999997 33.658679 15.092322
28.061971999999997 32.376357 15.036173999999999
27.004593999999997 31.450865999999998 15.104593999999999
26.107796 33.502663 15.183003
27.004593999999997 29.979594 15.104593999999999
15.592756 33.658679 26.927664999999998
16.143878 32.376357 26.798152
15.104593999999999 31.450865999999998 27.004593999999997
14.225814 33.502663 27.199888
15.104593999999999 29.979594 27.004593999999997
27.009035999999995 33.658679 26.510427
26.971972 32.376357 25.945507
27.004593999999997 31.450865999999998 27.004593999999997
27.05263 33.502663 27.903529999999996
27.004593999999997 29.979594 27.004593999999997
15.591164 33.658679 15.191021999999998
16.154398 32.376357 15.248268
15.104593999999999 31.450865999999998 15.104593999999999
14.210158999999999 33.502663 15.002711
15.104593999999999 29.979594 15.104593999999999
14.789200999999998 33.658679 20.674135999999997
14.39645 32.376357 20.266392
15.104593999999999 31.450865999999998 21.054594
15.721202 33.502663 21.710482
15.104593999999999 29.979594 21.054594
31.023044 18.079594 11.086143999999999
18.079594 24.029593999999996 31.455255
31.455255 18.079594 24.029593999999996
18.079594 31.455255 24.029593999999996
11.086143999999999 31.023044 18.079594
18.079594 11.086143999999999 11.086143999999999
18.079594 10.653932999999999 24.029593999999996
31.455255 24.029593999999996 24.029593999999996
24.029593999999996 24.029593999999996 31.455255
10.653932999999999 24.029593999999996 18.079594
18.079594 18.079594 31.455255
11.086143999999999 31.023044 24.029593999999996
10.653932999999999 18.079594 24.029593999999996
11.086143999999999 24.029593999999996 11.086143999999999
24.029593999999996 18.079594 10.653932999999999
24.029593999999996 10.653932999999999 24.029593999999996
18.079594 24.029593999999996 10.653932999999999
24.029593999999996 31.455255 18.079594
18.079594 31.023044 11.086143999999999
24.029593999999996 18.079594 31.455255
31.023044 31.023044 18.079594
11.086143999999999 18.079594 31.023044
31.455255 18.079594 18.079594
10.653932999999999 18.079594 18.079594
18.079594 31.455255 18.079594
31.023044 24.029593999999996 31.023044
11.086143999999999 11.086143999999999 24.029593999999996
24.029593999999996 24.029593999999996 10.653932999999999
12.129593999999999 12.129593999999999 18.079594
12.129593999999999 18.079594 12.129593999999999
12.129593999999999 24.029593999999996 24.029593999999996
12.129593999999999 24.029593999999996 29.979594
18.079594 12.129593999999999 18.079594
18.079594 12.129593999999999 29.979594
18.079594 18.079594 12.129593999999999
18.079594 18.079594 18.079594
18.079594 18.079594 24.029593999999996
18.079594 24.029593999999996 18.079594
18.079594 24.029593999999996 24.029593999999996
18.079594 29.979594 29.979594
24.029593999999996 12.129593999999999 12.129593999999999
24.029593999999996 12.129593999999999 29.979594
24.029593999999996 18.079594 18.079594
24.029593999999996 18.079594 24.029593999999996
24.029593999999996 24.029593999999996 18.079594
24.029593999999996 24.029593999999996 24.029593999999996
24.029593999999996 29.979594 12.129593999999999
24.029593999999996 29.979594 24.029593999999996
24.029593999999996 29.979594 29.979594
29.979594 12.129593999999999 18.079594
29.979594 12.129593999999999 24.029593999999996
29.979594 18.079594 29.979594
29.979594 24.029593999999996 18.079594
29.979594 29.979594 24.029593999999996
25.826350999999995 13.889318 34.245388
27.741110999999997 15.808150999999999 34.609187999999996
28.476934999999997 16.616830999999998 32.106038
25.521992999999995 13.624982 31.73549
14.923737 28.687581 34.245388
15.17451 25.988444 34.609187999999996
15.325688 24.905601999999995 32.106038
14.915142999999999 29.090610999999996 31.73549
22.676966999999998 15.587354999999999 34.245388
20.067923999999998 14.851745 34.609187999999996
19.030389 14.506896 32.106038
23.071771999999996 15.668821999999999 31.73549
21.686273 25.434201 34.245388
20.711002 27.963443999999996 34.609187999999996
20.271074 28.964376 32.106038
21.804134999999995 25.048693999999998 31.73549
20.178364 22.502825 34.245388
21.548052999999996 20.163556999999997 34.609187999999996
22.143366 19.246494 32.106038
19.999983 22.864332999999995 31.73549
28.197589 19.853796 34.245388
26.314954999999998 21.804159 34.609187999999996
25.520198999999998 22.555 32.106038
28.456178 19.544539999999998 31.73549
22.201996 16.34903 7.8637999999999995
20.393377 14.329841 7.499999999999999
19.627163 13.549895 10.00315
22.448876999999996 16.667710999999997 10.373698
28.574525 21.687419999999996 7.8637999999999995
26.075198999999998 20.637851999999995 7.499999999999999
25.048705999999996 20.261404 10.00315
28.934137 21.869591999999997 10.373698
25.488551 27.757432 7.8637999999999995
27.933558999999995 26.586895 7.499999999999999
28.896924999999996 26.069857999999996 10.00315
25.113468999999995 27.905152 10.373698
16.003656 28.438763 7.8637999999999995
14.597081999999999 26.121485999999997 7.499999999999999
13.987317 25.213969 10.00315
16.187741 28.797399 10.373698
28.325865 16.16261 7.8637999999999995
26.234528999999995 14.437923999999999 7.499999999999999
25.359876999999997 13.781885999999998 10.00315
28.617803000000002 16.440602 10.373698
13.683098999999999 14.185623999999999 7.8637999999999995
15.938132 15.689969 7.499999999999999
16.874645 16.254188 10.00315
13.364543999999999 13.938581 10.373698
7.8637999999999995 22.717371999999997 27.321329
7.499999999999999 20.062075999999998 26.775774999999996
10.00315 18.982106 26.605292999999996
10.373698 23.105461 27.430392999999995
7.8637999999999995 16.757253 20.688708999999996
7.499999999999999 14.102410999999998 21.236466999999998
10.00315 13.042933 21.506479999999996
10.373698 17.15686 20.635593
7.8637999999999995 14.037085999999999 28.318207
7.499999999999999 15.776794999999998 26.239351999999997
10.00315 16.439117 25.36945
10.373698 13.756998 28.608134999999997
7.8637999999999995 16.206777 16.389252
7.499999999999999 14.471496 14.306699
10.00315 13.733652999999999 13.499861
10.373698 16.442107 16.716554000000002
7.8637999999999995 25.515609999999995 21.859628999999998
7.499999999999999 27.918492999999998 20.604885
10.00315 28.863321 20.054702999999996
10.373698 25.145885 22.020285
7.8637999999999995 26.848912 25.319091999999998
7.499999999999999 27.059314 28.021676
10.00315 27.194291 29.106656
10.373698 26.846342999999997 24.915977999999996
34.245388 25.312717999999997 27.056646
34.609187999999996 28.020714999999996 26.934256999999995
32.106038 29.114058 26.935249999999996
31.73549 24.912327999999995 27.103499
34.245388 13.688863 16.032418
34.609187999999996 15.934461999999998 14.514028
32.106038 16.867435 13.943973999999999
31.73549 13.371856 16.281444999999998
34.245388 13.706334 26.050644
34.609187999999996 15.967376999999999 27.545938999999997
32.106038 16.850589 28.190405999999996
31.73549 13.355098 25.852803
34.245388 15.247888 19.367994
34.609187999999996 15.057348 22.072049999999997
32.106038 14.930347 23.157992999999998
31.73549 15.247494999999999 18.964872
34.245388 26.553213 16.735976
34.609187999999996 27.238366 14.113230999999999
32.106038 27.563139999999997 13.069237999999999
31.73549 26.479375999999995 17.132278999999997
34.245388 26.849632999999997 22.740161999999998
34.609187999999996 27.058878999999997 20.037489
32.106038 27.193391 18.952450999999996
31.73549 26.847237 23.143276999999998
22.71926 7.8637999999999995 20.747935
20.060709 7.499999999999999 21.277397999999998
18.979725000000002 10.00315 21.441334999999995
23.108002 10.373698 20.641224
21.659811999999995 7.8637999999999995 25.423814
20.727153 7.499999999999999 27.969079
20.304096 10.00315 28.977257
21.771183 10.373698 25.036381999999996
28.593181 7.8637999999999995 14.520176
26.062863999999998 7.499999999999999 15.492659
25.025317 10.00315 15.837473999999998
28.958205999999997 10.373698 14.349108999999999
16.013387 7.8637999999999995 13.676571999999998
14.591088 7.499999999999999 15.984231
13.975166 10.00315 16.887580999999997
16.199906999999996 10.373698 13.319194999999999
22.439285999999996 7.8637999999999995 14.131053999999999
20.244444 7.499999999999999 15.721931999999999
19.330574999999996 10.00315 16.322135
22.747996 10.373698 13.871813999999999
26.219046 7.8637999999999995 22.55395
27.442346 7.499999999999999 20.134908
27.980159999999998 10.00315 19.182985000000002
26.063224999999996 10.373698 22.925739
25.833655 34.245388 22.276908999999996
27.736882 34.609187999999996 20.346635999999997
28.467846 32.106038 19.533561
25.530885999999995 31.73549 22.543064
25.316069999999996 34.245388 15.223085
28.022635 34.609187999999996 15.072306
29.110326 32.106038 14.961277999999998
24.912998 31.73549 15.216768
13.446174 34.245388 27.343410999999996
16.109617 34.609187999999996 26.839129999999997
17.173367999999996 32.106038 26.586473999999995
13.045751999999998 31.73549 27.389986999999998
27.065914 34.245388 28.696159
27.006752999999996 34.609187999999996 25.986044
26.932572999999998 32.106038 24.895218999999997
27.045969 31.73549 29.098788
13.426326 34.245388 14.884208
16.108648 34.609187999999996 15.275836
17.196649 32.106038 15.383797999999999
13.032597999999998 31.73549 14.79769
16.242677 34.245388 22.307558
14.449176999999999 34.609187999999996 20.274928
13.688804999999999 32.106038 19.489286
16.487173 31.73549 22.628071999999996
31.983882 17.907300999999997 11.574746999999999
30.791294 17.278143 10.382158999999998
31.002308999999997 19.053337999999997 10.593174
29.046704999999996 18.238380999999997 11.726669999999999
30.145801 18.818216 12.825766
29.951327999999997 17.182186 12.631293
18.602539999999998 24.927732 31.789175999999998
17.040309999999998 24.033409 31.789175999999998
18.595931999999998 23.127640999999997 31.789175999999998
17.597645 23.201864999999998 29.604852
19.037402999999998 24.026078 29.604852
17.603734 24.860839 29.604852
31.789175999999998 17.728012 23.051578
31.789175999999998 19.102372 24.214123
31.789175999999998 17.408398 24.823080999999995
29.604852 18.403613 24.930938999999995
29.604852 17.136997 23.859530999999997
29.604852 18.698172 23.298313
17.820574 31.789175999999998 25.03609
19.080754999999996 31.789175999999998 23.750664
17.337452999999996 31.789175999999998 23.302028999999997
18.318308000000002 29.604852 23.102002
17.156919000000002 29.604852 24.286657999999996
18.763554999999997 29.604852 24.700122
11.414371 31.823506000000002 17.413894999999997
10.160198 30.569333999999998 17.721265
10.97551 31.384645 19.103622
11.874474 29.194508 18.693106
13.030325999999999 30.350360000000002 18.409832
12.278929999999999 29.598965 17.135844999999996
18.232661 11.576901999999999 10.123151
18.893296999999997 10.392854999999999 11.307198
17.112823999999996 10.580323 11.119729999999999
17.938526 11.724685 13.064468999999999
17.329681 12.815909 11.973244999999999
18.970574999999997 12.643137 12.146016999999999
18.287745 10.320011999999998 25.047826999999998
17.093702999999998 10.320011999999998 23.700741999999998
18.857334 10.320011999999998 23.340213999999996
17.887760999999998 12.504335999999999 23.091184999999996
18.988196000000002 12.504335999999999 24.332665999999996
17.362823999999996 12.504335999999999 24.66493
31.789175999999998 23.546037999999996 23.109648999999997
31.789175999999998 25.068067999999997 24.070794999999997
31.789175999999998 23.474675999999995 24.908338
29.604852 24.475240999999997 24.87742
29.604852 23.072530999999998 23.991622999999997
29.604852 24.541008999999995 23.219738999999997
24.879312999999996 24.628011 31.789175999999998
23.086489999999998 24.466262999999998 31.789175999999998
24.122979 22.994507999999996 31.789175999999998
23.246488999999997 23.478088999999997 29.604852
24.898762999999995 23.627156999999997 29.604852
23.943528999999998 24.983534999999996 29.604852
10.320011999999998 23.799709 17.066046999999998
10.320011999999998 23.266779 18.785454
10.320011999999998 25.022293999999995 18.387281
12.504335999999999 24.241456999999997 19.013683999999998
12.504335999999999 24.732608 17.42907
12.504335999999999 23.114716 17.796028
17.163469 18.570349 31.789175999999998
18.112650000000002 17.040829 31.789175999999998
18.962662 18.627603999999998 31.789175999999998
18.923899999999996 17.627311999999996 29.604852
18.049129 19.036924999999997 29.604852
17.265754 17.574545 29.604852
10.216619999999999 30.625754999999998 23.502606
10.844017 31.253152 25.068849999999998
11.489442999999998 31.898578 23.517325999999997
12.978328 30.298361999999997 24.515268999999996
12.400115 29.720149999999997 23.07181
11.805287 29.125321999999997 24.501703
10.320011999999998 18.799864 24.778816999999997
10.320011999999998 18.368305 23.03121
10.320011999999998 17.070613 24.278754999999997
12.504335999999999 17.415788999999997 23.339106
12.504335999999999 17.813516999999997 24.949709999999996
12.504335999999999 19.009476999999997 23.799965999999998
11.563856 23.782570999999997 10.136197
10.341842 23.278846 11.358210999999999
10.644382 25.027364 11.055671
11.736708 24.257252 13.052444999999999
12.862922 24.721486999999996 11.926230999999998
12.5841 23.110043999999995 12.205053999999999
24.798198999999997 17.380043 10.320011999999998
23.039462999999998 17.763737999999996 10.320011999999998
24.25112 19.095000999999996 10.320011999999998
23.321244 18.724303999999997 12.504335999999999
24.942104 18.370688 12.504335999999999
23.825434 17.14379 12.504335999999999
23.041866999999996 10.320011999999998 23.706297
24.803441 10.320011999999998 23.335845999999997
24.243474 10.320011999999998 25.046639
24.939887999999996 12.504335999999999 24.327545999999998
23.316412999999997 12.504335999999999 24.668956
23.832481 12.504335999999999 23.092279999999995
18.476753000000002 23.069182999999995 10.320011999999998
17.049273999999997 24.16585 10.320011999999998
18.712755 24.853749 10.320011999999998
17.713569999999997 24.914713999999996 12.504335999999999
19.029142 23.904019999999996 12.504335999999999
17.496069 23.270047999999996 12.504335999999999
24.600059 31.789175999999998 18.948324999999997
24.496705 31.789175999999998 17.151190999999997
22.992018 31.789175999999998 18.139266
23.50385 29.604852 17.278967
23.599103 29.604852 18.935215
24.985828999999995 29.604852 18.0246
19.099981 31.119633999999998 10.710498999999999
17.398514999999996 30.704068999999997 10.294934
17.740287000000002 31.953781999999997 11.544647
17.1392 29.843201 12.523166
18.707279999999997 30.226188 12.906153
18.392300999999996 29.074444999999997 11.754411
23.314537 17.325393 31.789175999999998
25.040278999999998 17.837437 31.789175999999998
23.733964999999998 19.075952 31.789175999999998
24.688593999999995 18.774669 29.604852
23.098141 18.302767 29.604852
24.302047 17.161346 29.604852
31.587656000000003 30.930667 17.149912999999998
30.525602999999997 31.99272 18.142111999999997
31.664226 30.854098 18.946756999999998
29.411868999999996 30.017353999999997 18.936393
30.390662999999996 29.038559999999997 18.021976
29.341302 30.087919999999997 17.280412
10.583229999999999 19.047976 30.992365
10.390414 17.268645999999997 30.799549
11.576435 17.922159999999998 31.985569999999996
12.640457999999999 17.187128 29.960492000000002
12.818157999999999 18.826968 30.138191999999997
11.725114999999999 18.224686 29.045149000000002
31.789175999999998 18.420454 17.097789999999996
31.789175999999998 18.759431999999997 18.865688999999996
31.789175999999998 17.058897 18.275303
29.604852 17.765456 18.984429999999996
29.604852 17.453052 17.355123999999996
29.604852 19.020274 17.899228
10.320011999999998 19.114632 17.985674
10.320011999999998 17.480738 17.230184
10.320011999999998 17.643411999999998 19.022923
12.504335999999999 17.125697 18.166151
12.504335999999999 18.631503000000002 18.862414
12.504335999999999 18.481581 17.210217
17.112546000000002 31.789175999999998 18.460307
18.892825000000002 31.789175999999998 18.726726
18.233410999999997 31.789175999999998 17.051749
18.970830999999997 29.604852 17.728727
17.330115999999997 29.604852 17.483193999999997
17.937835999999997 29.604852 19.026860999999997
31.35394 25.060204999999996 31.164383
30.580653999999996 23.630369 31.937669
31.842889999999997 23.398209 30.675432999999998
29.627263 23.079777999999997 29.80196
30.339926999999996 24.397523 29.089295999999997
29.176643999999996 24.611481999999995 30.252578
10.535298999999998 11.164753999999999 23.090435999999997
11.582505 10.117548 24.113712
10.432275999999998 11.267776999999999 24.884634
12.684631 12.104522 24.895126999999995
11.719521 13.069633 23.95207
12.779577999999999 12.009574999999998 23.241585
24.437984 23.073904 10.320011999999998
22.997748 24.153762999999998 10.320011999999998
24.653050999999998 24.861114999999998 10.320011999999998
23.653219999999997 24.910362999999997 12.504335999999999
24.980548999999996 23.915158999999996 12.504335999999999
23.455013 23.263259999999995 12.504335999999999
26.19547 14.251085999999999 32.169114
14.965824999999999 28.172455999999997 32.169114
22.177991 15.452641999999999 32.169114
21.505699 25.918470999999997 32.169114
20.434537 22.053936999999998 32.169114
27.842797999999995 20.229626 32.169114
21.861461999999996 15.960234999999999 9.940074
28.100251999999998 21.48202 9.940074
25.957175999999997 27.539451999999997 9.940074
15.740404 27.993989999999997 9.940074
27.930805999999997 15.829362999999999 9.940074
14.109834 14.47721 9.940074
9.940074 22.212294 27.211689
9.940074 16.249943000000002 20.787510999999995
9.940074 14.373171 27.925559999999997
9.940074 15.880358999999999 15.988532
9.940074 25.976383 21.625504999999997
9.940074 26.883294999999997 25.834789
32.169114 25.828741 27.027570999999995
32.169114 14.113769 15.738175
32.169114 14.140573999999999 26.330929999999995
32.169114 15.217293999999999 19.883929000000002
32.169114 26.678277 16.234495
32.169114 26.883795999999997 22.224450999999995
22.213527 9.940074 20.854513999999995
21.487395999999997 9.940074 25.911049
28.112834999999997 9.940074 14.710945999999998
15.747117 9.940074 14.119544999999999
22.024211 9.940074 14.43901
26.447140999999995 9.940074 22.090162999999997
26.200598999999997 32.169114 21.912935999999995
25.832398999999995 32.169114 15.200078
13.955032 32.169114 27.252916999999997
27.060381 32.169114 28.179347
13.936883 32.169114 14.964559
15.905053999999998 32.169114 21.916233
29.979594 18.079594 12.129593999999999
18.079594 24.029593999999996 29.979594
29.979594 18.079594 24.029593999999996
18.079594 29.979594 24.029593999999996
12.129593999999999 29.979594 18.079594
18.079594 12.129593999999999 12.129593999999999
18.079594 12.129593999999999 24.029593999999996
29.979594 24.029593999999996 24.029593999999996
24.029593999999996 24.029593999999996 29.979594
12.129593999999999 24.029593999999996 18.079594
18.079594 18.079594 29.979594
12.129593999999999 29.979594 24.029593999999996
12.129593999999999 18.079594 24.029593999999996
12.129593999999999 24.029593999999996 12.129593999999999
24.029593999999996 18.079594 12.129593999999999
24.029593999999996 12.129593999999999 24.029593999999996
18.079594 24.029593999999996 12.129593999999999
24.029593999999996 29.979594 18.079594
18.079594 29.979594 12.129593999999999
24.029593999999996 18.079594 29.979594