1_train/78_cspbbr3_methylammonium_4_0.40\78_cspbbr3_methylammonium_4_0.40.xyz
1.0
47.822086999999996 0 0
0 47.822086999999996 0
0 0 47.822086999999996
Br C Cs H N Pb 
240 34 78 204 34 64 
Cartesian
14.941587499999999 15.1569055 35.8835695
26.7607985 35.7292555 33.0207065
26.7570585 30.0475455 32.999602499999995
23.992599499999997 32.942528499999995 26.7031635
23.9885315 32.5974195 32.7508665
26.923613500000002 29.9572225 27.0760645
26.6999635 32.721258500000005 35.7925445
26.8240355 35.5920265 15.164935499999999
26.8124805 35.613046499999996 21.138817500000002
26.7606355 35.945541500000004 27.038292499999997
27.006600499999998 32.7240045 29.7617015
32.869902499999995 12.1927585 15.205814499999999
32.8681355 15.012672499999999 11.7708885
26.970958500000002 32.5957995 23.9360765
29.988753499999998 14.829245499999999 14.7696805
15.1002665 12.0763605 33.0403185
32.9206905 15.1412425 17.7791705
33.0622105 12.1049395 20.9083565
30.0526045 15.101459499999999 21.1194565
14.9928335 15.0484795 29.6489705
32.982639500000005 15.0023985 24.0170175
33.0380575 11.9800575 26.7894845
29.7559875 14.8764965 27.066269499999997
32.8849975 14.782197499999999 29.7652485
32.859761500000005 12.114867499999999 32.6902355
12.0152515 15.1579975 32.8982005
23.998585499999997 32.606536500000004 20.9725535
11.9107665 26.7561055 32.9548475
26.8674125 33.043916499999995 17.9079725
27.043989500000002 18.1115015 20.9879655
23.9293625 20.9958325 21.1463145
15.1674625 17.8679605 20.7997685
26.9657055 20.9614915 23.743111499999998
26.957226499999997 17.8812665 26.737962500000002
23.6422085 20.9055885 26.915232500000002
14.8047495 20.8507095 17.7755845
26.7469325 21.0976335 29.8877395
26.846458499999997 18.164170499999997 33.0464915
23.8290935 21.0368715 32.6156905
26.7262085 21.0696365 35.9828195
26.9055635 26.7796885 11.7965745
27.002415499999998 24.012466500000002 14.875631499999999
23.7106595 26.7560035 15.0008895
26.7347375 26.6775515 17.9462785
27.0662165 23.9716405 21.0716295
23.9953315 26.947539499999998 21.0917435
29.7288735 15.2155615 32.793077499999995
24.0337775 33.015330500000005 14.832269499999999
26.7061275 29.7651115 15.067845499999999
26.8770745 32.9605425 11.8708235
15.0642895 20.7811585 11.877931499999999
26.600001499999998 26.8871235 35.880495499999995
26.822978499999998 29.6882285 20.7862385
23.8417815 26.971106499999998 32.655711499999995
26.690050499999998 26.9253075 29.7813365
15.187652499999999 17.8914565 14.9144595
24.0964575 27.0483145 26.9607185
26.968331499999998 23.9790165 26.6518585
26.883162499999997 27.0422315 23.780167499999997
11.8667295 21.0302835 14.8957015
26.801927499999998 24.0712275 32.8536875
32.7845625 15.1794835 35.609337499999995
32.8995625 17.7665695 15.106147499999999
32.8001145 20.7458475 11.8869495
33.005463500000005 29.7118455 20.8809435
29.9444215 32.6932615 21.1265935
14.9431735 11.7317305 15.0384695
32.642574499999995 32.653645499999996 23.964758500000002
32.777283499999996 29.9773845 27.0995405
29.7276245 32.9988965 26.883286499999997
15.1020365 14.972723499999999 11.7545785
32.9602035 32.9915855 29.9356225
32.6824105 29.6776125 33.0169635
29.9327485 32.9239995 33.0035005
32.840506500000004 33.045852499999995 35.8514975
32.9657885 35.7241355 14.7752245
32.6572695 35.899863499999995 21.102503499999997
32.784133499999996 36.0233895 26.757420500000002
32.6709925 35.8858075 32.713074500000005
35.8830885 14.852731499999999 15.090581499999999
35.634812499999995 15.131178499999999 20.8903655
35.9179475 33.0075245 32.8681505
35.7794265 32.8958455 27.0670835
35.824749499999996 32.9850155 21.182533499999998
36.0405375 33.024255499999995 14.9881725
35.617782500000004 26.6901795 32.7192345
35.700618500000004 26.7739435 26.638675499999998
32.7703975 32.8286515 17.6734355
35.9868265 26.9820185 20.890044500000002
35.684434499999995 21.0038415 32.6205935
35.974988499999995 20.8335645 27.112447500000002
35.6961845 21.1699895 21.0812375
35.6217365 20.8183695 15.038767499999999
35.773765499999996 15.162758499999999 32.813216499999996
14.8851525 23.791438499999998 32.971757499999995
35.9208125 27.056735500000002 15.0777965
12.0311445 14.868102499999999 26.7064465
11.966884499999999 15.1927045 14.795861499999999
33.0974225 29.798917499999998 14.971024499999999
26.9942985 20.830678499999998 18.081936499999998
29.6856215 20.8022275 14.9936625
14.956640499999999 12.2358475 27.0563505
33.0189135 20.8404465 17.8158815
32.8262105 17.7961225 20.8052075
29.8062005 21.1126055 21.0642905
14.9653195 14.8065105 23.9927835
33.003741500000004 21.062979499999997 23.9594435
32.646516500000004 17.8555185 26.9817855
29.8019425 20.7593375 26.811311500000002
32.8172225 20.8059955 30.1208445
32.6256955 17.8022205 32.7425165
30.0037905 20.9989055 32.994468499999996
32.638122499999994 21.021949499999998 35.768105500000004
12.1903325 14.9953325 20.8580175
33.1184815 26.9288485 12.0089125
33.0036805 23.7512715 14.9783015
32.9932275 32.6792315 11.962365499999999
32.6805595 26.7696665 36.0054925
29.9649055 27.0006335 32.7343235
32.930027499999994 24.071921500000002 32.9752225
32.6806335 27.1242895 29.7807515
29.6842455 26.8697685 27.1055735
29.7090575 32.6612305 15.1426455
32.6547645 23.936660500000002 26.7770045
14.972500499999999 15.0065405 17.7186915
29.9814135 26.644402499999998 21.0487855
32.9781265 24.0366915 21.0358725
32.7659175 26.9077825 17.7322585
14.9099165 11.9639735 20.7519505
30.0668345 26.707105499999997 15.1037235
32.8905995 26.6814145 23.9712285
11.8208895 20.9617705 21.1072065
35.8228275 15.1954035 26.6726295
14.752319499999999 29.8410605 26.7823675
15.123718499999999 35.8688715 20.774758499999997
15.0833815 23.8287035 14.854367499999999
14.9136795 35.7035385 15.119166499999999
21.1371835 27.0190515 12.1853565
20.9535785 23.7400765 14.8187315
18.1378915 26.988912499999998 14.8496565
15.0573465 32.9907025 35.6449175
11.9819895 32.6035865 32.7998195
14.7730265 26.8433735 11.937946499999999
15.1597675 29.6921445 32.6932305
20.7774925 27.048049499999998 18.1185455
20.7616415 24.0130325 20.976245499999997
20.793246500000002 21.1873325 35.7907875
18.0402925 27.1575965 20.9778125
21.1406275 27.042001499999998 23.9962855
20.951226499999997 23.7824925 27.1119195
18.2368055 26.8879545 26.9881365
15.0745855 24.124916499999998 26.7814945
14.8790525 20.7947055 35.6019965
20.7839345 27.0790845 29.9428095
20.8786075 23.7432645 33.043691499999994
17.8119555 26.7313495 32.6868915
20.874056500000002 26.7418125 35.6678955
11.8702925 33.018041499999995 26.7194205
20.6732285 15.0778675 23.9860735
21.036516499999998 32.6094265 11.8929265
14.8600815 32.9905725 29.8745075
18.0185815 21.0439705 32.5713535
20.9099515 17.9486865 33.051278499999995
21.0992995 20.885056499999997 29.7392675
20.9313025 12.2383245 26.810418499999997
17.8232705 14.9732555 27.136452499999997
14.7863145 23.7725245 20.8212015
20.7424435 15.1083585 30.0055255
20.7214505 12.1785445 32.887863499999995
17.7611715 14.9927545 21.0816925
17.767238499999998 15.0805025 32.7838735
20.9750475 12.197177499999999 20.8214715
20.9053095 14.9639055 35.9993295
20.8202905 14.8758305 17.784591499999998
14.7803685 26.810584499999997 18.1277385
20.8614675 20.7851665 11.920223499999999
21.0212305 18.098270499999998 14.7783845
17.9967185 21.0993285 14.9047015
17.7965225 14.9731575 15.1943165
20.9460245 20.966002500000002 18.2013945
20.8155195 17.9064835 21.1098805
18.1579515 20.9706935 20.9012545
21.0314075 12.1571075 15.1465775
20.8903075 14.877746499999999 12.1925445
15.1201265 26.970301499999998 24.0705775
21.1076355 21.1244525 23.782169500000002
20.7332325 17.8763615 26.7224025
17.8990935 21.0102175 26.6973355
14.824365499999999 35.706819499999995 32.6134675
15.0561775 35.7375745 27.0939435
12.0795085 26.7008595 14.9902295
20.760692499999998 30.076721499999998 15.0279625
14.9591105 32.841787499999995 24.1929615
11.8691575 27.0925135 21.018361499999997
27.0674715 15.0086905 12.044086499999999
20.749598499999998 35.9185065 14.9941105
21.1096935 35.6418215 21.0179445
21.1905945 35.7516315 26.9159305
11.971204499999999 32.8652785 14.7874135
14.8572625 29.9295185 15.1540395
20.9715865 35.6480065 32.7182405
26.9473275 11.8333785 32.9679705
26.717715499999997 15.0637645 30.0359505
17.7338715 32.7356345 15.127276499999999
26.7161165 12.1520215 15.090764499999999
24.1252305 14.8076265 14.9778555
14.7913915 33.0200825 11.9801675
12.156601499999999 21.1065285 26.7712935
15.1187405 27.0422545 29.8738485
14.9361345 21.060826499999997 23.7117955
26.9952885 15.011516499999999 17.714664499999998
27.033775499999997 11.813345499999999 20.9600235
23.8248245 15.008269499999999 20.6685935
15.060710499999999 18.108050499999997 27.0244325
15.0475015 26.6842215 35.9291945
26.8117795 15.116992499999999 23.788275499999997
24.0942065 15.1564485 32.741305499999996
23.7257295 14.8628865 26.7234455
21.0117155 32.7237055 35.964203499999996
18.0792675 32.9662995 32.7018805
12.2262775 20.8311735 33.0134075
11.9173805 27.0138875 27.0288315
20.743339499999998 33.0457575 17.9891725
20.8319215 29.8152605 21.1327875
17.7185245 32.9121265 20.8704845
27.0345075 18.0227015 14.8330305
26.9008015 20.711934499999998 12.140701499999999
11.897591499999999 32.937903500000004 21.0756425
20.8101135 32.979600500000004 23.825325499999998
14.9151925 18.0421525 32.6190345
20.8301745 29.7148605 26.724998499999998
26.7696405 14.835621499999998 35.7349765
14.8028035 30.0296745 20.9655185
17.8177595 32.7117325 27.0006295
15.0165685 21.048627500000002 29.6937255
20.900563499999997 32.9510265 30.0626165
14.873343499999999 33.0085605 18.1430395
20.8925825 30.1255205 32.8169385
24.0379665 21.0020605 15.1035785
27.0455425 11.9023395 27.0409015
29.9362155 36.9113435 10.9142835
10.8982865 23.9292075 11.0245825
29.9427205 37.2917655 23.9480985
10.9170275 29.9155065 36.826395500000004
29.8186695 37.2127395 17.9703295
23.8567115 37.3461645 17.970087499999998
10.4654305 23.8741555 23.926747499999998
10.9506865 10.882766499999999 29.8000365
36.9189155 29.8391815 36.9337465
29.912771499999998 10.4507795 18.0056765
29.9209755 37.240455499999996 29.8969705
23.9017175 37.3283695 29.9501535
11.0487775 36.8887625 17.9947595
17.9561335 37.2847285 18.0551175
10.4774575 23.8711855 29.811504499999998
17.9236395 10.5859505 29.8167725
23.8596005 36.8981985 10.9120615
29.9291295 29.8749735 37.358887499999994
10.9243825 23.9792925 36.8925475
37.2777825 23.9847465 29.8518945
29.8843515 10.4634915 29.8335965
29.786050499999998 23.935511499999997 37.3378485
37.2626555 29.9019095 29.7990165
10.9117895 36.899711499999995 29.8779645
17.9248485 11.0385375 10.9473495
36.8184585 17.9373055 36.7863035
18.0198085 17.8865995 37.3351585
23.8625325 29.9263335 10.5252815
23.9944925 10.9921315 10.934820499999999
29.8272605 36.775715500000004 36.8767925
10.5480045 18.0087965 29.9360675
10.5285315 17.8879285 23.8428145
23.8620195 10.4630665 23.8788625
10.859185499999999 10.960630499999999 23.9232505
35.5423745 36.0706505 18.107380499999998
36.2097565 35.665420499999996 23.492548499999998
18.4078575 11.8266625 18.2120905
36.055884500000005 35.5652475 30.033990499999998
30.3064945 30.0363065 17.970498499999998
17.9615845 12.061460499999999 23.5278055
36.2415715 17.8057375 17.601059499999998
12.6172025 29.8706815 12.025584499999999
35.8766275 17.6748715 12.2917835
36.2724475 11.8631225 30.0046465
11.6669965 29.5470975 29.7033215
36.1435955 17.5838425 23.6540155
35.3840495 12.122657499999999 18.309675499999997
36.0722355 17.686825499999998 29.946910499999998
35.6902405 23.5992355 11.6546375
12.2042495 29.4717695 18.1862135
35.4896525 23.785849499999998 23.5412885
35.5495555 23.6529015 35.6168045
11.7191955 36.0907205 24.1544535
35.5972165 29.7128285 12.451741499999999
35.5979645 29.5940395 17.6630045
29.3474355 29.7818775 30.132492499999998
35.3279005 29.9742525 24.0262965
29.9222975 30.0844905 23.5653675
24.1054155 18.2865815 18.1392565
35.9727225 24.2747775 17.5479485
30.0897015 30.2702815 11.681744499999999
18.0343535 30.4495735 17.918321499999998
24.1479745 30.258909499999998 35.907456499999995
17.6905155 29.6176235 23.494690499999997
23.752359499999997 30.2387615 30.1596465
11.8877065 17.9754145 11.522233499999999
23.891118499999997 29.5171795 23.4768105
18.4697315 29.8794145 29.6160615
24.2396495 30.168909499999998 17.700815499999997
17.4328615 30.1362015 35.7897605
17.661409499999998 35.8115815 12.3051815
24.2690965 24.1806955 29.877384499999998
17.5736965 35.4879615 36.0559205
23.7147785 23.657245500000002 23.627615499999997
24.3286225 11.780799499999999 17.6754955
12.0406785 17.5911885 17.6234375
23.922127500000002 24.3024725 18.3279225
24.2638355 23.977469499999998 12.3313825
23.7335295 18.3715445 35.8395965
24.1640705 12.4626615 29.9435395
23.5862445 17.5968055 29.532839499999998
23.7337135 11.976160499999999 36.3057515
24.2304175 17.6714165 23.7729155
23.776511499999998 17.6758815 12.354027499999999
23.7355965 36.2162955 23.5779785
23.723909499999998 36.3371575 35.8863445
17.6894465 36.117189499999995 29.6910245
11.8744195 18.1410645 36.1590985
29.5316755 24.1420465 29.8725975
29.6240375 12.3851405 11.677614499999999
17.7367575 11.7117345 36.1487105
18.2030345 17.565371499999998 11.8875915
29.6415135 24.1964265 24.1929965
30.2080555 24.2028665 18.2268635
17.6104765 18.0367675 18.3498925
29.3212315 24.1670125 12.091782499999999
30.0120635 17.5806535 36.118844499999994
12.5478735 23.8602875 17.7588535
29.4150395 17.6046435 29.8037555
17.7300825 18.2605385 29.5967865
17.5620585 17.7624165 24.2660315
17.7454785 23.9667325 36.3676525
18.2961315 24.0719945 12.360801499999999
29.4898025 17.5797265 17.8305425
17.9185175 24.0768105 18.3857925
30.1883115 17.7247615 12.1476145
29.6283775 12.1985235 36.0570615
18.2434805 23.9596115 24.1618555
18.2517055 23.5523965 30.2012685
29.4684295 12.1931845 23.5599515
30.2255695 17.9821655 23.6028415
17.8513285 29.8359155 12.3856065
24.0671655 34.886045499999994 11.5901245
23.0268445 35.7374885 12.5246215
24.6390625 35.9620265 12.7438275
17.180915499999998 11.8578305 12.7050695
24.873417500000002 36.8251255 10.501341499999999
17.8485735 12.935475499999999 11.622567499999999
23.6950355 37.8320705 11.4357695
18.8130425 12.0165125 12.5735835
17.025757499999997 11.0051655 10.4104785
23.8535315 12.9200115 11.6210155
11.8570005 23.169244499999998 35.1338495
23.1026755 36.602341499999994 10.273612499999999
28.931247499999998 10.222137499999999 29.3115815
12.9208345 23.7562475 36.1922905
29.8140525 10.2208215 30.9187115
30.737585499999998 10.1899505 29.3491245
29.8525715 12.4028055 28.8903075
10.286645499999999 11.1733385 23.0437755
11.4257975 10.0260565 23.793988499999998
10.4135575 11.0040435 24.852383500000002
30.7080665 12.4043675 30.328349499999998
23.0722955 11.8986625 12.640777499999999
28.9982215 12.353503499999999 30.3428775
9.9824235 24.0777665 36.3822585
11.5696745 34.8693215 17.8878505
12.668716499999999 35.9405725 17.1467575
12.604345499999999 35.8701415 18.835890499999998
11.4328215 37.8271435 18.045232499999997
10.9702975 22.9769955 37.337447499999996
10.3087655 36.7216125 18.8458225
10.434554499999999 36.7384565 17.0439895
11.1714525 24.7144495 37.5517695
12.0563065 24.8393255 35.3367705
17.6322585 18.9594915 37.5885125
23.6979585 37.619806499999996 28.875331499999998
17.9138105 37.6416975 18.9709295
29.3865145 37.5939165 28.9311625
18.6322065 18.6517935 35.4484955
29.2765215 37.6325195 30.7598485
28.9414665 35.4321755 29.8150995
30.2618095 35.454432499999996 30.7392025
30.372210499999998 35.4191395 29.0840855
12.5177485 12.0151545 23.056873500000002
18.2689415 17.0793455 35.4514845
24.712638499999997 29.2522795 10.2052815
22.9247525 29.494732499999998 10.2196205
30.8665275 37.6193045 29.9369645
24.0091575 30.8948165 10.179088499999999
18.9669015 17.7786935 37.6438345
24.827090499999997 30.1964005 12.3874225
17.2552605 17.2017025 37.598817499999996
23.813086499999997 28.9127925 12.403010499999999
30.8836115 10.1678935 17.6933305
29.5775015 10.1765325 18.9376425
29.1687525 10.230914499999999 17.2027845
28.9610925 12.3697425 18.206649499999997
30.095785499999998 12.4127345 17.0468935
30.4901545 12.3719345 18.6546405
23.1838965 30.4586195 12.3917755
17.0055525 18.1757565 35.4159035
12.3330295 30.8465535 35.5710485
12.841058499999999 29.3299515 36.069835499999996
18.8862725 37.6509805 17.4588765
18.7453315 35.4424675 18.4944655
24.779273500000002 11.951841499999999 12.624055499999999
17.9799275 35.4687665 17.008536499999998
17.0893695 35.4407035 18.3890965
23.962681500000002 10.015060499999999 11.4428545
23.103620499999998 37.6453405 30.5065685
24.7825365 11.1260785 10.3717635
24.914913499999997 37.6456805 30.203760499999998
24.0997945 35.4349065 30.8343655
24.6677665 35.4483855 29.2231855
23.008967499999997 35.412488499999995 29.5623045
23.0014465 11.0914445 10.3578235
30.7862985 36.7909625 10.422392499999999
28.9713605 36.6946655 10.359598499999999
29.776594499999998 37.7967165 11.440526499999999
29.0262895 35.8174445 12.5938255
30.6394045 35.954387499999996 12.643542499999999
29.9314005 34.8540245 11.5689685
11.4262765 30.3038825 37.7599875
10.1414885 30.476560499999998 36.4884555
10.688205499999999 28.8600955 37.022000500000004
11.6619175 29.4412795 34.9810765
17.0680275 37.598521500000004 17.391557499999998
18.085600499999998 10.0099835 11.4417195
22.9321645 37.5811505 18.3342155
35.4659855 30.2127435 28.9601385
12.073888499999999 35.3345415 28.9020535
11.7806065 35.088562499999995 30.5689535
24.043490499999997 37.6614255 16.9463245
24.7333665 37.6544375 18.626948499999997
23.7780855 35.4332395 18.9504965
24.789575499999998 35.4060525 17.5977465
23.169109499999998 35.460871499999996 17.3874325
10.483487499999999 10.9639165 28.8967165
11.457746499999999 10.042624499999999 30.0691165
10.257073499999999 11.2142435 30.6078215
12.4595585 12.0518305 30.7535395
11.5808725 12.9149475 29.6623415
12.767991499999999 11.8256255 29.1817685
10.2028625 23.1523295 23.1929395
10.219139499999999 23.6765185 24.9115095
10.2177955 24.9112215 23.5594515
12.3613775 24.6014935 24.5491255
12.4131295 24.0887875 22.9489235
12.3889975 22.9892395 24.1795305
29.534764499999998 37.6436525 16.9640805
29.1716855 37.5914625 18.7326325
30.8846725 37.6451225 18.2202725
30.1671705 35.403308499999994 18.8779225
30.5362155 35.4645705 17.2550365
28.9500635 35.457438499999995 17.7174605
12.9551365 36.176010500000004 30.0851665
30.6923295 37.5843895 24.4902895
11.2430475 37.6174235 29.140296499999998
10.0204585 36.3975065 29.5799765
12.6691045 11.8951835 24.6512855
10.1805965 16.966427499999998 29.7345135
10.1835585 18.3706825 30.7905095
10.1807525 18.574284499999997 29.0676165
12.4183825 18.9064495 29.9759735
12.404439499999999 17.618837499999998 29.005477499999998
12.363538499999999 17.3967295 30.6276725
28.9925825 37.5187685 36.7107175
29.8020475 36.3169525 37.8121125
30.7809775 37.4408615 36.7792835
30.6753555 35.1861415 35.945269499999995
29.920917499999998 36.2524715 34.8683465
28.9752205 35.2756225 35.8379075
10.214302499999999 16.885506499999998 23.9362865
10.184462499999999 18.4835775 24.7716325
10.2323455 18.4970875 23.0242735
12.3604795 18.9235745 23.8780935
12.3727445 17.5076675 23.0588045
12.352665499999999 17.4760465 24.7556995
24.7286905 10.2165575 23.3150485
24.0548795 10.177538499999999 24.929722499999997
22.9527325 10.1785695 23.5257565
23.1422945 12.3765545 24.4438565
23.7730515 12.3897845 22.9708085
24.7526145 12.3969495 24.2981195
10.9432435 37.3260625 30.8351815
29.9695425 37.6433715 22.882527500000002
28.9320195 37.5871675 24.347482499999998
29.058048499999998 35.4629955 23.377933499999997
18.9210745 12.398061499999999 30.1065435
17.2553315 12.363028499999999 30.5094755
28.8619775 29.9373655 37.6301495
30.3277035 28.9350015 37.6482375
30.4591145 30.6996185 37.6398665
30.8216095 29.8339975 35.4525785
29.4533555 30.7502595 35.4145405
29.3572555 29.0967685 35.443293499999996
37.6054545 23.875777499999998 30.8879695
37.621585499999995 23.0622465 29.2530465
37.6512375 24.8423405 29.3976135
35.4441425 23.9821265 28.9499095
35.406197500000005 24.6858695 30.3975985
35.4526195 23.0703115 30.3068225
29.6091145 24.926567499999997 37.6503675
29.1193515 23.2104435 37.5991845
30.8306195 23.6175155 37.6141095
30.0794435 22.9975905 35.4750885
30.5436685 24.6118475 35.4280725
28.9145725 24.194387499999998 35.4482055
37.6428625 29.1699975 29.0926045
37.587875499999996 30.8749915 29.6723715
37.5976815 29.4766185 30.8227255
35.4647935 30.4537975 30.5841355
35.458845499999995 28.934617499999998 30.0166935
17.7354645 12.359287499999999 28.9505505
18.7294725 10.2223185 29.1177235
16.9328025 10.2087255 29.6098815
18.208910499999998 10.1831935 30.8990225
29.8092575 35.415927499999995 24.888847499999997
30.7340385 35.3959395 23.4840105
11.093572499999999 22.980154499999998 10.4260785
10.0383435 23.958419499999998 11.4847305
11.1423695 24.7640345 10.307131499999999
11.9724445 24.779286499999998 12.621456499999999
12.969716499999999 23.8521775 11.6217825
11.9433055 23.125611499999998 12.6541085
36.6078785 30.6119545 37.5908525
36.876994499999995 28.862177499999998 37.3183265
37.768947499999996 30.1121075 36.4104065
36.0037495 29.2039185 35.078250499999996
18.776984499999998 11.1909155 10.295683499999999
35.7021465 30.7506955 35.3824155
36.389300500000004 17.8539235 37.8464515
37.5528575 17.1058225 36.671321500000005
37.381390499999995 18.9421935 36.7788415
36.2351125 18.0869885 34.9009415
35.1284855 18.7612575 35.9642855
35.2675095 17.0778405 35.7830075
10.1737235 24.9634255 30.037197499999998
10.2223815 23.5008775 28.8803825
10.2322695 23.2553805 30.701780499999998
12.360654499999999 22.9492435 29.7397085
12.3990475 24.2813395 30.7883435
12.369358499999999 24.4737425 29.1179445
34.8849595 29.5848105 36.191038500000005
11.5749535 12.924037499999999 23.9981425
35.873313499999995 23.835061500000002 29.8263925
29.8906155 35.7580235 17.9990235
11.948933499999999 12.057126499999999 23.8597725
12.0853155 23.865537500000002 35.8582865
12.0007425 29.9153975 35.762471500000004
11.9905815 17.8914115 23.8409025
29.837798499999998 35.7317515 23.9546155
29.865198499999998 29.833927499999998 35.908632499999996
12.0256445 23.8519515 11.9350085
29.7919435 35.8588345 29.8150775
29.9556965 35.8326905 12.0156905
23.8513565 35.7617785 12.0673475
17.9986635 12.0674055 29.7906025
35.749491500000005 29.8659355 35.7475655
18.0072735 17.9139265 35.7818155
23.9780315 35.815633500000004 29.9237035
35.7893755 17.8942805 35.8823855
12.0100835 23.9869555 29.8669665
29.8468245 35.8468525 35.8955475
23.9453155 11.937849499999999 12.0417635
12.054838499999999 24.0063025 23.8927145
17.9835105 35.8555875 18.0232085
12.0338005 12.0967275 29.8451215
35.823102500000005 29.8055275 29.9048595
12.0784785 35.787358499999996 18.0252965
29.8696585 11.9469985 17.9998185
12.0862745 35.8324455 29.8710535
23.894577499999997 35.7420255 17.9505545
23.9725965 29.8142975 11.974444499999999
23.8912275 11.9751175 23.9822755
29.7779955 23.9560345 35.8474685
12.025722499999999 18.0305905 29.7884345
17.9623305 12.0954345 12.0265155
29.892729499999998 12.079974499999999 29.8323805
14.9196615 15.1725675 14.876984499999999
26.7060985 14.725011499999999 32.8064775
26.6249975 15.121012499999999 26.7239565
26.979954499999998 15.270215499999999 21.0883565
26.9938175 15.1249845 14.6719855
20.7289655 33.0048955 32.7403085
21.2671815 32.7878335 26.823846500000002
20.7429225 32.7361755 21.0692915
20.787884499999997 32.680997500000004 14.9136575
20.7221495 26.690664499999997 32.8195465
20.723118499999998 26.6943995 26.757627499999998
26.669393499999998 20.9781385 14.709951499999999
21.1604295 27.0255425 21.128462499999998
20.9137165 21.1882125 32.8676685
21.0465035 20.8269345 27.1364485
20.730987499999998 20.7623845 20.7698425
20.861202499999997 21.100212499999998 15.1756745
20.7674195 15.2693315 32.9428035
21.2548685 15.1248165 26.8739335
21.1819665 15.0240215 20.7671745
21.138121499999997 14.860920499999999 15.0689765
14.8448935 32.5565425 32.6681835
15.1971935 32.8182015 26.7093305
20.896621500000002 26.6551825 14.9292145
26.7510145 20.9652505 21.163338500000002
26.7738115 20.8145535 26.675368499999998
26.8552525 20.7282335 32.5558305
32.7559755 33.039227499999996 32.8049415
32.5906965 32.8448365 26.843455499999997
32.5636645 32.697010500000005 20.7958125
32.6884065 26.6846855 33.006448500000005
32.9822205 26.777806499999997 27.134507499999998
32.7999825 27.0957285 20.645919499999998
33.007499499999994 26.7155855 15.125408499999999
32.7118015 20.9274215 33.0263865
32.9375085 20.8931575 26.6825215
32.6756965 20.770273500000002 20.8877475
32.6287255 20.7213845 14.7901725
33.131767499999995 14.9975095 32.955678500000005
32.6865605 15.118917499999998 26.7704285
32.9071795 14.833795499999999 21.0774305
32.6214765 15.1181895 15.058757499999999
27.0544955 33.0381895 32.764005499999996
26.8564725 32.6557885 26.6863195
26.641630499999998 32.5959515 20.981440499999998
26.8753935 33.0803415 15.2079415
26.6924265 26.9374265 32.999692499999995
27.017515500000002 26.9129025 27.0713825
26.8579515 27.1400205 21.1493545
26.7593815 26.7261575 15.2276905
14.8454985 33.0317285 20.749934500000002
14.916304499999999 33.0483805 15.2247285
33.0313735 32.7178045 15.161531499999999
14.9264175 21.1390565 14.7073375
15.003532499999999 21.1480295 32.6893385
14.9907205 20.9980295 20.6425265
15.1031015 15.1527345 27.0100075
15.1122605 26.796884499999997 33.0680015
15.2148755 26.6595585 27.0314165
15.1502275 27.1281425 20.9574925
14.9875475 27.0438875 15.2670325
15.0998655 15.1285725 32.5725105
14.7439865 20.9806475 27.0545325
14.789676499999999 14.934198499999999 21.1658355
