149_cspbbr3_5\149_cspbbr3_5.xyz
1.0
50.730931 0 0
0 50.730931 0
0 0 50.730931
Br Cs Pb 
450 200 125 
Cartesian
13.2341015 31.2585175 40.0936685
31.2118915 10.3467545 37.4015365
13.296089499999999 19.6156445 34.4117445
28.4182025 13.329929499999999 37.139838499999996
34.4515835 31.4001795 31.479491499999998
31.186818499999998 13.234237499999999 34.2650105
28.5543105 13.3628085 31.1877125
31.3302925 10.306289499999998 25.3895655
31.478326499999998 13.5638545 28.1650565
13.3706035 16.553230499999998 37.141090500000004
13.697643499999998 13.452776499999999 16.471852499999997
28.3911245 13.2695565 25.2902015
31.2826025 13.2742165 22.500648499999997
10.4000095 19.4983515 37.4226015
37.0988275 31.2119465 34.392428499999994
28.2446315 13.634202499999999 19.572553499999998
31.3612565 10.2961555 19.2933595
31.4095115 13.559465499999998 16.220581499999998
37.408266499999996 28.2223075 37.1554465
34.178546499999996 31.4657285 37.3977315
31.333025499999998 10.364652499999998 31.0943665
31.251288499999998 13.712498499999999 40.3809995
31.4819615 19.6168315 10.370858499999999
28.458768499999998 13.621411499999999 13.5498175
31.2262395 22.527347499999998 13.374174499999999
31.2696145 25.559053499999997 10.536647499999999
10.3469985 13.4264915 19.5240425
37.3922915 31.2173365 22.5428955
31.2538225 19.1918055 40.222979499999994
37.4461075 28.3726865 25.4700645
28.4835065 19.2882995 37.347810499999994
31.5460895 16.6279415 37.305983499999996
31.2363265 19.3328015 34.1018155
34.1980735 31.4238665 25.4958495
28.5022825 19.2927265 31.169185499999998
31.2467975 16.6210985 31.145528499999998
37.517883499999996 28.3030225 31.2813125
31.436746499999998 19.573209499999997 28.1236015
28.1134765 19.368443499999998 25.5052885
31.4236045 16.589298499999998 25.458270499999998
31.2231065 19.6436595 22.553672499999998
13.3370395 16.6311905 31.1624835
13.5852075 10.348020499999999 19.5038685
28.259928499999997 19.2051425 19.3532025
31.188024499999997 16.2866125 19.4679725
31.5107335 19.508559499999997 16.3269615
10.311584499999999 19.277862499999998 31.4453595
37.4086425 31.2765815 28.4574855
28.566000499999998 19.4949485 13.383657499999998
31.4151105 16.6129075 13.594662499999998
13.274410499999998 19.512544499999997 28.4622215
31.283589499999998 10.6523285 13.328296499999999
25.2038225 40.3680935 37.2837785
13.5158975 19.3249465 40.393992499999996
25.5976275 31.1843915 40.376934500000004
10.316884499999999 13.614552499999999 13.492393499999999
22.503465499999997 31.2220195 37.4320955
25.5508605 28.4214725 37.1384255
25.2339025 31.4400345 34.318451499999995
37.0485905 37.2385495 22.3308095
37.2165745 34.3112895 25.5801705
22.3035045 31.412197499999998 31.4814765
25.2792625 28.5404715 31.341513499999998
25.236672499999997 31.1795215 28.3887985
34.2960175 37.5405015 25.4657825
22.3065665 31.136933499999998 25.188038499999998
10.3891365 25.5225455 13.268003499999999
25.421493499999997 28.5109235 25.2926285
13.6902455 10.6636355 13.525276499999999
22.2991715 31.3086295 19.6631975
25.5453075 28.184817499999998 19.5171325
25.4940115 31.2009825 16.5758145
13.4681505 25.5312195 16.2573075
37.383630499999995 37.0596745 28.2199515
22.5954215 31.3555205 13.475631499999999
25.6409765 28.434454499999998 13.446067499999998
25.2130975 31.4046995 10.6532535
37.1462395 34.1488595 31.280133499999998
25.2669915 25.192437499999997 40.2792565
34.4197455 37.0083645 31.2935365
25.2022945 31.141488499999998 22.3852185
25.225719499999997 37.3390595 10.6694895
25.5991155 34.1592615 13.4192095
22.462590499999997 37.4117545 13.342727499999999
37.1296545 31.156764499999998 40.0918395
28.3627605 25.5205555 13.6050575
25.5116115 40.3864705 31.1345725
25.5280255 40.123842499999995 25.4260845
37.1726965 37.3764735 10.259924499999999
25.2590905 40.3986975 19.5441035
37.228562499999995 34.167407499999996 13.642355499999999
25.3601955 40.087954499999995 13.5758555
25.3305985 37.0944095 40.1171815
34.110823499999995 37.4598375 13.5313465
22.4766695 37.2807815 37.1064475
25.607853499999997 34.403128499999994 37.188207500000004
25.298243499999998 37.429413499999995 34.0770845
22.3344115 37.1678045 31.5728455
25.3372375 34.144653500000004 31.4436355
25.2600925 37.1992495 28.2042695
37.358408499999996 37.458338499999996 16.4770485
22.5248395 37.1453735 25.3641285
25.5352425 34.1507575 25.5032785
25.4497015 37.1875555 22.176547499999998
13.616691499999998 25.1828625 10.458024499999999
37.4332905 34.245363499999996 19.1738075
22.5336585 37.1245975 19.5590655
25.354639499999998 34.1360355 19.6440435
25.5164595 37.1051795 16.5256235
13.411894499999999 22.5038465 13.630981499999999
34.132865499999994 37.146936499999995 19.5019755
31.2069035 13.308843499999998 10.638335499999998
10.611386499999998 19.3592715 25.5916925
13.445318499999999 16.2116575 25.3081005
31.135706499999998 22.3989655 19.5388565
13.699779499999998 10.4908995 37.2190935
34.0827555 25.5734705 19.3924965
34.519459499999996 13.5965765 25.2766675
37.2704875 10.5062225 25.6253095
37.1159855 13.6578045 22.2155705
10.3966775 13.6115555 37.1887545
34.1657605 13.3575515 19.5443185
37.1472905 10.230668499999998 19.4688505
37.3095375 13.5353405 16.629554499999998
13.331533499999999 13.462263499999999 40.0818565
34.393820500000004 13.280647499999999 13.659967499999999
37.3856805 10.641280499999999 13.640630499999999
37.2663825 13.734527499999999 28.2472425
37.1594445 13.6207985 10.418438499999999
37.1164475 25.1541115 22.3695295
37.0468025 22.291362499999998 25.4855315
31.2757625 40.4509275 37.3939885
34.0893745 25.2196495 25.3350475
31.5820085 40.3087375 31.4129865
31.1498035 40.1298075 25.2280035
13.499466499999999 10.6560735 25.282275499999997
31.3248805 40.1137005 19.5612145
37.1244295 25.3462065 28.5380745
31.0904535 40.2602665 13.378691499999999
37.4910515 22.4207395 31.4270915
31.2496565 37.0757195 40.2744875
10.450612499999998 13.4501335 25.185522499999998
37.428918499999995 10.547471499999999 31.3857935
34.5088525 13.561128499999999 31.3296215
37.2687655 22.5204515 19.6629595
34.4601185 19.3518245 37.2493845
37.0998015 16.4528525 37.480791499999995
37.1200535 19.3624085 34.1883305
13.3619375 13.597930499999999 28.2733155
34.2800015 19.350730499999997 31.0808285
37.2050545 16.2142815 31.3014525
37.4239295 19.5066495 28.4894645
13.307698499999999 10.3680975 31.5355775
37.121940499999994 25.114002499999998 10.481907499999998
34.2622815 19.595217499999997 25.1842415
37.4894135 16.4505405 25.1744395
37.429494500000004 19.3109555 22.5961565
10.669362499999998 13.585600499999998 31.2582065
37.1405805 22.422334499999998 13.2091605
34.165364499999995 19.6026565 19.2527685
37.3692135 16.2582705 19.4083235
37.3255355 19.224447499999997 16.4133785
34.1127865 25.1981715 13.3637635
34.1087325 19.5621965 13.3793195
37.5329935 16.3559825 13.450291499999999
37.347581500000004 19.6832895 10.584576499999999
37.2329105 13.590380499999998 40.078481499999995
37.063134500000004 25.4294315 16.512966499999997
34.033796499999994 13.4413105 37.1620755
37.471174500000004 10.582552499999998 37.2080475
37.092476500000004 13.5161325 34.446318500000004
13.6453815 13.3515845 34.1298795
34.1598515 25.5565115 31.474313499999997
28.4293955 37.3973235 37.1262775
31.214785499999998 34.137499500000004 37.243996499999994
31.1362265 37.1345915 34.0972145
13.638803499999998 16.5336305 19.2798035
37.4173325 31.1306305 10.6107695
28.2134695 31.2180905 19.5072175
31.516160499999998 28.261667499999998 19.281895499999997
31.1890175 31.4343495 16.2737935
10.568232499999999 19.550807499999998 19.5594455
37.370454499999994 28.2141375 13.262850499999999
28.4749515 31.3450995 13.2953155
31.4427085 28.1111125 13.3709145
31.1834085 31.143175499999998 10.3541025
34.3542705 31.4933115 13.2552595
31.5985275 25.4350315 40.233104499999996
28.3423995 25.1884855 37.4952715
31.480939499999998 22.313939499999996 37.1495915
31.4663675 25.3560055 34.5397945
37.2912905 31.4111335 16.2839235
28.1476365 25.586132499999998 31.3016745
31.1754465 22.3418075 31.453086499999998
31.3461635 25.446650499999997 28.524119499999998
13.531051499999998 19.4915765 22.1467595
36.9831905 28.3447685 19.4116225
28.2016405 25.1148845 25.2859405
31.171273499999998 22.5181355 25.4636705
31.2062125 25.3554685 22.5354645
22.2043085 25.357155499999998 37.354232499999995
34.2447545 31.4433105 19.5769135
28.475755499999998 25.3742225 19.2625425
31.2102605 31.4822995 22.5401985
31.5638845 25.413109499999997 16.4396095
31.2145835 28.4708755 25.561110499999998
13.4310955 19.5683565 16.3445045
28.2070215 37.1052315 31.2776545
31.3781745 34.490266500000004 31.2210735
31.3261205 37.1061165 28.1450715
13.523586499999999 19.5783745 10.3799915
13.6477285 13.498839499999999 22.5239755
28.3474045 36.9834525 25.419506499999997
31.535953499999998 34.4775505 25.2877275
31.4715105 37.163051499999995 22.5516075
13.381971499999999 16.5494645 13.6759805
37.4633115 25.2507845 34.2020645
28.4481645 37.156488499999995 19.2864275
31.3621745 34.3595715 19.668929499999997
31.1212215 37.310494500000004 16.5504365
10.639906499999999 19.5808285 13.449164499999998
37.113660499999995 22.188024499999997 37.2939645
28.0872185 37.232114499999994 13.4662905
31.4484955 34.1953975 13.3777355
31.168283499999998 37.2179275 10.676382499999999
34.118045499999994 25.3025485 37.1677415
31.5001775 31.1108555 40.2520325
37.1826405 25.2376905 40.015908499999995
28.4057015 31.2823205 37.5360675
31.4175775 28.3901955 37.4452025
31.5055595 31.1909585 34.3209535
28.4492205 31.1323455 31.397557499999998
31.3968575 28.4173345 31.066446499999998
31.117344499999998 31.1486975 28.3923445
28.1991725 31.1119015 25.454448499999998
25.512946499999998 22.581843499999998 37.3098555
13.2868335 22.3320105 19.5188275
10.4761125 25.4796095 19.2704685
40.281707499999996 25.5808705 25.300098499999997
16.321664499999997 25.5235555 25.4776005
19.2520825 22.5654415 25.3804055
19.5314035 25.524800499999998 22.2422945
10.714048499999999 31.1481565 19.366679499999996
16.320012499999997 25.2153815 19.253451499999997
19.3780365 22.296794499999997 19.5891815
19.5373445 25.447452499999997 16.328241499999997
40.0098025 25.3390165 31.2960675
16.2544715 25.175858499999997 13.3693105
19.5409135 22.2695815 13.280381499999999
19.5395215 25.4424555 10.705347499999998
39.9954165 25.530128499999996 37.2282405
19.3827905 19.1358995 40.1535235
16.2993235 19.316649499999997 37.4788095
19.5489495 16.2103425 37.1671425
19.6397855 19.434233499999998 34.4321955
13.260060499999998 31.271489499999998 22.178486499999998
16.6847285 19.2591095 31.2890505
19.2826305 16.560418499999997 31.471649499999998
19.5622515 19.2868185 28.4158535
13.639508499999998 28.3278595 25.6085305
40.177528499999994 31.1491145 13.538591499999999
16.582994499999998 19.278929499999997 25.3763505
19.5809415 16.6295745 25.4165265
13.589684499999999 28.3516185 19.5819095
19.604766499999997 25.375839499999998 28.264179499999997
19.379948499999998 22.2801155 31.4776925
16.2897185 25.312965499999997 31.1299125
19.247490499999998 28.409809499999998 37.0771035
19.7026325 31.2667485 34.2721595
13.4972295 31.5092855 10.621081499999999
40.1221625 19.5529315 31.242928499999998
16.3409725 31.4656165 31.1912345
19.5491705 28.2022965 31.3034665
19.337396499999997 31.4775705 28.2492475
13.393611499999999 28.0602235 13.514927499999999
16.457316499999997 31.1411055 25.2680925
19.2080305 28.3079385 25.5440275
25.4864085 25.2735615 34.1622165
10.363940499999998 31.512648499999997 13.495759499999998
19.298843499999997 19.2828855 22.6085495
40.4594005 19.3389965 37.2629285
19.2837455 28.2504735 19.2163765
19.4065065 31.1054525 16.4065515
40.4580545 25.3882855 13.6165495
16.623520499999998 31.476833499999998 13.437078499999998
19.4923565 28.3743055 13.2787195
19.3692155 31.216651499999998 10.635850499999998
19.505680499999997 25.4929555 40.3600115
40.3518695 25.2539205 19.590829499999998
16.3552715 25.2712725 37.452597499999996
19.429857499999997 22.5770995 37.2711615
19.6018445 25.213299499999998 34.436770499999994
13.6125385 31.2650755 16.336425499999997
16.3575645 31.1404155 19.5766075
10.677686499999998 31.4527455 25.2039215
16.3575795 19.2751545 19.2957885
19.5639275 16.4802815 19.6377815
40.2271415 37.4897285 19.3378985
13.609012499999999 40.328869499999996 25.2263545
13.5841335 40.1972815 19.6759015
40.369949500000004 37.116862499999996 25.285700499999997
13.553003499999999 40.457517499999994 13.317662499999999
13.282641499999999 37.0840305 40.2371985
10.398187499999999 37.3732645 37.5043215
13.421311499999998 34.4252105 37.4764985
13.5798315 37.3482205 34.415263499999995
13.231921499999999 31.4299945 34.1519845
40.1269175 37.1416135 31.2121915
10.533771499999999 37.1298285 31.138716499999997
13.3927835 40.4091555 31.1792935
13.5605935 34.1053455 31.1543085
13.494550499999999 28.4472195 37.4357195
10.342571499999998 37.141566499999996 25.2420635
13.3360995 34.4416965 25.2405885
13.330546499999999 37.3664785 22.195727499999997
10.401420499999999 31.422237499999998 37.1411855
40.0476695 37.0552475 37.1843645
10.576763499999998 37.1129165 19.2771265
13.3643065 34.2003255 19.6074505
13.3302965 37.0655705 16.2766065
10.698865499999998 37.4270305 13.3971185
13.609066499999999 34.086029499999995 13.555322499999999
13.7554105 37.3269385 10.5186415
13.5394645 37.1620675 28.5160245
16.622721499999997 31.489247499999998 37.179492499999995
13.5482315 39.985448500000004 37.3568845
19.2999755 13.6730775 10.4276325
19.277716499999997 19.1804445 16.4053105
40.3563965 31.1657345 19.5001855
16.4203185 19.334024499999998 13.1813395
19.4023865 16.224134499999998 13.3718785
19.3149345 19.2276065 10.476381499999999
40.4140125 31.201244499999998 25.1901815
19.263844499999998 13.5600715 40.0753275
40.4188535 31.222188499999998 31.2200205
16.2006385 13.6269025 37.2288065
19.629377499999997 10.4444305 37.2388835
19.5546255 13.7110355 34.2376705
13.3874505 31.478526499999997 28.2806535
40.1176655 37.377737499999995 13.3885875
16.3141945 13.6125555 31.161952499999998
19.2304505 13.559488499999999 28.210413499999998
13.306953499999999 28.580972499999998 31.298253499999998
16.4082305 13.3017805 25.510315499999997
19.2725965 10.530735499999999 25.503817499999997
19.2671125 13.501184499999999 22.2265445
10.690636499999998 31.4445795 31.406239499999998
40.1510995 31.4225885 37.0580905
16.4519905 13.274844499999999 19.2283135
19.592476499999997 10.645296499999999 19.2476895
19.5411215 13.632544499999998 16.5283715
16.3265095 13.273263499999999 13.3335355
19.286401499999997 10.621979499999998 13.5878225
19.5322235 10.719545499999999 31.3743215
19.2525855 31.453238499999998 40.4428955
19.3105575 31.1918275 22.554739499999997
37.2024605 40.2285135 31.1305865
25.118553499999997 16.4753375 25.4201095
25.1592465 19.2078385 22.3814435
37.4216955 40.0565055 19.319421499999997
22.2725535 19.290667499999998 19.589957499999997
25.2603515 16.2689745 19.6129975
25.5928715 19.3543955 16.3609305
13.6767305 25.2417085 28.283312499999997
22.2900575 19.2785555 13.220405499999998
25.4167095 16.3696435 13.625769499999999
25.5423515 19.637060499999997 10.3945625
13.5766505 22.499615499999997 31.4411535
37.4592045 40.0724205 25.376768499999997
25.2220875 13.395206499999999 40.0527935
22.1326935 13.515373499999999 37.3236475
25.461383499999997 10.4501745 37.0896535
25.1993225 13.327961499999999 34.1294435
10.689829499999998 25.2534575 31.3460105
40.0205885 19.3117295 25.464034499999997
22.3323635 13.3150765 31.4711635
25.3989835 10.6900745 31.1649185
25.585654499999997 13.6572275 28.3124075
37.1444725 40.2479165 37.0621225
22.4026495 13.692718499999998 25.508477499999998
25.4126205 10.382788499999998 25.524243499999997
25.3797585 13.7174385 22.506358499999997
22.5405875 19.1896995 25.3864145
22.2192195 13.416940499999999 19.6174595
37.4853705 40.1573985 13.4024825
25.2454805 16.563280499999998 31.4912285
22.1812345 25.495540499999997 31.2514215
25.5557725 22.5867955 31.2653735
25.2690265 25.527004499999997 28.4657545
13.401750499999999 13.286113499999999 10.3275455
37.0879055 37.0512365 34.2457835
22.548601499999997 25.5553775 25.4739005
25.4110265 22.115702499999998 25.3444195
25.538486499999998 25.1594275 22.3474165
37.270762500000004 34.1497545 37.1021905
22.5346915 25.2807115 19.2438335
25.1920625 22.2244595 19.5918195
25.606550499999997 25.470006499999997 16.309920499999997
13.3528875 25.5809905 22.362364499999998
34.4936405 37.3220775 37.0552725
22.1903725 25.2135775 13.311180499999999
25.204541499999998 22.216218499999997 13.470989499999998
25.5135665 25.3702635 10.6453075
13.654821499999999 22.4289105 25.241656499999998
25.0771875 19.4057935 40.2746175
37.4524615 37.2636485 40.1693255
22.380418499999998 19.2504745 37.4374875
25.2883835 16.3924365 37.0759405
25.4460655 19.2575355 34.176706499999995
10.760054499999999 25.4525315 25.2847665
22.4902585 19.528391499999998 31.160331499999998
25.614205499999997 19.2969475 28.4213235
25.455039499999998 10.686245499999998 19.2265405
37.232153499999995 19.555417499999997 40.425102499999994
40.1619215 13.662701499999999 25.4629785
19.3980155 40.253547499999996 31.1277685
16.2914905 37.4359005 31.5020505
19.520449499999998 40.0432765 25.440388499999997
19.5100035 40.2394005 19.5838095
13.319436499999998 25.4697935 40.111189499999995
19.2733045 37.2096205 22.6075795
19.2773485 34.4697225 25.2394385
19.4534125 40.1990155 13.666321499999999
16.6345615 37.4015245 19.4811325
16.2609275 37.3468685 25.5586025
19.2032635 37.3540345 40.1603085
40.3660565 19.304114499999997 13.581439499999998
16.5889895 37.397223499999996 37.312237499999995
19.6338655 34.0908155 37.2468415
19.396147499999998 37.360744499999996 28.557709499999998
19.3116945 37.429543499999994 34.3180925
19.5548415 34.5214195 31.4171095
10.5031375 25.1455065 37.064286499999994
40.431633500000004 13.531647499999998 31.4749415
19.310125499999998 34.4040575 19.3173875
40.129713499999994 13.5988075 37.0404025
22.5407515 13.6884155 13.485108499999999
19.6398835 40.2627105 37.4554885
25.420896499999998 10.3359125 13.5495305
13.3006605 25.3077655 34.355568500000004
16.2211055 37.3407925 13.654062499999998
19.6033325 34.1079145 13.597797499999999
25.516318499999997 13.602254499999999 10.534402499999999
19.4849565 37.0723075 10.559865499999999
40.1090125 19.5897585 19.399685499999997
40.3452845 13.3987255 19.5502285
19.486959499999998 37.0215245 16.3538395
25.402519499999997 13.4030685 16.6621535
13.564452499999998 22.5472795 37.4085395
40.4535405 13.4039855 13.551807499999999
40.547034499999995 22.520821499999997 10.842751499999999
40.5376135 34.3372545 28.5745175
34.7791345 34.3827945 40.2743255
39.9232655 34.277094500000004 22.0176135
34.687813500000004 34.3006305 33.8431565
39.9200225 16.1798215 10.8105385
33.962841499999996 28.772225499999998 22.5983055
39.8731735 40.1050165 21.9990285
34.6031555 34.5114995 28.798177499999998
40.1035785 34.3251815 39.868613499999995
34.4152965 22.1894395 10.011293499999999
33.9439945 22.0739605 16.0975255
40.6036705 16.700162499999998 22.4890595
39.9587085 16.7093395 16.1215635
40.3685895 16.7272455 34.4952385
34.2898255 28.2705835 27.9178185
39.9640005 34.5066245 34.4828155
10.1789855 10.779980499999999 28.3259935
40.1139595 22.834418499999998 39.9501655
10.5966215 10.943272499999999 22.2675925
34.566273499999994 40.452721499999996 10.659381499999999
33.7903865 40.1375665 40.402306499999995
33.933809499999995 28.3822325 40.6026235
39.844174499999994 28.1591445 10.3389885
34.6340555 34.1065295 10.6610485
34.058254500000004 39.9024775 34.0132825
34.3724255 28.1885455 10.950808499999999
40.626073500000004 22.532725499999998 34.391020499999996
40.493045499999994 28.0597685 16.8127115
39.895647499999995 10.355755499999999 16.5564045
40.0004835 22.2855105 27.9532645
34.1462995 22.3885665 34.7991915
40.4071165 27.8717865 22.3466505
34.2240245 40.740427499999996 28.3365285
34.447306499999996 34.576235499999996 16.8508255
10.4416075 10.1630735 16.0769755
39.9917745 10.074508499999999 22.7568475
40.535383499999995 10.891470499999999 28.1665685
39.9618155 22.053019499999998 16.708374499999998
34.321785500000004 33.9474775 22.1502465
40.2199085 33.9001265 10.9321545
40.0112015 28.5992995 40.5876155
34.5118435 22.3316445 40.606348499999996
34.050316499999994 40.5140085 16.2477315
39.8815655 34.5868945 16.5586695
34.0402105 22.6540105 22.5713205
40.0203855 10.0886675 34.614741499999994
39.9196245 22.3836235 22.0711555
34.8744965 28.3389685 34.4193015
33.9465035 40.3430815 22.1202905
33.9549555 22.1652665 28.0886945
40.171490500000004 28.5940335 33.9879485
34.6410255 28.2051265 16.0432465
40.0998635 16.3113565 28.7414935
28.0630185 10.7717935 22.171904499999997
34.4809725 16.1412145 34.4032325
22.633120499999997 10.275784499999999 10.2554185
16.139362499999997 40.0377085 39.9777865
16.5705315 39.7665075 34.1367185
16.4898315 40.3247245 27.8368485
16.7737785 40.3604735 16.7481655
16.1915285 39.8771945 10.6059635
22.8103525 10.4543535 16.3671725
16.7563085 33.9649025 39.9779955
10.2889465 22.4921205 40.5532015
16.144208499999998 34.5273935 28.060073499999998
16.522125499999998 33.6957045 22.4469165
10.095620499999999 28.534042499999998 10.4773885
16.2707665 34.0392575 16.7107425
16.1050775 34.0539285 10.575006499999999
16.4199685 34.1362965 34.7101475
16.6798785 28.8289985 40.4785635
22.1370005 10.149376499999999 22.6593225
10.051361499999999 22.3965835 34.2647615
10.384539499999999 22.4125995 21.8761765
22.149941499999997 22.1567175 28.106820499999998
22.1195875 22.4048825 22.1055115
22.429350499999998 22.3051045 16.8390345
22.0120735 22.040251499999997 10.572127499999999
21.9261775 16.433573499999998 40.2947555
22.1185965 10.603322499999999 28.0828105
22.306202499999998 16.3591075 33.914891499999996
21.9494665 16.766077499999998 28.5048825
22.3819995 16.853993499999998 22.7661135
22.591890499999998 16.1845185 16.7896905
22.095915499999997 16.0158965 10.744771499999999
22.444286499999997 10.7673235 40.5086565
22.256268499999997 10.0094965 34.4015885
10.7895095 22.4693325 28.7760025
16.3462115 28.0252435 34.5837585
16.045958499999998 28.451531499999998 28.6751495
16.236568499999997 28.4065715 22.729895499999998
16.8348475 10.5843955 22.144402499999998
10.3720915 28.6272685 34.8069875
16.2302105 10.8652965 16.7723685
16.110705499999998 10.8705295 10.7427335
10.790208499999999 39.8851835 34.092508499999994
10.079559499999998 40.048222499999994 28.6967055
16.0318935 10.371978499999999 34.040978499999994
10.9267855 39.982947499999995 22.3316205
10.320150499999999 34.4897505 39.969950499999996
10.657339499999999 34.2259125 33.9131945
10.7414165 34.169799499999996 27.979332499999998
10.340392499999998 33.8792095 22.387645499999998
10.2787095 27.8552485 40.1878445
10.120438499999999 34.400381499999995 16.6821275
10.834847499999999 40.1449925 16.2186395
16.0086225 10.475030499999999 39.9631115
16.7567575 16.6509675 10.322561499999999
16.2550635 15.9716615 16.776545499999997
10.4897955 28.5599405 16.944249499999998
16.3768705 28.5098785 16.1197455
16.6751065 28.0113615 10.7105825
16.4439685 22.3895465 39.8512295
16.7417385 22.6848405 34.3731365
16.4872785 22.148140499999997 28.6348305
16.312074499999998 22.7625945 21.9461655
10.856622499999999 28.4646385 22.846689499999997
16.714391499999998 22.5170405 16.661198499999998
16.5560755 22.7998725 10.577105499999998
16.1698375 16.1828245 40.384193499999995
16.330858499999998 16.1547435 34.015463499999996
16.1685515 16.2688055 28.1207635
15.902452499999999 16.347682499999998 22.5303175
10.931531499999998 28.205346499999997 28.3626875
22.637851499999996 22.1041685 33.9965945
33.9545545 16.808763499999998 39.9718525
22.1019985 22.5204465 40.4259335
22.0919505 28.0666935 16.6422995
28.7445175 34.2424275 34.518032500000004
28.1135715 34.5992365 28.018669499999998
28.6017045 34.3789315 22.7461185
28.096542499999998 34.4316225 16.888799499999998
10.679043499999999 16.8936235 16.3059355
28.0208415 33.9406625 10.588590499999999
28.5037715 34.1397835 39.9222015
28.1063285 28.3487015 39.8522015
28.5203875 28.2642795 27.8338415
27.9476525 28.0042465 22.1407125
28.719800499999998 28.176336499999998 16.8775175
10.6190255 16.145145499999998 22.0576225
28.449858499999998 28.605635499999998 10.214955499999999
28.7813075 22.6036925 40.1861235
28.4312115 28.518247499999998 34.6051025
28.276158499999998 22.0026315 34.2086835
28.1257515 40.6763655 10.4705625
27.9748605 40.5855855 22.335637499999997
34.650887499999996 16.202332499999997 27.9649805
34.6133935 16.7453355 22.239433499999997
10.318811499999999 10.6333015 33.920801499999996
34.1108815 16.112910499999998 16.6089105
34.4891995 16.9831105 10.374718499999998
34.7019985 10.3373105 40.5803625
28.6313375 40.0227095 16.7091025
34.568974499999996 10.3470205 34.7762825
34.542711499999996 10.0863585 16.1680565
10.701575499999999 16.079517499999998 10.3150485
34.4741435 10.019741499999999 10.605665499999999
28.360501499999998 40.5433515 40.5178655
28.7095505 40.3939825 33.9216445
28.4858905 40.2400935 27.9443065
33.8266435 10.6421815 28.201182499999998
27.8636095 22.1087275 28.0986515
28.5071035 21.8601885 22.3113645
28.1322735 22.7656015 16.7967175
22.9321535 40.176059499999994 16.2124375
22.5294155 34.730093499999995 40.0529795
10.510819499999998 22.7906275 10.891451499999999
22.256417499999998 34.6785935 33.9198625
22.5553505 33.9319315 28.0548115
22.8127945 34.108448499999994 22.744794499999998
21.9992035 40.588202499999994 22.246139499999998
22.6852895 34.506966500000004 16.3142275
22.7045655 28.523901499999997 40.4265895
39.7343015 39.9474735 28.5003505
22.408015499999998 28.7148195 34.5342335
10.093952499999999 22.301001499999998 16.233264499999997
22.736720499999997 28.6743205 28.5767745
22.0021955 28.7050755 22.5295245
22.4480755 34.6098435 10.0909655
22.5205825 40.5643075 27.9106095
22.1931135 40.3860575 34.5904735
22.6320475 39.6906895 40.1679555
10.5319255 16.0809315 28.830329499999998
28.4230855 22.6760615 10.126427499999998
28.7591055 16.6179195 40.2755775
28.0520385 16.229985499999998 34.5551525
28.210036499999998 16.8203735 28.3462685
28.495765499999997 16.107031499999998 22.0670725
27.9961965 16.181178499999998 16.7514325
28.6756215 16.121508499999997 10.393379499999998
28.1133265 10.888558499999998 39.880990499999996
27.8737195 10.267244499999999 34.1576035
28.5075275 10.230091499999999 28.0890555
10.8728305 34.3830695 10.798368499999999
9.9950035 16.4234035 40.4811005
28.3614005 10.631772499999999 16.028723499999998
28.288396499999998 10.1524775 10.0730445
22.3697935 28.1287445 10.170978499999999
40.436370499999995 40.394304500000004 34.6740485
13.2427435 13.4877465 13.731498499999999
19.6967935 37.493022499999995 37.2774195
25.646389499999998 13.579590499999998 13.300419499999999
25.6270535 13.3197215 19.5793435
25.102441499999998 13.2317995 25.3638965
25.3558765 13.183753499999998 31.5138765
25.4110655 13.5080645 36.9845835
25.1671645 19.5345365 13.629251499999999
25.5045335 19.4293175 19.6883865
25.2916715 19.4334385 25.1492245
25.1411085 19.5721705 31.2558485
19.1630425 37.4512235 31.4728365
25.5474145 19.4023655 37.117009499999995
25.5389305 25.6144945 19.2370155
25.585904499999998 25.2683045 25.309250499999997
25.5020235 25.1978455 31.2034475
25.0953705 25.1333775 37.2268955
25.292083499999997 31.0394185 13.2451935
25.2859295 31.5212535 19.6603475
25.0971005 31.4762395 25.5202405
25.5410095 31.374481499999998 31.5558195
25.6178875 37.1052925 13.294240499999999
25.1896475 37.4236715 19.3993355
25.041433499999997 25.4859835 13.416825499999998
19.1443985 37.3562635 25.472924499999998
19.1563955 37.101842500000004 19.415251499999997
19.5326065 37.3139775 13.251133499999998
13.341956499999998 37.2722705 25.591803499999997
13.377122499999999 37.0690095 31.5986875
13.465263499999999 37.288934499999996 36.9429295
19.2467045 13.2969905 13.246981499999999
19.5285195 13.311339499999999 19.5973455
19.4489765 13.551753499999998 25.1528895
19.2004515 13.451865499999998 31.5266005
19.2677095 13.356776499999999 37.5295095
19.3634835 19.5663615 13.2565475
19.289764499999997 19.3716895 19.7120915
19.3047095 19.6185965 25.1973055
19.5010575 19.302003499999998 31.1421585
19.710403499999998 19.4786925 37.4308445
19.5714405 25.5181695 13.335666499999999
19.192510499999997 25.5511615 19.3035395
19.2805455 25.3668185 25.6247665
19.3072315 25.402004499999997 31.515531499999998
19.637513499999997 25.5574505 37.3832905
19.3053655 31.1178725 13.536327499999999
19.7083905 31.1721935 19.5265465
19.2749155 31.2939325 25.0295895
19.6221045 31.4120295 31.3320485
19.2605305 31.492040499999998 37.1795755
25.3484835 37.0349325 25.345664499999998
13.4102585 37.084048499999994 19.5623865
25.4666115 37.5453215 31.4425915
31.0487525 13.383557499999998 13.6049055
37.057554499999995 13.474738499999999 31.452744499999998
37.3162625 13.275699499999998 37.0267025
37.0033855 19.1658765 13.5067965
37.4741805 19.5684945 19.2418405
37.5373175 19.4952345 25.5439615
37.392292499999996 19.2559875 31.1116055
37.3497045 19.3610095 37.4881235
37.2085785 25.175844499999997 13.2741455
37.2746315 25.3081545 19.6517375
37.336515500000004 25.185483499999997 25.2628865
37.3366475 13.2974225 25.5005325
37.4747215 25.4024045 31.0943585
37.0938775 31.513806499999998 13.437686499999998
37.436910499999996 31.1719825 19.1909075
37.172417499999995 31.2813285 25.5997505
37.2259705 31.0443715 31.1648855
37.1459205 31.2419895 37.4724705
37.0805595 37.4539325 13.386621499999999
36.983026499999994 37.1936725 19.1969565
37.012722499999995 37.1724875 25.1779385