3_train/246_cspbbr3_MA-Py_3_0.60\246_cspbbr3_MA-Py_3_0.60.xyz
1.0
40.657088 0 0
0 40.657088 0
0 0 40.657088
Br C Cs H N Pb 
72 208 26 348 64 27 
Cartesian
14.378544 11.403544 14.378544
14.378544 14.378544 17.353544
14.378544 14.378544 23.303544
14.378544 11.403544 26.278544
11.403544 14.378544 26.278544
14.378544 20.328544 11.403544
14.378544 17.353544 14.378544
14.378544 20.328544 17.353544
14.378544 17.353544 20.328544
11.403544 20.328544 20.328544
14.378544 20.328544 23.303544
14.378544 17.353544 26.278544
14.378544 23.303544 14.378544
14.378544 26.278544 17.353544
14.378544 23.303544 20.328544
11.403544 26.278544 20.328544
14.378544 26.278544 23.303544
14.378544 23.303544 26.278544
14.378544 29.253544 20.328544
17.353544 14.378544 14.378544
20.328544 14.378544 17.353544
17.353544 14.378544 20.328544
20.328544 14.378544 23.303544
17.353544 14.378544 26.278544
20.328544 17.353544 14.378544
17.353544 20.328544 14.378544
20.328544 20.328544 17.353544
20.328544 17.353544 20.328544
17.353544 20.328544 20.328544
20.328544 20.328544 23.303544
20.328544 17.353544 26.278544
17.353544 20.328544 26.278544
20.328544 20.328544 29.253544
20.328544 23.303544 14.378544
17.353544 26.278544 14.378544
20.328544 26.278544 17.353544
20.328544 23.303544 20.328544
17.353544 26.278544 20.328544
20.328544 26.278544 23.303544
20.328544 23.303544 26.278544
17.353544 26.278544 26.278544
26.278544 11.403544 14.378544
23.303544 14.378544 14.378544
26.278544 14.378544 17.353544
23.303544 14.378544 20.328544
26.278544 14.378544 23.303544
23.303544 14.378544 26.278544
26.278544 14.378544 29.253544
26.278544 20.328544 11.403544
26.278544 17.353544 14.378544
23.303544 20.328544 14.378544
26.278544 20.328544 17.353544
26.278544 17.353544 20.328544
23.303544 20.328544 20.328544
26.278544 20.328544 23.303544
26.278544 17.353544 26.278544
23.303544 20.328544 26.278544
26.278544 26.278544 11.403544
26.278544 23.303544 14.378544
23.303544 26.278544 14.378544
26.278544 26.278544 17.353544
26.278544 23.303544 20.328544
23.303544 26.278544 20.328544
26.278544 26.278544 23.303544
26.278544 23.303544 26.278544
23.303544 26.278544 26.278544
26.278544 26.278544 29.253544
26.278544 29.253544 14.378544
26.278544 29.253544 26.278544
29.253544 14.378544 14.378544
29.253544 20.328544 14.378544
29.253544 20.328544 20.328544
20.491546 13.245526 29.955792
20.499063 13.191147 31.352058
20.328544 14.378544 32.065077
20.164586 15.511503000000001 29.955394000000002
20.15643 15.564952 31.351339
26.441546 19.195526 29.955792
26.449063 19.141147 31.352058
26.278544 20.328544 32.065077
26.114586 21.461503 29.955394000000002
26.10643 21.514952 31.351339
20.491546 25.145526 29.955792
20.499063 25.091147 31.352058
20.328544 26.278544 32.065077
20.164586 27.411503 29.955394000000002
20.15643 27.464952 31.351339
14.541546 25.145526 29.955792
14.549063 25.091147 31.352058
14.378544 26.278544 32.065077
14.214586 27.411503 29.955394000000002
14.206430000000001 27.464952 31.351339
14.541546 13.245526 29.955792
14.549063 13.191147 31.352058
14.378544 14.378544 32.065077
14.214586 15.511503000000001 29.955394000000002
14.206430000000001 15.564952 31.351339
14.541546 19.195526 29.955792
14.549063 19.141147 31.352058
14.378544 20.328544 32.065077
14.214586 21.461503 29.955394000000002
14.206430000000001 21.514952 31.351339
14.215542 13.245526 10.701296
14.208025 13.191147 9.30503
14.378544 14.378544 8.592011
14.542502 15.511503000000001 10.701694
14.550658 15.564952 9.305749
20.165542 19.195526 10.701296
20.158025 19.141147 9.30503
20.328544 20.328544 8.592011
20.492501999999998 21.461503 10.701694
20.500657999999998 21.514952 9.305749
14.215542 25.145526 10.701296
14.208025 25.091147 9.30503
14.378544 26.278544 8.592011
14.542502 27.411503 10.701694
14.550658 27.464952 9.305749
20.165542 25.145526 10.701296
20.158025 25.091147 9.30503
20.328544 26.278544 8.592011
20.492501999999998 27.411503 10.701694
20.500657999999998 27.464952 9.305749
26.115542 13.245526 10.701296
26.108025 13.191147 9.30503
26.278544 14.378544 8.592011
26.442502 15.511503000000001 10.701694
26.450658 15.564952 9.305749
20.165542 13.245526 10.701296
20.158025 13.191147 9.30503
20.328544 14.378544 8.592011
20.492501999999998 15.511503000000001 10.701694
20.500657999999998 15.564952 9.305749
10.701296 13.245526 14.541546
9.30503 13.191147 14.549063
8.592011 14.378544 14.378544
10.701694 15.511503000000001 14.214586
9.305749 15.564952 14.206430000000001
10.701296 25.145526 14.541546
9.30503 25.091147 14.549063
8.592011 26.278544 14.378544
10.701694 27.411503 14.214586
9.305749 27.464952 14.206430000000001
10.701296 19.195526 14.541546
9.30503 19.141147 14.549063
8.592011 20.328544 14.378544
10.701694 21.461503 14.214586
9.305749 21.514952 14.206430000000001
10.701296 19.195526 26.441546
9.30503 19.141147 26.449063
8.592011 20.328544 26.278544
10.701694 21.461503 26.114586
9.305749 21.514952 26.10643
10.701296 13.245526 20.491546
9.30503 13.191147 20.499063
8.592011 14.378544 20.328544
10.701694 15.511503000000001 20.164586
9.305749 15.564952 20.15643
10.701296 25.145526 26.441546
9.30503 25.091147 26.449063
8.592011 26.278544 26.278544
10.701694 27.411503 26.114586
9.305749 27.464952 26.10643
29.955792 25.145526 20.165542
31.352058 25.091147 20.158025
32.065077 26.278544 20.328544
29.955394000000002 27.411503 20.492501999999998
31.351339 27.464952 20.500657999999998
29.955792 25.145526 14.215542
31.352058 25.091147 14.208025
32.065077 26.278544 14.378544
29.955394000000002 27.411503 14.542502
31.351339 27.464952 14.550658
29.955792 19.195526 26.115542
31.352058 19.141147 26.108025
32.065077 20.328544 26.278544
29.955394000000002 21.461503 26.442502
31.351339 21.514952 26.450658
29.955792 25.145526 26.115542
31.352058 25.091147 26.108025
32.065077 26.278544 26.278544
29.955394000000002 27.411503 26.442502
31.351339 27.464952 26.450658
29.955792 13.245526 26.115542
31.352058 13.191147 26.108025
32.065077 14.378544 26.278544
29.955394000000002 15.511503000000001 26.442502
31.351339 15.564952 26.450658
29.955792 13.245526 20.165542
31.352058 13.191147 20.158025
32.065077 14.378544 20.328544
29.955394000000002 15.511503000000001 20.492501999999998
31.351339 15.564952 20.500657999999998
26.441546 10.701296 19.195526
26.449063 9.30503 19.141147
26.278544 8.592011 20.328544
26.114586 10.701694 21.461503
26.10643 9.305749 21.514952
26.441546 10.701296 25.145526
26.449063 9.30503 25.091147
26.278544 8.592011 26.278544
26.114586 10.701694 27.411503
26.10643 9.305749 27.464952
20.491546 10.701296 19.195526
20.499063 9.30503 19.141147
20.328544 8.592011 20.328544
20.164586 10.701694 21.461503
20.15643 9.305749 21.514952
20.491546 10.701296 13.245526
20.499063 9.30503 13.191147
20.328544 8.592011 14.378544
20.164586 10.701694 15.511503000000001
20.15643 9.305749 15.564952
20.491546 10.701296 25.145526
20.499063 9.30503 25.091147
20.328544 8.592011 26.278544
20.164586 10.701694 27.411503
20.15643 9.305749 27.464952
14.541546 10.701296 19.195526
14.549063 9.30503 19.141147
14.378544 8.592011 20.328544
14.214586 10.701694 21.461503
14.206430000000001 9.305749 21.514952
26.441546 29.955792 21.461562
26.449063 31.352058 21.515941
26.278544 32.065077 20.328544
26.114586 29.955394000000002 19.195585
26.10643 31.351339 19.142136
14.541546 29.955792 15.511562000000001
14.549063 31.352058 15.565941
14.378544 32.065077 14.378544
14.214586 29.955394000000002 13.245585
14.206430000000001 31.351339 13.192136
14.541546 29.955792 27.411562
14.549063 31.352058 27.465941
14.378544 32.065077 26.278544
14.214586 29.955394000000002 25.145585
14.206430000000001 31.351339 25.092136
20.491546 29.955792 27.411562
20.499063 31.352058 27.465941
20.328544 32.065077 26.278544
20.164586 29.955394000000002 25.145585
20.15643 31.351339 25.092136
20.491546 29.955792 21.461562
20.499063 31.352058 21.515941
20.328544 32.065077 20.328544
20.164586 29.955394000000002 19.195585
20.15643 31.351339 19.142136
20.491546 29.955792 15.511562000000001
20.499063 31.352058 15.565941
20.328544 32.065077 14.378544
20.164586 29.955394000000002 13.245585
20.15643 31.351339 13.192136
17.353544 10.360094 10.360094
23.303544 9.927883000000001 17.353544
10.360094 23.303544 10.360094
30.296994 23.303544 30.296994
10.360094 30.296994 23.303544
17.353544 30.296994 10.360094
23.303544 23.303544 30.729205
17.353544 30.296994 30.296994
30.296994 23.303544 10.360094
17.353544 30.729205 23.303544
9.927883000000001 23.303544 17.353544
17.353544 10.360094 30.296994
9.927883000000001 17.353544 17.353544
17.353544 9.927883000000001 17.353544
9.927883000000001 17.353544 23.303544
17.353544 9.927883000000001 23.303544
30.729205 17.353544 17.353544
30.296994 17.353544 30.296994
30.729205 23.303544 23.303544
9.927883000000001 23.303544 23.303544
30.729205 17.353544 23.303544
17.353544 30.729205 17.353544
30.296994 30.296994 17.353544
17.353544 17.353544 9.927883000000001
23.303544 23.303544 9.927883000000001
10.360094 23.303544 30.296994
23.303544 9.927883000000001 23.303544
23.303544 30.296994 30.296994
11.403544 11.403544 17.353544
11.403544 11.403544 23.303544
11.403544 17.353544 29.253544
11.403544 29.253544 17.353544
17.353544 17.353544 17.353544
17.353544 17.353544 23.303544
17.353544 23.303544 11.403544
17.353544 23.303544 17.353544
17.353544 23.303544 23.303544
17.353544 23.303544 29.253544
23.303544 11.403544 11.403544
23.303544 11.403544 29.253544
23.303544 17.353544 11.403544
23.303544 17.353544 17.353544
23.303544 17.353544 23.303544
23.303544 17.353544 29.253544
23.303544 23.303544 17.353544
23.303544 23.303544 23.303544
23.303544 29.253544 11.403544
23.303544 29.253544 17.353544
23.303544 29.253544 23.303544
29.253544 11.403544 17.353544
29.253544 11.403544 23.303544
29.253544 17.353544 11.403544
29.253544 23.303544 17.353544
29.253544 29.253544 23.303544
20.330049 14.382564 33.157088
20.033282 16.42569 29.367633
20.624427999999998 12.332298 29.366863
20.636035 12.236527 31.863965
20.017590000000002 16.518075 31.865221000000002
26.280049 20.332564 33.157088
25.983282 22.375690000000002 29.367633
26.574428 18.282298 29.366863
26.586035 18.186526999999998 31.863965
25.967589999999998 22.468075000000002 31.865221000000002
20.330049 26.282564 33.157088
20.033282 28.32569 29.367633
20.624427999999998 24.232298 29.366863
20.636035 24.136527 31.863965
20.017590000000002 28.418075 31.865221000000002
14.380049 26.282564 33.157088
14.083282 28.32569 29.367633
14.674428 24.232298 29.366863
14.686035 24.136527 31.863965
14.06759 28.418075 31.865221000000002
14.380049 14.382564 33.157088
14.083282 16.42569 29.367633
14.674428 12.332298 29.366863
14.686035 12.236527 31.863965
14.06759 16.518075 31.865221000000002
14.380049 20.332564 33.157088
14.083282 22.375690000000002 29.367633
14.674428 18.282298 29.366863
14.686035 18.186526999999998 31.863965
14.06759 22.468075000000002 31.865221000000002
14.377039 14.382564 7.5
14.673805999999999 16.42569 11.289455
14.08266 12.332298 11.290225
14.071053 12.236527 8.793123
14.689498 16.518075 8.791867
20.327039000000003 20.332564 7.5
20.623806 22.375690000000002 11.289455
20.03266 18.282298 11.290225
20.021053 18.186526999999998 8.793123
20.639498 22.468075000000002 8.791867
14.377039 26.282564 7.5
14.673805999999999 28.32569 11.289455
14.08266 24.232298 11.290225
14.071053 24.136527 8.793123
14.689498 28.418075 8.791867
20.327039000000003 26.282564 7.5
20.623806 28.32569 11.289455
20.03266 24.232298 11.290225
20.021053 24.136527 8.793123
20.639498 28.418075 8.791867
26.277039 14.382564 7.5
26.573806 16.42569 11.289455
25.98266 12.332298 11.290225
25.971053 12.236527 8.793123
26.589498000000003 16.518075 8.791867
20.327039000000003 14.382564 7.5
20.623806 16.42569 11.289455
20.03266 12.332298 11.290225
20.021053 12.236527 8.793123
20.639498 16.518075 8.791867
7.5 14.382564 14.380049
11.289455 16.42569 14.083282
11.290225 12.332298 14.674428
8.793123 12.236527 14.686035
8.791867 16.518075 14.06759
7.5 26.282564 14.380049
11.289455 28.32569 14.083282
11.290225 24.232298 14.674428
8.793123 24.136527 14.686035
8.791867 28.418075 14.06759
7.5 20.332564 14.380049
11.289455 22.375690000000002 14.083282
11.290225 18.282298 14.674428
8.793123 18.186526999999998 14.686035
8.791867 22.468075000000002 14.06759
7.5 20.332564 26.280049
11.289455 22.375690000000002 25.983282
11.290225 18.282298 26.574428
8.793123 18.186526999999998 26.586035
8.791867 22.468075000000002 25.967589999999998
7.5 14.382564 20.330049
11.289455 16.42569 20.033282
11.290225 12.332298 20.624427999999998
8.793123 12.236527 20.636035
8.791867 16.518075 20.017590000000002
7.5 26.282564 26.280049
11.289455 28.32569 25.983282
11.290225 24.232298 26.574428
8.793123 24.136527 26.586035
8.791867 28.418075 25.967589999999998
33.157088 26.282564 20.327039000000003
29.367633 28.32569 20.623806
29.366863 24.232298 20.03266
31.863965 24.136527 20.021053
31.865221000000002 28.418075 20.639498
33.157088 26.282564 14.377039
29.367633 28.32569 14.673805999999999
29.366863 24.232298 14.08266
31.863965 24.136527 14.071053
31.865221000000002 28.418075 14.689498
33.157088 20.332564 26.277039
29.367633 22.375690000000002 26.573806
29.366863 18.282298 25.98266
31.863965 18.186526999999998 25.971053
31.865221000000002 22.468075000000002 26.589498000000003
33.157088 26.282564 26.277039
29.367633 28.32569 26.573806
29.366863 24.232298 25.98266
31.863965 24.136527 25.971053
31.865221000000002 28.418075 26.589498000000003
33.157088 14.382564 26.277039
29.367633 16.42569 26.573806
29.366863 12.332298 25.98266
31.863965 12.236527 25.971053
31.865221000000002 16.518075 26.589498000000003
33.157088 14.382564 20.327039000000003
29.367633 16.42569 20.623806
29.366863 12.332298 20.03266
31.863965 12.236527 20.021053
31.865221000000002 16.518075 20.639498
26.280049 7.5 20.332564
25.983282 11.289455 22.375690000000002
26.574428 11.290225 18.282298
26.586035 8.793123 18.186526999999998
25.967589999999998 8.791867 22.468075000000002
26.280049 7.5 26.282564
25.983282 11.289455 28.32569
26.574428 11.290225 24.232298
26.586035 8.793123 24.136527
25.967589999999998 8.791867 28.418075
20.330049 7.5 20.332564
20.033282 11.289455 22.375690000000002
20.624427999999998 11.290225 18.282298
20.636035 8.793123 18.186526999999998
20.017590000000002 8.791867 22.468075000000002
20.330049 7.5 14.382564
20.033282 11.289455 16.42569
20.624427999999998 11.290225 12.332298
20.636035 8.793123 12.236527
20.017590000000002 8.791867 16.518075
20.330049 7.5 26.282564
20.033282 11.289455 28.32569
20.624427999999998 11.290225 24.232298
20.636035 8.793123 24.136527
20.017590000000002 8.791867 28.418075
14.380049 7.5 20.332564
14.083282 11.289455 22.375690000000002
14.674428 11.290225 18.282298
14.686035 8.793123 18.186526999999998
14.06759 8.791867 22.468075000000002
26.280049 33.157088 20.324524
25.983282 29.367633 18.281398
26.574428 29.366863 22.37479
26.586035 31.863965 22.470561
25.967589999999998 31.865221000000002 18.189013
14.380049 33.157088 14.374524000000001
14.083282 29.367633 12.331398
14.674428 29.366863 16.42479
14.686035 31.863965 16.520561
14.06759 31.865221000000002 12.239013
14.380049 33.157088 26.274524
14.083282 29.367633 24.231398000000002
14.674428 29.366863 28.32479
14.686035 31.863965 28.420561
14.06759 31.865221000000002 24.139013000000002
20.330049 33.157088 26.274524
20.033282 29.367633 24.231398000000002
20.624427999999998 29.366863 28.32479
20.636035 31.863965 28.420561
20.017590000000002 31.865221000000002 24.139013000000002
20.330049 33.157088 20.324524
20.033282 29.367633 18.281398
20.624427999999998 29.366863 22.37479
20.636035 31.863965 22.470561
20.017590000000002 31.865221000000002 18.189013
20.330049 33.157088 14.374524000000001
20.033282 29.367633 12.331398
20.624427999999998 29.366863 16.42479
20.636035 31.863965 16.520561
20.017590000000002 31.865221000000002 12.239013
16.459254 10.49839 9.749563
18.25925 10.484408 9.763545
17.342128 9.389131 10.858820999999999
18.177726 11.323465 12.013588
16.518841000000002 11.336351 12.000702
17.364066 12.345764 10.99129
22.409254 9.593962000000001 16.824043
24.20925 9.593962000000001 16.843817
23.292128 9.593962000000001 18.392772
24.127726 11.778286000000001 17.841535
22.468841 11.778286000000001 17.823311
23.314066 11.778286000000001 16.395786
10.756335 22.774043000000002 9.491617999999999
9.483546 22.793817 10.764407
10.132049 24.342772 10.115904
11.085742 23.791535 12.251311
12.258751 23.773311 11.078302
11.661087 22.345786 11.675967
29.900753 22.774043000000002 31.16547
31.173542 22.793817 29.892681
30.525039 24.342772 30.541184
29.571346 23.791535 28.405777
28.398337 23.773311 29.578786
28.996001 22.345786 28.981121
9.412081 29.821216 23.045599
10.321966 30.731101 24.304406
10.637882000000001 31.047017 22.560626000000003
12.324613 29.644648 23.541267
11.486059000000001 28.806093 22.381144000000003
11.194908999999999 28.514943 23.988221
16.459254 30.907525 10.49839
18.25925 30.893543 10.484408
17.342128 29.798267 9.389131
18.177726 28.6435 11.323465
16.518841000000002 28.656386 11.336351
17.364066 29.665798 12.345764
22.409254 22.774043000000002 31.063126
24.20925 22.793817 31.063126
23.292128 24.342772 31.063126
24.127726 23.791535 28.878802
22.468841 23.773311 28.878802
23.314066 22.345786 28.878802
16.459254 30.158698 30.907525
18.25925 30.17268 30.893543
17.342128 31.267957 29.798267
18.177726 29.333623 28.6435
16.518841000000002 29.320737 28.656386
17.364066 28.311324 29.665798
31.16547 22.774043000000002 10.756335
29.892681 22.793817 9.483546
30.541184 24.342772 10.132049
28.405777 23.791535 11.085742
29.578786 23.773311 12.258751
28.981121 22.345786 11.661087
16.459254 31.063126 23.833045000000002
18.25925 31.063126 23.813271
17.342128 31.063126 22.264316
18.177726 28.878802 22.815552999999998
16.518841000000002 28.878802 22.833777
17.364066 28.878802 24.261302
9.593962000000001 22.774043000000002 16.459254
9.593962000000001 22.793817 18.25925
9.593962000000001 24.342772 17.342128
11.778286000000001 23.791535 18.177726
11.778286000000001 23.773311 16.518841000000002
11.778286000000001 22.345786 17.364066
16.459254 9.749563 30.158698
18.25925 9.763545 30.17268
17.342128 10.858820999999999 31.267957
18.177726 12.013588 29.333623
16.518841000000002 12.000702 29.320737
17.364066 10.99129 28.311324
9.593962000000001 16.824043 16.459254
9.593962000000001 16.843817 18.25925
9.593962000000001 18.392772 17.342128
11.778286000000001 17.841535 18.177726
11.778286000000001 17.823311 16.518841000000002
11.778286000000001 16.395786 17.364066
16.459254 9.593962000000001 16.824043
18.25925 9.593962000000001 16.843817
17.342128 9.593962000000001 18.392772
18.177726 11.778286000000001 17.841535
16.518841000000002 11.778286000000001 17.823311
17.364066 11.778286000000001 16.395786
9.593962000000001 16.824043 22.409254
9.593962000000001 16.843817 24.20925
9.593962000000001 18.392772 23.292128
11.778286000000001 17.841535 24.127726
11.778286000000001 17.823311 22.468841
11.778286000000001 16.395786 23.314066
16.459254 9.593962000000001 22.774043000000002
18.25925 9.593962000000001 22.793817
17.342128 9.593962000000001 24.342772
18.177726 11.778286000000001 23.791535
16.518841000000002 11.778286000000001 23.773311
17.364066 11.778286000000001 22.345786
31.063126 16.824043 18.247834
31.063126 16.843817 16.447838
31.063126 18.392772 17.36496
28.878802 17.841535 16.529362
28.878802 17.823311 18.188247
28.878802 16.395786 17.343022
29.900753 16.824043 31.16547
31.173542 16.843817 29.892681
30.525039 18.392772 30.541184
29.571346 17.841535 28.405777
28.398337 17.823311 29.578786
28.996001 16.395786 28.981121
31.063126 22.774043000000002 24.197834
31.063126 22.793817 22.397838
31.063126 24.342772 23.31496
28.878802 23.791535 22.479362
28.878802 23.773311 24.138247
28.878802 22.345786 23.293022
9.593962000000001 22.774043000000002 22.409254
9.593962000000001 22.793817 24.20925
9.593962000000001 24.342772 23.292128
11.778286000000001 23.791535 24.127726
11.778286000000001 23.773311 22.468841
11.778286000000001 22.345786 23.314066
31.063126 16.824043 24.197834
31.063126 16.843817 22.397838
31.063126 18.392772 23.31496
28.878802 17.841535 22.479362
28.878802 17.823311 24.138247
28.878802 16.395786 23.293022
16.459254 31.063126 17.883045
18.25925 31.063126 17.863271
17.342128 31.063126 16.314315999999998
18.177726 28.878802 16.865553
16.518841000000002 28.878802 16.883777000000002
17.364066 28.878802 18.311302
30.350717 30.715506 18.360316
31.240828 29.825395 17.073545
30.007789 31.058434000000002 16.626772
29.156657 28.820466 16.425698
28.336326 29.640796 17.611593
29.472701 28.504421 18.023341000000002
18.247834 16.824043 9.593962000000001
16.447838 16.843817 9.593962000000001
17.36496 18.392772 9.593962000000001
16.529362 17.841535 11.778286000000001
18.188247 17.823311 11.778286000000001
17.343022 16.395786 11.778286000000001
24.197834 22.774043000000002 9.593962000000001
22.397838 22.793817 9.593962000000001
23.31496 24.342772 9.593962000000001
22.479362 23.791535 11.778286000000001
24.138247 23.773311 11.778286000000001
23.293022 22.345786 11.778286000000001
9.491617999999999 22.774043000000002 29.900753
10.764407 22.793817 31.173542
10.115904 24.342772 30.525039
12.251311 23.791535 29.571346
11.078302 23.773311 28.398337
11.675967 22.345786 28.996001
22.409254 9.593962000000001 22.774043000000002
24.20925 9.593962000000001 22.793817
23.292128 9.593962000000001 24.342772
24.127726 11.778286000000001 23.791535
22.468841 11.778286000000001 23.773311
23.314066 11.778286000000001 22.345786
22.409254 30.158698 30.907525
24.20925 30.17268 30.893543
23.292128 31.267957 29.798267
24.127726 29.333623 28.6435
22.468841 29.320737 28.656386
23.314066 28.311324 29.665798
20.328544 14.378544 29.253544
26.278544 20.328544 29.253544
20.328544 26.278544 29.253544
14.378544 26.278544 29.253544
14.378544 14.378544 29.253544
14.378544 20.328544 29.253544
14.378544 14.378544 11.403544
20.328544 20.328544 11.403544
14.378544 26.278544 11.403544
20.328544 26.278544 11.403544
26.278544 14.378544 11.403544
20.328544 14.378544 11.403544
11.403544 14.378544 14.378544
11.403544 26.278544 14.378544
11.403544 20.328544 14.378544
11.403544 20.328544 26.278544
11.403544 14.378544 20.328544
11.403544 26.278544 26.278544
29.253544 26.278544 20.328544
29.253544 26.278544 14.378544
29.253544 20.328544 26.278544
29.253544 26.278544 26.278544
29.253544 14.378544 26.278544
29.253544 14.378544 20.328544
26.278544 11.403544 20.328544
26.278544 11.403544 26.278544
20.328544 11.403544 20.328544
20.328544 11.403544 14.378544
20.328544 11.403544 26.278544
14.378544 11.403544 20.328544
26.278544 29.253544 20.328544
14.378544 29.253544 14.378544
14.378544 29.253544 26.278544
20.328544 29.253544 26.278544
20.328544 29.253544 20.328544
20.328544 29.253544 14.378544
17.353544 11.403544 11.403544
23.303544 11.403544 17.353544
11.403544 23.303544 11.403544
29.253544 23.303544 29.253544
11.403544 29.253544 23.303544
17.353544 29.253544 11.403544
23.303544 23.303544 29.253544
17.353544 29.253544 29.253544
29.253544 23.303544 11.403544
17.353544 29.253544 23.303544
11.403544 23.303544 17.353544
17.353544 11.403544 29.253544
11.403544 17.353544 17.353544
17.353544 11.403544 17.353544
11.403544 17.353544 23.303544
17.353544 11.403544 23.303544
29.253544 17.353544 17.353544
29.253544 17.353544 29.253544
29.253544 23.303544 23.303544
11.403544 23.303544 23.303544
29.253544 17.353544 23.303544
17.353544 29.253544 17.353544
29.253544 29.253544 17.353544
17.353544 17.353544 11.403544
23.303544 23.303544 11.403544
11.403544 23.303544 29.253544
23.303544 11.403544 23.303544
23.303544 29.253544 29.253544
14.378544 14.378544 14.378544
14.378544 14.378544 20.328544
14.378544 14.378544 26.278544
14.378544 20.328544 14.378544
14.378544 20.328544 20.328544
14.378544 20.328544 26.278544
14.378544 26.278544 14.378544
14.378544 26.278544 20.328544
14.378544 26.278544 26.278544
20.328544 14.378544 14.378544
20.328544 14.378544 20.328544
20.328544 14.378544 26.278544
20.328544 20.328544 14.378544
20.328544 20.328544 20.328544
20.328544 20.328544 26.278544
20.328544 26.278544 14.378544
20.328544 26.278544 20.328544
20.328544 26.278544 26.278544
26.278544 14.378544 14.378544
26.278544 14.378544 20.328544
26.278544 14.378544 26.278544
26.278544 20.328544 14.378544
26.278544 20.328544 20.328544
26.278544 20.328544 26.278544
26.278544 26.278544 14.378544
26.278544 26.278544 20.328544
26.278544 26.278544 26.278544
