3_train/198_cspbbr3_MA-BS_4_0.60\198_cspbbr3_MA-BS_4_0.60.xyz
1.0
51.076988 0 0
0 51.076988 0
0 0 51.076988
Br C Cs H N O Pb S 
180 414 58 624 54 180 64 60 
Cartesian
13.638494 16.613494 16.613494
16.613494 16.613494 19.588493999999997
16.613494 16.613494 25.538494
16.613494 13.638494 28.513494
16.613494 16.613494 31.488494000000003
13.638494 16.613494 34.463494
16.613494 19.588493999999997 16.613494
16.613494 22.563494 19.588493999999997
16.613494 19.588493999999997 22.563494
13.638494 22.563494 22.563494
16.613494 22.563494 25.538494
16.613494 19.588493999999997 28.513494
16.613494 22.563494 31.488494000000003
16.613494 19.588493999999997 34.463494
13.638494 22.563494 34.463494
16.613494 28.513494 13.638494
16.613494 25.538494 16.613494
13.638494 28.513494 16.613494
16.613494 28.513494 19.588493999999997
16.613494 25.538494 22.563494
16.613494 28.513494 25.538494
16.613494 25.538494 28.513494
16.613494 28.513494 31.488494000000003
16.613494 25.538494 34.463494
16.613494 28.513494 37.438494
16.613494 31.488494000000003 16.613494
16.613494 34.463494 19.588493999999997
16.613494 31.488494000000003 22.563494
16.613494 34.463494 25.538494
16.613494 31.488494000000003 28.513494
16.613494 34.463494 31.488494000000003
16.613494 31.488494000000003 34.463494
13.638494 34.463494 34.463494
16.613494 37.438494 16.613494
22.563494 16.613494 13.638494
19.588493999999997 16.613494 16.613494
22.563494 16.613494 19.588493999999997
19.588493999999997 16.613494 22.563494
22.563494 16.613494 25.538494
22.563494 13.638494 28.513494
19.588493999999997 16.613494 28.513494
22.563494 16.613494 31.488494000000003
19.588493999999997 16.613494 34.463494
22.563494 22.563494 13.638494
22.563494 19.588493999999997 16.613494
19.588493999999997 22.563494 16.613494
22.563494 22.563494 19.588493999999997
22.563494 19.588493999999997 22.563494
19.588493999999997 22.563494 22.563494
22.563494 22.563494 25.538494
22.563494 19.588493999999997 28.513494
19.588493999999997 22.563494 28.513494
22.563494 22.563494 31.488494000000003
22.563494 19.588493999999997 34.463494
19.588493999999997 22.563494 34.463494
22.563494 25.538494 16.613494
19.588493999999997 28.513494 16.613494
22.563494 28.513494 19.588493999999997
22.563494 25.538494 22.563494
19.588493999999997 28.513494 22.563494
22.563494 28.513494 25.538494
22.563494 25.538494 28.513494
19.588493999999997 28.513494 28.513494
22.563494 28.513494 31.488494000000003
22.563494 25.538494 34.463494
19.588493999999997 28.513494 34.463494
22.563494 31.488494000000003 16.613494
19.588493999999997 34.463494 16.613494
22.563494 34.463494 19.588493999999997
22.563494 31.488494000000003 22.563494
19.588493999999997 34.463494 22.563494
22.563494 34.463494 25.538494
22.563494 31.488494000000003 28.513494
19.588493999999997 34.463494 28.513494
22.563494 34.463494 31.488494000000003
22.563494 31.488494000000003 34.463494
19.588493999999997 34.463494 34.463494
22.563494 34.463494 37.438494
22.563494 37.438494 34.463494
28.513494 16.613494 13.638494
28.513494 13.638494 16.613494
25.538494 16.613494 16.613494
28.513494 16.613494 19.588493999999997
28.513494 13.638494 22.563494
25.538494 16.613494 22.563494
28.513494 16.613494 25.538494
25.538494 16.613494 28.513494
28.513494 16.613494 31.488494000000003
25.538494 16.613494 34.463494
28.513494 19.588493999999997 16.613494
25.538494 22.563494 16.613494
28.513494 22.563494 19.588493999999997
28.513494 19.588493999999997 22.563494
25.538494 22.563494 22.563494
28.513494 22.563494 25.538494
28.513494 19.588493999999997 28.513494
25.538494 22.563494 28.513494
28.513494 22.563494 31.488494000000003
28.513494 19.588493999999997 34.463494
25.538494 22.563494 34.463494
28.513494 22.563494 37.438494
28.513494 25.538494 16.613494
25.538494 28.513494 16.613494
28.513494 28.513494 19.588493999999997
28.513494 25.538494 22.563494
25.538494 28.513494 22.563494
28.513494 28.513494 25.538494
28.513494 25.538494 28.513494
25.538494 28.513494 28.513494
28.513494 28.513494 31.488494000000003
28.513494 25.538494 34.463494
25.538494 28.513494 34.463494
28.513494 28.513494 37.438494
28.513494 31.488494000000003 16.613494
25.538494 34.463494 16.613494
28.513494 34.463494 19.588493999999997
28.513494 31.488494000000003 22.563494
25.538494 34.463494 22.563494
28.513494 34.463494 25.538494
28.513494 31.488494000000003 28.513494
25.538494 34.463494 28.513494
28.513494 34.463494 31.488494000000003
28.513494 31.488494000000003 34.463494
25.538494 34.463494 34.463494
28.513494 37.438494 16.613494
28.513494 37.438494 28.513494
34.463494 13.638494 16.613494
31.488494000000003 16.613494 16.613494
34.463494 16.613494 19.588493999999997
34.463494 13.638494 22.563494
31.488494000000003 16.613494 22.563494
34.463494 16.613494 25.538494
31.488494000000003 16.613494 28.513494
34.463494 16.613494 31.488494000000003
31.488494000000003 16.613494 34.463494
34.463494 19.588493999999997 16.613494
31.488494000000003 22.563494 16.613494
34.463494 22.563494 19.588493999999997
34.463494 19.588493999999997 22.563494
31.488494000000003 22.563494 22.563494
34.463494 22.563494 25.538494
34.463494 19.588493999999997 28.513494
31.488494000000003 22.563494 28.513494
34.463494 22.563494 31.488494000000003
34.463494 19.588493999999997 34.463494
31.488494000000003 22.563494 34.463494
34.463494 22.563494 37.438494
34.463494 28.513494 13.638494
34.463494 25.538494 16.613494
31.488494000000003 28.513494 16.613494
34.463494 28.513494 19.588493999999997
34.463494 25.538494 22.563494
31.488494000000003 28.513494 22.563494
34.463494 28.513494 25.538494
34.463494 25.538494 28.513494
31.488494000000003 28.513494 28.513494
34.463494 28.513494 31.488494000000003
34.463494 25.538494 34.463494
31.488494000000003 28.513494 34.463494
34.463494 28.513494 37.438494
34.463494 34.463494 13.638494
34.463494 31.488494000000003 16.613494
31.488494000000003 34.463494 16.613494
34.463494 34.463494 19.588493999999997
34.463494 31.488494000000003 22.563494
31.488494000000003 34.463494 22.563494
34.463494 34.463494 25.538494
34.463494 31.488494000000003 28.513494
31.488494000000003 34.463494 28.513494
34.463494 34.463494 31.488494000000003
34.463494 31.488494000000003 34.463494
31.488494000000003 34.463494 34.463494
34.463494 37.438494 16.613494
34.463494 37.438494 34.463494
37.438494 16.613494 16.613494
37.438494 16.613494 28.513494
37.438494 22.563494 16.613494
37.438494 22.563494 22.563494
37.438494 28.513494 22.563494
37.438494 34.463494 16.613494
22.343668 22.523222000000004 41.791061000000006
22.563494 22.563494 40.415135
22.982644999999998 21.396963999999997 39.764156
22.965501000000003 20.17643 41.838305
22.541472 21.333829 42.500908
23.189205 20.200687000000002 40.464035
16.393667999999998 34.423222 41.791061000000006
16.613494 34.463494 40.415135
17.032645000000002 33.296964 39.764156
17.015501 32.07643 41.838305
16.591472 33.233829 42.500908
17.239205 32.100687 40.464035
16.393667999999998 16.573222 41.791061000000006
16.613494 16.613494 40.415135
17.032645000000002 15.446964 39.764156
17.015501 14.226429999999999 41.838305
16.591472 15.383829 42.500908
17.239205 14.250687 40.464035
22.343668 16.573222 41.791061000000006
22.563494 16.613494 40.415135
22.982644999999998 15.446964 39.764156
22.965501000000003 14.226429999999999 41.838305
22.541472 15.383829 42.500908
23.189205 14.250687 40.464035
16.393667999999998 22.523222000000004 41.791061000000006
16.613494 22.563494 40.415135
17.032645000000002 21.396963999999997 39.764156
17.015501 20.17643 41.838305
16.591472 21.333829 42.500908
17.239205 20.200687000000002 40.464035
28.293668000000004 34.423222 41.791061000000006
28.513494 34.463494 40.415135
28.932645 33.296964 39.764156
28.915501 32.07643 41.838305
28.491472 33.233829 42.500908
29.139205000000004 32.100687 40.464035
34.243668 34.423222 41.791061000000006
34.463494 34.463494 40.415135
34.882645 33.296964 39.764156
34.865501 32.07643 41.838305
34.441472 33.233829 42.500908
35.089205 32.100687 40.464035
34.243668 16.573222 41.791061000000006
34.463494 16.613494 40.415135
34.882645 15.446964 39.764156
34.865501 14.226429999999999 41.838305
34.441472 15.383829 42.500908
35.089205 14.250687 40.464035
28.293668000000004 16.573222 41.791061000000006
28.513494 16.613494 40.415135
28.932645 15.446964 39.764156
28.915501 14.226429999999999 41.838305
28.491472 15.383829 42.500908
29.139205000000004 14.250687 40.464035
22.343668 28.473222 41.791061000000006
22.563494 28.513494 40.415135
22.982644999999998 27.346964 39.764156
22.965501000000003 26.12643 41.838305
22.541472 27.283828999999997 42.500908
23.189205 26.150686999999998 40.464035
16.83332 16.573222 9.285927000000001
16.613494 16.613494 10.661853
16.194343 15.446964 11.312832
16.211486999999998 14.226429999999999 9.238683
16.635516 15.383829 8.57608
15.987783 14.250687 10.612953
16.83332 22.523222000000004 9.285927000000001
16.613494 22.563494 10.661853
16.194343 21.396963999999997 11.312832
16.211486999999998 20.17643 9.238683
16.635516 21.333829 8.57608
15.987783 20.200687000000002 10.612953
22.783320000000003 28.473222 9.285927000000001
22.563494 28.513494 10.661853
22.144343 27.346964 11.312832
22.161487 26.12643 9.238683
22.585516 27.283828999999997 8.57608
21.937783 26.150686999999998 10.612953
28.73332 28.473222 9.285927000000001
28.513494 28.513494 10.661853
28.094343000000002 27.346964 11.312832
28.111487000000004 26.12643 9.238683
28.535516 27.283828999999997 8.57608
27.887783 26.150686999999998 10.612953
28.73332 22.523222000000004 9.285927000000001
28.513494 22.563494 10.661853
28.094343000000002 21.396963999999997 11.312832
28.111487000000004 20.17643 9.238683
28.535516 21.333829 8.57608
27.887783 20.200687000000002 10.612953
16.83332 34.423222 9.285927000000001
16.613494 34.463494 10.661853
16.194343 33.296964 11.312832
16.211486999999998 32.07643 9.238683
16.635516 33.233829 8.57608
15.987783 32.100687 10.612953
34.68332 16.573222 9.285927000000001
34.463494 16.613494 10.661853
34.044343 15.446964 11.312832
34.061487 14.226429999999999 9.238683
34.485516 15.383829 8.57608
33.837783 14.250687 10.612953
28.73332 34.423222 9.285927000000001
28.513494 34.463494 10.661853
28.094343000000002 33.296964 11.312832
28.111487000000004 32.07643 9.238683
28.535516 33.233829 8.57608
27.887783 32.100687 10.612953
34.68332 22.523222000000004 9.285927000000001
34.463494 22.563494 10.661853
34.044343 21.396963999999997 11.312832
34.061487 20.17643 9.238683
34.485516 21.333829 8.57608
33.837783 20.200687000000002 10.612953
22.783320000000003 34.423222 9.285927000000001
22.563494 34.463494 10.661853
22.144343 33.296964 11.312832
22.161487 32.07643 9.238683
22.585516 33.233829 8.57608
21.937783 32.100687 10.612953
9.285927000000001 34.423222 16.393667999999998
10.661853 34.463494 16.613494
11.312832 33.296964 17.032645000000002
9.238683 32.07643 17.015501
8.57608 33.233829 16.591472
10.612953 32.100687 17.239205
9.285927000000001 28.473222 34.243668
10.661853 28.513494 34.463494
11.312832 27.346964 34.882645
9.238683 26.12643 34.865501
8.57608 27.283828999999997 34.441472
10.612953 26.150686999999998 35.089205
9.285927000000001 34.423222 28.293668000000004
10.661853 34.463494 28.513494
11.312832 33.296964 28.932645
9.238683 32.07643 28.915501
8.57608 33.233829 28.491472
10.612953 32.100687 29.139205000000004
9.285927000000001 34.423222 22.343668
10.661853 34.463494 22.563494
11.312832 33.296964 22.982644999999998
9.238683 32.07643 22.965501000000003
8.57608 33.233829 22.541472
10.612953 32.100687 23.189205
9.285927000000001 22.523222000000004 28.293668000000004
10.661853 22.563494 28.513494
11.312832 21.396963999999997 28.932645
9.238683 20.17643 28.915501
8.57608 21.333829 28.491472
10.612953 20.200687000000002 29.139205000000004
9.285927000000001 22.523222000000004 16.393667999999998
10.661853 22.563494 16.613494
11.312832 21.396963999999997 17.032645000000002
9.238683 20.17643 17.015501
8.57608 21.333829 16.591472
10.612953 20.200687000000002 17.239205
9.285927000000001 16.573222 22.343668
10.661853 16.613494 22.563494
11.312832 15.446964 22.982644999999998
9.238683 14.226429999999999 22.965501000000003
8.57608 15.383829 22.541472
10.612953 14.250687 23.189205
9.285927000000001 28.473222 22.343668
10.661853 28.513494 22.563494
11.312832 27.346964 22.982644999999998
9.238683 26.12643 22.965501000000003
8.57608 27.283828999999997 22.541472
10.612953 26.150686999999998 23.189205
9.285927000000001 16.573222 28.293668000000004
10.661853 16.613494 28.513494
11.312832 15.446964 28.932645
9.238683 14.226429999999999 28.915501
8.57608 15.383829 28.491472
10.612953 14.250687 29.139205000000004
9.285927000000001 28.473222 28.293668000000004
10.661853 28.513494 28.513494
11.312832 27.346964 28.932645
9.238683 26.12643 28.915501
8.57608 27.283828999999997 28.491472
10.612953 26.150686999999998 29.139205000000004
41.791061000000006 22.523222000000004 34.68332
40.415135 22.563494 34.463494
39.764156 21.396963999999997 34.044343
41.838305 20.17643 34.061487
42.500908 21.333829 34.485516
40.464035 20.200687000000002 33.837783
41.791061000000006 22.523222000000004 28.73332
40.415135 22.563494 28.513494
39.764156 21.396963999999997 28.094343000000002
41.838305 20.17643 28.111487000000004
42.500908 21.333829 28.535516
40.464035 20.200687000000002 27.887783
41.791061000000006 34.423222 22.783320000000003
40.415135 34.463494 22.563494
39.764156 33.296964 22.144343
41.838305 32.07643 22.161487
42.500908 33.233829 22.585516
40.464035 32.100687 21.937783
41.791061000000006 16.573222 34.68332
40.415135 16.613494 34.463494
39.764156 15.446964 34.044343
41.838305 14.226429999999999 34.061487
42.500908 15.383829 34.485516
40.464035 14.250687 33.837783
41.791061000000006 16.573222 22.783320000000003
40.415135 16.613494 22.563494
39.764156 15.446964 22.144343
41.838305 14.226429999999999 22.161487
42.500908 15.383829 22.585516
40.464035 14.250687 21.937783
41.791061000000006 34.423222 28.73332
40.415135 34.463494 28.513494
39.764156 33.296964 28.094343000000002
41.838305 32.07643 28.111487000000004
42.500908 33.233829 28.535516
40.464035 32.100687 27.887783
41.791061000000006 28.473222 34.68332
40.415135 28.513494 34.463494
39.764156 27.346964 34.044343
41.838305 26.12643 34.061487
42.500908 27.283828999999997 34.485516
40.464035 26.150686999999998 33.837783
41.791061000000006 34.423222 34.68332
40.415135 34.463494 34.463494
39.764156 33.296964 34.044343
41.838305 32.07643 34.061487
42.500908 33.233829 34.485516
40.464035 32.100687 33.837783
41.791061000000006 28.473222 16.83332
40.415135 28.513494 16.613494
39.764156 27.346964 16.194343
41.838305 26.12643 16.211486999999998
42.500908 27.283828999999997 16.635516
40.464035 26.150686999999998 15.987783
41.791061000000006 28.473222 28.73332
40.415135 28.513494 28.513494
39.764156 27.346964 28.094343000000002
41.838305 26.12643 28.111487000000004
42.500908 27.283828999999997 28.535516
40.464035 26.150686999999998 27.887783
34.243668 9.285927000000001 28.473222
34.463494 10.661853 28.513494
34.882645 11.312832 27.346964
34.865501 9.238683 26.12643
34.441472 8.57608 27.283828999999997
35.089205 10.612953 26.150686999999998
22.343668 9.285927000000001 22.523222000000004
22.563494 10.661853 22.563494
22.982644999999998 11.312832 21.396963999999997
22.965501000000003 9.238683 20.17643
22.541472 8.57608 21.333829
23.189205 10.612953 20.200687000000002
22.343668 9.285927000000001 34.423222
22.563494 10.661853 34.463494
22.982644999999998 11.312832 33.296964
22.965501000000003 9.238683 32.07643
22.541472 8.57608 33.233829
23.189205 10.612953 32.100687
16.393667999999998 9.285927000000001 34.423222
16.613494 10.661853 34.463494
17.032645000000002 11.312832 33.296964
17.015501 9.238683 32.07643
16.591472 8.57608 33.233829
17.239205 10.612953 32.100687
34.243668 9.285927000000001 34.423222
34.463494 10.661853 34.463494
34.882645 11.312832 33.296964
34.865501 9.238683 32.07643
34.441472 8.57608 33.233829
35.089205 10.612953 32.100687
16.393667999999998 9.285927000000001 16.573222
16.613494 10.661853 16.613494
17.032645000000002 11.312832 15.446964
17.015501 9.238683 14.226429999999999
16.591472 8.57608 15.383829
17.239205 10.612953 14.250687
22.343668 9.285927000000001 16.573222
22.563494 10.661853 16.613494
22.982644999999998 11.312832 15.446964
22.965501000000003 9.238683 14.226429999999999
22.541472 8.57608 15.383829
23.189205 10.612953 14.250687
16.393667999999998 9.285927000000001 22.523222000000004
16.613494 10.661853 22.563494
17.032645000000002 11.312832 21.396963999999997
17.015501 9.238683 20.17643
16.591472 8.57608 21.333829
17.239205 10.612953 20.200687000000002
28.293668000000004 9.285927000000001 34.423222
28.513494 10.661853 34.463494
28.932645 11.312832 33.296964
28.915501 9.238683 32.07643
28.491472 8.57608 33.233829
29.139205000000004 10.612953 32.100687
28.293668000000004 9.285927000000001 28.473222
28.513494 10.661853 28.513494
28.932645 11.312832 27.346964
28.915501 9.238683 26.12643
28.491472 8.57608 27.283828999999997
29.139205000000004 10.612953 26.150686999999998
22.343668 41.791061000000006 28.553766000000003
22.563494 40.415135 28.513494
22.982644999999998 39.764156 29.680024000000003
22.965501000000003 41.838305 30.900557999999997
22.541472 42.500908 29.743159
23.189205 40.464035 30.876300999999998
22.343668 41.791061000000006 22.603766
22.563494 40.415135 22.563494
22.982644999999998 39.764156 23.730024
22.965501000000003 41.838305 24.950558
22.541472 42.500908 23.793159000000003
23.189205 40.464035 24.926301000000002
16.393667999999998 41.791061000000006 34.503766
16.613494 40.415135 34.463494
17.032645000000002 39.764156 35.630024
17.015501 41.838305 36.850558
16.591472 42.500908 35.693159
17.239205 40.464035 36.826301
28.293668000000004 41.791061000000006 34.503766
28.513494 40.415135 34.463494
28.932645 39.764156 35.630024
28.915501 41.838305 36.850558
28.491472 42.500908 35.693159
29.139205000000004 40.464035 36.826301
34.243668 41.791061000000006 22.603766
34.463494 40.415135 22.563494
34.882645 39.764156 23.730024
34.865501 41.838305 24.950558
34.441472 42.500908 23.793159000000003
35.089205 40.464035 24.926301000000002
22.343668 41.791061000000006 16.653765999999997
22.563494 40.415135 16.613494
22.982644999999998 39.764156 17.780023999999997
22.965501000000003 41.838305 19.000557999999998
22.541472 42.500908 17.843159
23.189205 40.464035 18.976301
16.393667999999998 41.791061000000006 22.603766
16.613494 40.415135 22.563494
17.032645000000002 39.764156 23.730024
17.015501 41.838305 24.950558
16.591472 42.500908 23.793159000000003
17.239205 40.464035 24.926301000000002
34.243668 41.791061000000006 28.553766000000003
34.463494 40.415135 28.513494
34.882645 39.764156 29.680024000000003
34.865501 41.838305 30.900557999999997
34.441472 42.500908 29.743159
35.089205 40.464035 30.876300999999998
28.293668000000004 41.791061000000006 22.603766
28.513494 40.415135 22.563494
28.932645 39.764156 23.730024
28.915501 41.838305 24.950558
28.491472 42.500908 23.793159000000003
29.139205000000004 40.464035 24.926301000000002
16.393667999999998 41.791061000000006 28.553766000000003
16.613494 40.415135 28.513494
17.032645000000002 39.764156 29.680024000000003
17.015501 41.838305 30.900557999999997
16.591472 42.500908 29.743159
17.239205 40.464035 30.876300999999998
12.595044 12.595044 25.538494
12.595044 12.595044 31.488494000000003
12.595044 19.588493999999997 12.595044
12.162833 19.588493999999997 19.588493999999997
12.162833 25.538494 25.538494
12.162833 25.538494 31.488494000000003
12.595044 25.538494 38.481944000000006
12.162833 31.488494000000003 19.588493999999997
12.162833 31.488494000000003 25.538494
12.162833 31.488494000000003 31.488494000000003
19.588493999999997 12.595044 12.595044
19.588493999999997 12.162833 19.588493999999997
19.588493999999997 12.162833 31.488494000000003
19.588493999999997 12.595044 38.481944000000006
19.588493999999997 19.588493999999997 38.914155
19.588493999999997 25.538494 12.162833
19.588493999999997 31.488494000000003 12.162833
19.588493999999997 31.488494000000003 38.914155
19.588493999999997 38.914155 25.538494
19.588493999999997 38.914155 31.488494000000003
19.588493999999997 38.481944000000006 38.481944000000006
25.538494 12.595044 12.595044
25.538494 12.162833 19.588493999999997
25.538494 12.162833 31.488494000000003
25.538494 12.595044 38.481944000000006
25.538494 19.588493999999997 12.162833
25.538494 19.588493999999997 38.914155
25.538494 25.538494 12.162833
25.538494 25.538494 38.914155
25.538494 31.488494000000003 12.162833
25.538494 38.914155 19.588493999999997
25.538494 38.914155 25.538494
25.538494 38.914155 31.488494000000003
31.488494000000003 12.595044 12.595044
31.488494000000003 12.162833 25.538494
31.488494000000003 12.162833 31.488494000000003
31.488494000000003 12.595044 38.481944000000006
31.488494000000003 19.588493999999997 12.162833
31.488494000000003 31.488494000000003 38.914155
31.488494000000003 38.914155 25.538494
31.488494000000003 38.481944000000006 38.481944000000006
38.481944000000006 12.595044 19.588493999999997
38.481944000000006 12.595044 25.538494
38.481944000000006 12.595044 31.488494000000003
38.914155 19.588493999999997 25.538494
38.914155 19.588493999999997 31.488494000000003
38.481944000000006 25.538494 12.595044
38.914155 25.538494 25.538494
38.914155 25.538494 31.488494000000003
38.914155 31.488494000000003 19.588493999999997
38.914155 31.488494000000003 25.538494
38.914155 31.488494000000003 31.488494000000003
38.481944000000006 31.488494000000003 38.481944000000006
38.481944000000006 38.481944000000006 25.538494
13.638494 13.638494 19.588493999999997
13.638494 19.588493999999997 25.538494
13.638494 19.588493999999997 37.438494
13.638494 25.538494 13.638494
13.638494 25.538494 19.588493999999997
13.638494 31.488494000000003 37.438494
13.638494 37.438494 19.588493999999997
13.638494 37.438494 25.538494
13.638494 37.438494 31.488494000000003
19.588493999999997 13.638494 25.538494
19.588493999999997 19.588493999999997 13.638494
19.588493999999997 19.588493999999997 19.588493999999997
19.588493999999997 19.588493999999997 25.538494
19.588493999999997 19.588493999999997 31.488494000000003
19.588493999999997 25.538494 19.588493999999997
19.588493999999997 25.538494 25.538494
19.588493999999997 25.538494 31.488494000000003
19.588493999999997 31.488494000000003 19.588493999999997
19.588493999999997 31.488494000000003 25.538494
19.588493999999997 31.488494000000003 31.488494000000003
19.588493999999997 37.438494 13.638494
19.588493999999997 37.438494 19.588493999999997
25.538494 13.638494 25.538494
25.538494 19.588493999999997 19.588493999999997
25.538494 19.588493999999997 25.538494
25.538494 19.588493999999997 31.488494000000003
25.538494 25.538494 19.588493999999997
25.538494 25.538494 25.538494
25.538494 25.538494 31.488494000000003
25.538494 31.488494000000003 19.588493999999997
25.538494 31.488494000000003 25.538494
25.538494 31.488494000000003 31.488494000000003
25.538494 31.488494000000003 37.438494
25.538494 37.438494 13.638494
25.538494 37.438494 37.438494
31.488494000000003 13.638494 19.588493999999997
31.488494000000003 19.588493999999997 19.588493999999997
31.488494000000003 19.588493999999997 25.538494
31.488494000000003 19.588493999999997 31.488494000000003
31.488494000000003 19.588493999999997 37.438494
31.488494000000003 25.538494 13.638494
31.488494000000003 25.538494 19.588493999999997
31.488494000000003 25.538494 25.538494
31.488494000000003 25.538494 31.488494000000003
31.488494000000003 25.538494 37.438494
31.488494000000003 31.488494000000003 13.638494
31.488494000000003 31.488494000000003 19.588493999999997
31.488494000000003 31.488494000000003 25.538494
31.488494000000003 31.488494000000003 31.488494000000003
31.488494000000003 37.438494 13.638494
31.488494000000003 37.438494 19.588493999999997
31.488494000000003 37.438494 31.488494000000003
37.438494 19.588493999999997 13.638494
37.438494 19.588493999999997 37.438494
37.438494 25.538494 19.588493999999997
37.438494 25.538494 37.438494
37.438494 31.488494000000003 13.638494
37.438494 37.438494 19.588493999999997
23.119331000000003 19.250926999999997 42.394435
22.360402999999998 21.307726000000002 43.576988
22.010382999999997 23.422251000000003 42.311108
22.402234999999997 23.478447000000003 39.843596
23.512436 19.306575000000002 39.929346
17.169331 31.150927000000003 42.394435
16.410403000000002 33.207726 43.576988
16.060383 35.322251 42.311108
16.452235 35.378447 39.843596
17.562435999999998 31.206575 39.929346
17.169331 13.300927 42.394435
16.410403000000002 15.357726 43.576988
16.060383 17.472251 42.311108
16.452235 17.528447 39.843596
17.562435999999998 13.356575 39.929346
23.119331000000003 13.300927 42.394435
22.360402999999998 15.357726 43.576988
22.010382999999997 17.472251 42.311108
22.402234999999997 17.528447 39.843596
23.512436 13.356575 39.929346
17.169331 19.250926999999997 42.394435
16.410403000000002 21.307726000000002 43.576988
16.060383 23.422251000000003 42.311108
16.452235 23.478447000000003 39.843596
17.562435999999998 19.306575000000002 39.929346
29.069331 31.150927000000003 42.394435
28.310403 33.207726 43.576988
27.960383 35.322251 42.311108
28.352235 35.378447 39.843596
29.462436000000004 31.206575 39.929346
35.019331 31.150927000000003 42.394435
34.260403 33.207726 43.576988
33.910383 35.322251 42.311108
34.302235 35.378447 39.843596
35.412436 31.206575 39.929346
35.019331 13.300927 42.394435
34.260403 15.357726 43.576988
33.910383 17.472251 42.311108
34.302235 17.528447 39.843596
35.412436 13.356575 39.929346
29.069331 13.300927 42.394435
28.310403 15.357726 43.576988
27.960383 17.472251 42.311108
28.352235 17.528447 39.843596
29.462436000000004 13.356575 39.929346
23.119331000000003 25.200927 42.394435
22.360402999999998 27.257725999999998 43.576988
22.010382999999997 29.372251 42.311108
22.402234999999997 29.428447 39.843596
23.512436 25.256574999999998 39.929346
16.057657 13.300927 8.682552999999999
16.816585 15.357726 7.5
17.166604999999997 17.472251 8.76588
16.774752999999997 17.528447 11.233392
15.664551999999999 13.356575 11.147642
16.057657 19.250926999999997 8.682552999999999
16.816585 21.307726000000002 7.5
17.166604999999997 23.422251000000003 8.76588
16.774752999999997 23.478447000000003 11.233392
15.664551999999999 19.306575000000002 11.147642
22.007657000000002 25.200927 8.682552999999999
22.766585 27.257725999999998 7.5
23.116605 29.372251 8.76588
22.724753 29.428447 11.233392
21.614552 25.256574999999998 11.147642
27.957656999999998 25.200927 8.682552999999999
28.716585000000002 27.257725999999998 7.5
29.066605000000003 29.372251 8.76588
28.674753000000003 29.428447 11.233392
27.564552 25.256574999999998 11.147642
27.957656999999998 19.250926999999997 8.682552999999999
28.716585000000002 21.307726000000002 7.5
29.066605000000003 23.422251000000003 8.76588
28.674753000000003 23.478447000000003 11.233392
27.564552 19.306575000000002 11.147642
16.057657 31.150927000000003 8.682552999999999
16.816585 33.207726 7.5
17.166604999999997 35.322251 8.76588
16.774752999999997 35.378447 11.233392
15.664551999999999 31.206575 11.147642
33.907657 13.300927 8.682552999999999
34.666585 15.357726 7.5
35.016605 17.472251 8.76588
34.624753 17.528447 11.233392
33.514552 13.356575 11.147642
27.957656999999998 31.150927000000003 8.682552999999999
28.716585000000002 33.207726 7.5
29.066605000000003 35.322251 8.76588
28.674753000000003 35.378447 11.233392
27.564552 31.206575 11.147642
33.907657 19.250926999999997 8.682552999999999
34.666585 21.307726000000002 7.5
35.016605 23.422251000000003 8.76588
34.624753 23.478447000000003 11.233392
33.514552 19.306575000000002 11.147642
22.007657000000002 31.150927000000003 8.682552999999999
22.766585 33.207726 7.5
23.116605 35.322251 8.76588
22.724753 35.378447 11.233392
21.614552 31.206575 11.147642
8.682552999999999 31.150927000000003 17.169331
7.5 33.207726 16.410403000000002
8.76588 35.322251 16.060383
11.233392 35.378447 16.452235
11.147642 31.206575 17.562435999999998
8.682552999999999 25.200927 35.019331
7.5 27.257725999999998 34.260403
8.76588 29.372251 33.910383
11.233392 29.428447 34.302235
11.147642 25.256574999999998 35.412436
8.682552999999999 31.150927000000003 29.069331
7.5 33.207726 28.310403
8.76588 35.322251 27.960383
11.233392 35.378447 28.352235
11.147642 31.206575 29.462436000000004
8.682552999999999 31.150927000000003 23.119331000000003
7.5 33.207726 22.360402999999998
8.76588 35.322251 22.010382999999997
11.233392 35.378447 22.402234999999997
11.147642 31.206575 23.512436
8.682552999999999 19.250926999999997 29.069331
7.5 21.307726000000002 28.310403
8.76588 23.422251000000003 27.960383
11.233392 23.478447000000003 28.352235
11.147642 19.306575000000002 29.462436000000004
8.682552999999999 19.250926999999997 17.169331
7.5 21.307726000000002 16.410403000000002
8.76588 23.422251000000003 16.060383
11.233392 23.478447000000003 16.452235
11.147642 19.306575000000002 17.562435999999998
8.682552999999999 13.300927 23.119331000000003
7.5 15.357726 22.360402999999998
8.76588 17.472251 22.010382999999997
11.233392 17.528447 22.402234999999997
11.147642 13.356575 23.512436
8.682552999999999 25.200927 23.119331000000003
7.5 27.257725999999998 22.360402999999998
8.76588 29.372251 22.010382999999997
11.233392 29.428447 22.402234999999997