1_train/10_cspbbr3_methylammonium_3_0.20\10_cspbbr3_methylammonium_3_0.20.xyz
1.0
41.775943999999996 0 0
0 41.775943999999996 0
0 0 41.775943999999996
Br C Cs H N Pb 
108 10 44 60 10 27 
Cartesian
11.994819 21.127248 20.897568
15.189528 11.909735999999999 20.909751999999997
23.771589999999996 14.722855 15.032528
27.051023999999998 12.018099 15.105578999999999
26.739446 15.078788 11.791749
11.833841 14.764684999999998 21.079908000000003
26.990439000000002 29.843097999999998 14.784659
20.748398 29.911724999999997 26.922781
20.714804 29.753189 21.002563000000002
26.679212999999997 29.82927 20.997704999999996
20.621049999999997 29.891024 14.910613999999999
17.962935 26.785677 27.00893
26.935285 15.052294999999999 17.706660999999997
20.98816 23.850211 26.613978000000003
20.962485 27.058461 24.015588
26.782666 29.679029 26.694567
29.853246 14.706956 14.779865
17.822594 26.673605000000002 20.768861
20.703806999999998 24.053354999999996 20.832847
21.055861 26.792699999999996 17.785651
29.632011999999996 15.125685999999998 21.005678000000003
18.02332 27.026843 14.949763999999998
20.821132 23.925745999999997 15.11549
21.013260000000002 27.008291999999997 11.880087
20.730773999999997 26.946222 29.824548
27.014957000000003 11.919415999999998 21.098588999999997
26.852536 26.740665 29.640988999999998
14.762471 14.797846999999999 23.836846
24.038196 27.069249999999997 14.980851999999999
26.624983 24.01777 15.078629
26.839477000000002 27.034008999999998 12.092114999999998
12.145608 14.986531999999999 15.143403999999999
15.016326999999999 17.733897 20.810758999999997
27.018445 20.857934 29.640136
26.619782 24.031582 20.972257
23.864649 20.682124 26.96924
26.726382 17.946483999999998 27.060091999999997
26.958418 20.74798 23.866739000000003
23.914907 26.714128000000002 20.710116
24.009718 20.984704 20.816983999999998
23.754044 14.750932999999998 20.87845
26.983711 18.052853 20.801626999999996
14.883997999999998 15.179367 11.847786999999999
26.964014999999996 26.915411999999996 23.973720999999998
24.008955999999998 20.748865000000002 15.051763
26.993881000000002 18.041811000000003 15.018754
26.699934999999996 20.783189999999998 11.774035999999999
26.66467 23.733891 26.886899999999997
27.005843999999996 15.012210999999999 29.837389
23.688299999999998 26.858044 27.063024
23.771835000000003 14.797142 26.624380000000002
26.969957 11.712527 26.801997999999998
26.967674000000002 14.747943999999999 23.866618000000003
14.930355999999998 14.762814999999998 17.731026999999997
26.753301999999998 20.667143000000003 17.962404999999997
26.997721 26.8016 17.721843
14.805276999999998 11.830616 15.03591
29.909377999999997 14.783086999999998 26.953806999999998
21.046901 20.849670000000003 29.730624999999996
15.083383 20.937585 11.810626999999998
29.710927999999996 26.966445999999998 15.067521999999999
14.773459999999998 29.995874 26.859107
29.965361 26.870911999999997 21.080657000000002
14.77323 29.654748999999995 20.951234999999997
14.776551 29.908293999999998 14.832423999999998
14.769727999999999 26.869065999999997 29.735757
11.872919 27.075316 26.682924999999997
14.860629999999999 23.662280000000003 26.788193
14.732315999999999 26.840418999999997 23.985507
14.749640999999999 17.756951 14.769015999999999
29.957430000000002 27.020491 26.845554999999997
11.843357999999998 27.009847 20.949289
15.110347999999998 23.869597999999996 21.058233
14.867394999999998 26.672749000000003 18.085914000000002
11.776314999999999 20.727398 14.799532
12.110855999999998 26.772059 14.842084999999999
14.818544999999999 23.665467 14.889973
15.108630999999999 26.947454 11.778922999999999
14.778618 20.885526 30.026232999999998
12.076949999999998 21.104335 26.784515999999996
14.871179999999999 18.062179999999998 26.752543000000003
14.964936 20.6729 23.911302
14.796620999999998 21.044400000000003 17.783174
20.977400000000003 11.867951999999999 14.76588
17.743719 14.842009 14.794942999999998
20.919449 14.751225 12.142304
20.879514999999998 17.989894999999997 14.754522999999999
21.022157999999997 20.956643999999997 17.803905
29.910252999999997 20.751559999999998 15.081376999999998
11.857337 15.098605 26.854546
17.779773 20.749901 14.999486
15.034408999999998 11.820625999999999 27.066893
20.842700999999998 21.06351 11.831658999999998
15.100802 15.063373999999998 29.795634
20.824361000000003 14.756241 30.002679999999998
20.948135 20.784622 23.711706999999997
20.684959999999997 17.980444 20.724311999999998
29.717053 20.791038999999998 20.694901
18.059322 15.094295999999998 26.970421
20.990901 11.81195 26.913396999999996
20.864568 14.752972999999999 23.940854
17.729826 20.986601 26.989593
29.664864 20.835769999999997 26.937339
17.795001 14.793232999999999 20.983697999999997
20.763067 11.838211999999999 20.717965
20.750289000000002 14.894141999999999 17.764446999999997
20.773023000000002 17.782773 26.693725999999998
17.751725 20.736368999999996 20.699547000000003
10.530344 23.813888 17.977417000000003
17.996778999999997 31.322969999999998 23.858742
31.388723 23.873984 17.938254999999998
10.544329999999999 17.967111000000003 17.923889
17.841445 23.861742999999997 31.271614999999997
30.817472000000002 23.886879 10.826125
30.805622 10.981618 17.972848
10.899868999999999 30.936276999999997 17.948714
23.928554 30.830419999999997 30.909385
23.877829 23.911372 31.230272
30.136637 30.190551999999997 24.183729999999997
29.577413 30.088597 17.562475
24.155907 30.100992999999995 12.241207
23.611513000000002 24.064622 24.043884
30.215745 17.727234 17.502088
29.420358999999998 18.113231999999996 30.061172999999997
23.610041000000002 30.107247 24.265613000000002
30.164037999999998 24.223039 23.874508
24.051189 29.414645999999998 18.290321
30.084673000000002 17.790857 24.275140999999998
29.724159999999998 23.486120999999997 29.438041
29.849981999999997 11.915301999999999 23.465283
23.519976999999997 23.655450000000002 11.716600999999999
24.301344999999998 17.610802 29.757488000000002
23.693201000000002 24.20948 17.979329999999997
12.231601 18.11023 24.198987000000002
12.257214 17.724393 29.605257
12.100539999999999 23.50936 12.272556999999999
12.173917999999999 23.527610000000003 23.458973999999998
11.668868999999999 23.652994 29.954203
12.425909999999998 29.495734 23.866583
18.041967999999997 11.603825999999998 12.292031
17.773525999999997 12.453252999999998 17.921681999999997
17.860179 12.130545 23.48773
11.588498999999999 17.981113999999998 12.242793999999998
18.001589000000003 12.112150999999999 29.410589
18.201195999999996 17.710651 23.992359999999998
17.809226 17.673147999999998 30.079831999999996
17.524358999999997 24.138281 11.945891999999999
18.456612 17.973056999999997 17.9425
18.342909999999996 24.031830999999997 23.666443
11.625200999999999 11.712582 18.099480999999997
24.220504 18.089748 23.944077999999998
24.367765 18.177914 17.890603
18.110858 23.995958 17.459680999999996
24.278174999999997 12.300462999999999 29.65826
23.951006 11.694097999999999 24.361297
23.941257 17.647627999999997 12.395186999999998
24.334601 11.754767999999999 12.172728
18.407047999999996 29.880372 29.946576
17.895494999999997 30.091853 18.157272999999996
17.395730999999998 29.756388 11.787514999999999
11.653894 11.779488999999998 24.058033000000002
23.84953 11.764603 18.347524999999997
18.737056000000003 23.40826 29.452855
17.897961 24.808588999999998 29.474804999999996
10.178450999999999 18.428233 18.813740000000003
18.790731 24.350377 31.620964
17.885951 22.862704 31.621761999999997
17.030769 24.421177 31.618186
23.301417 24.727897 31.621100999999996
17.092838 23.354346 29.413798
10.171212999999998 18.482441 17.068134999999998
12.359023999999998 17.434371999999996 18.732449000000003
12.355160999999999 17.485976 17.034869
29.826523 24.703896999999998 12.507426999999998
12.302658999999998 18.861513000000002 17.975862999999997
31.652926 23.267001999999998 18.804339999999996
31.651772 23.392445000000002 16.964447999999997
31.620762 24.889142999999997 18.014062000000003
29.421151000000002 24.356125 17.111961
29.416418 24.276477999999997 18.781377
29.457583 22.926578 17.874729
12.358913 24.779443 17.554856
10.161294999999999 24.002530999999998 16.9092
10.177107999999999 22.880691 18.265186
10.171043 24.704135 18.591717000000003
12.300821 23.709921 18.851388
10.147642999999999 16.848115 17.892786
28.889502999999998 23.810509000000003 11.590779999999999
30.786479 22.915269000000002 10.386239999999999
22.930315 23.825477 29.439849000000002
11.312403999999999 31.666615 17.28123
10.040076999999998 30.427602 17.512414999999997
10.725720999999998 31.190970999999998 18.945576000000003
11.694748999999998 28.98478 18.449844999999996
12.870582999999998 30.141886999999997 18.272503
12.150170999999999 29.465949000000002 17.003993
24.312635 24.675682000000002 29.41167
17.040753 31.638765 24.421571
18.861252 31.595447999999998 24.292133
17.802327 31.639638999999995 22.808431
18.715657999999998 29.436206999999996 23.353386
17.022593999999998 29.436859999999996 23.422697
17.964219999999997 29.403950000000002 24.805124
24.376345999999998 23.019714 29.418447999999998
29.896761999999995 23.054361 12.626050999999999
23.802386 30.398877999999996 31.842152999999996
22.971092 31.475046 30.677267999999998
23.906664999999997 30.19869 28.857659999999996
22.990522 29.249708999999996 29.806860999999998
24.636341 29.186152 29.894509999999997
24.888092 23.911592 31.618834999999997
31.399516 10.952630999999998 18.828107000000003
30.394934999999997 9.943741 17.804691999999996
31.508871999999997 11.153948999999999 17.079898999999997
29.276458999999996 11.978022999999999 17.007208999999996
30.251599 12.877260999999999 18.037422
29.175044 11.821646 18.655896999999996
23.357692999999998 22.929111999999996 31.586073
30.696829 24.694035999999997 10.273295999999998
31.816021 23.907044 11.392634
24.7697 31.407254000000002 30.736647999999995
12.359295999999999 23.15081 17.289713999999996
11.926984 29.795929 17.985822999999996
11.929359999999999 17.848247999999998 17.898462
17.980631000000002 23.807223999999998 29.853091999999997
29.866518999999997 23.833149 11.92198
23.827562 29.766115 29.761172000000002
11.958288999999999 23.873728999999997 17.822359
29.862465999999998 23.810522 17.950792
17.836148 29.861499000000002 23.837839000000002
29.768288 12.007719999999999 17.836118
23.855519 23.921284999999997 29.872225
15.077831999999999 14.778343999999999 14.683167999999998
14.919990999999998 27.044818999999997 20.966637
14.803429999999999 26.639167999999998 27.036506000000003
21.063245000000002 15.09822 15.164681999999999
20.938983999999998 15.160153 20.705844999999997
20.688057 14.871701 26.976013000000002
20.805901 20.951310999999997 14.712770999999998
20.921177 20.764024999999997 21.192042999999998
21.117756 20.827553 26.783808
21.041217000000003 26.667794 14.901473
20.698538999999997 26.626407999999998 21.033425
20.726737999999997 26.907321000000003 27.150219
27.037115 14.990768 15.013921999999999
26.589301999999996 14.824388999999998 20.995531
26.596286 15.173468999999999 26.849446
26.973227 20.718586000000002 14.718556999999999
26.808782 20.934950999999998 27.157598
26.666348 26.937592000000002 15.108450999999999
26.637436 27.040737 21.096004
26.873230999999997 26.535158000000003 26.730261
14.713472 26.978809 14.801243999999999
14.795936 20.967557999999997 26.661974
26.71736 20.893092000000003 21.133395999999998
14.635698 20.844800999999997 15.024716
14.712124 14.819494999999998 26.961796
14.978765999999998 15.209829 20.952472999999998
14.747641 20.957666000000003 21.121462
