3_train/226_cspbbr3_MA-BzO_4_0.20\226_cspbbr3_MA-BzO_4_0.20.xyz
1.0
49.788652 0 0
0 49.788652 0
0 0 49.788652
Br C Cs H N O Pb 
216 185 95 222 17 48 64 
Cartesian
15.969325999999999 12.994326 15.969325999999999
15.969325999999999 15.969325999999999 18.944325999999997
15.969325999999999 12.994326 21.919325999999998
12.994326 15.969325999999999 21.919325999999998
15.969325999999999 15.969325999999999 24.894326
15.969325999999999 12.994326 27.869326
12.994326 15.969325999999999 27.869326
15.969325999999999 15.969325999999999 30.844326000000002
15.969325999999999 12.994326 33.819326
12.994326 15.969325999999999 33.819326
15.969325999999999 15.969325999999999 36.794326
15.969325999999999 18.944325999999997 15.969325999999999
12.994326 21.919325999999998 15.969325999999999
15.969325999999999 21.919325999999998 18.944325999999997
15.969325999999999 18.944325999999997 21.919325999999998
15.969325999999999 21.919325999999998 24.894326
15.969325999999999 18.944325999999997 27.869326
12.994326 21.919325999999998 27.869326
15.969325999999999 21.919325999999998 30.844326000000002
15.969325999999999 18.944325999999997 33.819326
15.969325999999999 27.869326 12.994326
15.969325999999999 24.894326 15.969325999999999
12.994326 27.869326 15.969325999999999
15.969325999999999 27.869326 18.944325999999997
15.969325999999999 24.894326 21.919325999999998
12.994326 27.869326 21.919325999999998
15.969325999999999 27.869326 24.894326
15.969325999999999 24.894326 27.869326
15.969325999999999 27.869326 30.844326000000002
15.969325999999999 24.894326 33.819326
12.994326 27.869326 33.819326
15.969325999999999 33.819326 12.994326
15.969325999999999 30.844326000000002 15.969325999999999
12.994326 33.819326 15.969325999999999
15.969325999999999 33.819326 18.944325999999997
15.969325999999999 30.844326000000002 21.919325999999998
12.994326 33.819326 21.919325999999998
15.969325999999999 33.819326 24.894326
15.969325999999999 30.844326000000002 27.869326
12.994326 33.819326 27.869326
15.969325999999999 33.819326 30.844326000000002
15.969325999999999 30.844326000000002 33.819326
12.994326 33.819326 33.819326
15.969325999999999 33.819326 36.794326
15.969325999999999 36.794326 21.919325999999998
15.969325999999999 36.794326 27.869326
15.969325999999999 36.794326 33.819326
21.919325999999998 15.969325999999999 12.994326
18.944325999999997 15.969325999999999 15.969325999999999
21.919325999999998 15.969325999999999 18.944325999999997
18.944325999999997 15.969325999999999 21.919325999999998
21.919325999999998 15.969325999999999 24.894326
21.919325999999998 12.994326 27.869326
18.944325999999997 15.969325999999999 27.869326
21.919325999999998 15.969325999999999 30.844326000000002
21.919325999999998 12.994326 33.819326
18.944325999999997 15.969325999999999 33.819326
21.919325999999998 15.969325999999999 36.794326
21.919325999999998 21.919325999999998 12.994326
21.919325999999998 18.944325999999997 15.969325999999999
18.944325999999997 21.919325999999998 15.969325999999999
21.919325999999998 21.919325999999998 18.944325999999997
21.919325999999998 18.944325999999997 21.919325999999998
18.944325999999997 21.919325999999998 21.919325999999998
21.919325999999998 21.919325999999998 24.894326
21.919325999999998 18.944325999999997 27.869326
18.944325999999997 21.919325999999998 27.869326
21.919325999999998 21.919325999999998 30.844326000000002
21.919325999999998 18.944325999999997 33.819326
18.944325999999997 21.919325999999998 33.819326
21.919325999999998 21.919325999999998 36.794326
21.919325999999998 24.894326 15.969325999999999
18.944325999999997 27.869326 15.969325999999999
21.919325999999998 27.869326 18.944325999999997
21.919325999999998 24.894326 21.919325999999998
18.944325999999997 27.869326 21.919325999999998
21.919325999999998 27.869326 24.894326
21.919325999999998 24.894326 27.869326
18.944325999999997 27.869326 27.869326
21.919325999999998 27.869326 30.844326000000002
21.919325999999998 24.894326 33.819326
18.944325999999997 27.869326 33.819326
21.919325999999998 27.869326 36.794326
21.919325999999998 33.819326 12.994326
21.919325999999998 30.844326000000002 15.969325999999999
18.944325999999997 33.819326 15.969325999999999
21.919325999999998 33.819326 18.944325999999997
21.919325999999998 30.844326000000002 21.919325999999998
18.944325999999997 33.819326 21.919325999999998
21.919325999999998 33.819326 24.894326
21.919325999999998 30.844326000000002 27.869326
18.944325999999997 33.819326 27.869326
21.919325999999998 33.819326 30.844326000000002
21.919325999999998 30.844326000000002 33.819326
18.944325999999997 33.819326 33.819326
21.919325999999998 33.819326 36.794326
21.919325999999998 36.794326 21.919325999999998
21.919325999999998 36.794326 27.869326
21.919325999999998 36.794326 33.819326
27.869326 15.969325999999999 12.994326
24.894326 15.969325999999999 15.969325999999999
27.869326 15.969325999999999 18.944325999999997
24.894326 15.969325999999999 21.919325999999998
27.869326 15.969325999999999 24.894326
27.869326 12.994326 27.869326
24.894326 15.969325999999999 27.869326
27.869326 15.969325999999999 30.844326000000002
27.869326 12.994326 33.819326
24.894326 15.969325999999999 33.819326
27.869326 15.969325999999999 36.794326
27.869326 21.919325999999998 12.994326
27.869326 18.944325999999997 15.969325999999999
24.894326 21.919325999999998 15.969325999999999
27.869326 21.919325999999998 18.944325999999997
27.869326 18.944325999999997 21.919325999999998
24.894326 21.919325999999998 21.919325999999998
27.869326 21.919325999999998 24.894326
27.869326 18.944325999999997 27.869326
24.894326 21.919325999999998 27.869326
27.869326 21.919325999999998 30.844326000000002
27.869326 18.944325999999997 33.819326
24.894326 21.919325999999998 33.819326
27.869326 21.919325999999998 36.794326
27.869326 27.869326 12.994326
27.869326 24.894326 15.969325999999999
24.894326 27.869326 15.969325999999999
27.869326 27.869326 18.944325999999997
27.869326 24.894326 21.919325999999998
24.894326 27.869326 21.919325999999998
27.869326 27.869326 24.894326
27.869326 24.894326 27.869326
24.894326 27.869326 27.869326
27.869326 27.869326 30.844326000000002
27.869326 24.894326 33.819326
24.894326 27.869326 33.819326
27.869326 27.869326 36.794326
27.869326 33.819326 12.994326
27.869326 30.844326000000002 15.969325999999999
24.894326 33.819326 15.969325999999999
27.869326 33.819326 18.944325999999997
27.869326 30.844326000000002 21.919325999999998
24.894326 33.819326 21.919325999999998
27.869326 33.819326 24.894326
27.869326 30.844326000000002 27.869326
24.894326 33.819326 27.869326
27.869326 33.819326 30.844326000000002
27.869326 30.844326000000002 33.819326
24.894326 33.819326 33.819326
27.869326 36.794326 15.969325999999999
27.869326 36.794326 21.919325999999998
27.869326 36.794326 27.869326
33.819326 15.969325999999999 12.994326
33.819326 12.994326 15.969325999999999
30.844326000000002 15.969325999999999 15.969325999999999
33.819326 15.969325999999999 18.944325999999997
33.819326 12.994326 21.919325999999998
30.844326000000002 15.969325999999999 21.919325999999998
33.819326 15.969325999999999 24.894326
33.819326 12.994326 27.869326
30.844326000000002 15.969325999999999 27.869326
33.819326 15.969325999999999 30.844326000000002
33.819326 12.994326 33.819326
30.844326000000002 15.969325999999999 33.819326
33.819326 15.969325999999999 36.794326
33.819326 18.944325999999997 15.969325999999999
30.844326000000002 21.919325999999998 15.969325999999999
33.819326 21.919325999999998 18.944325999999997
33.819326 18.944325999999997 21.919325999999998
30.844326000000002 21.919325999999998 21.919325999999998
33.819326 21.919325999999998 24.894326
33.819326 18.944325999999997 27.869326
30.844326000000002 21.919325999999998 27.869326
33.819326 21.919325999999998 30.844326000000002
33.819326 18.944325999999997 33.819326
30.844326000000002 21.919325999999998 33.819326
33.819326 21.919325999999998 36.794326
33.819326 27.869326 12.994326
33.819326 24.894326 15.969325999999999
30.844326000000002 27.869326 15.969325999999999
33.819326 27.869326 18.944325999999997
33.819326 24.894326 21.919325999999998
30.844326000000002 27.869326 21.919325999999998
33.819326 27.869326 24.894326
33.819326 24.894326 27.869326
30.844326000000002 27.869326 27.869326
33.819326 27.869326 30.844326000000002
33.819326 24.894326 33.819326
30.844326000000002 27.869326 33.819326
33.819326 33.819326 12.994326
33.819326 30.844326000000002 15.969325999999999
30.844326000000002 33.819326 15.969325999999999
33.819326 33.819326 18.944325999999997
33.819326 30.844326000000002 21.919325999999998
30.844326000000002 33.819326 21.919325999999998
33.819326 33.819326 24.894326
33.819326 30.844326000000002 27.869326
30.844326000000002 33.819326 27.869326
33.819326 33.819326 30.844326000000002
33.819326 30.844326000000002 33.819326
30.844326000000002 33.819326 33.819326
33.819326 33.819326 36.794326
33.819326 36.794326 15.969325999999999
33.819326 36.794326 21.919325999999998
33.819326 36.794326 33.819326
36.794326 15.969325999999999 15.969325999999999
36.794326 15.969325999999999 21.919325999999998
36.794326 15.969325999999999 33.819326
36.794326 21.919325999999998 15.969325999999999
36.794326 21.919325999999998 33.819326
36.794326 27.869326 15.969325999999999
36.794326 27.869326 21.919325999999998
36.794326 27.869326 27.869326
36.794326 27.869326 33.819326
36.794326 33.819326 21.919325999999998
36.794326 33.819326 27.869326
36.794326 33.819326 33.819326
16.24475 29.035182999999996 40.504175000000004
16.241281999999998 29.057063 39.105752
15.969325999999999 27.869326 38.428695000000005
15.707364 26.678344000000003 40.492055
15.979731 27.852224 41.196705
15.969325999999999 27.869326 36.794326
15.699914999999999 26.674545000000002 39.094039
26.673585000000003 33.892032 40.504175000000004
26.652617 33.884885 39.105752
27.869326 33.819326 38.428695000000005
29.087528999999996 33.764168 40.492055
27.884405 33.832493 41.196705
27.869326 33.819326 36.794326
29.092542 33.757475 39.094039
33.331559999999996 28.963476999999997 40.504175000000004
33.315537 28.978774 39.105752
33.819326 27.869326 38.428695000000005
34.333031 26.763356 40.492055
33.837969 27.862032999999997 41.196705
33.819326 27.869326 36.794326
34.329409 26.755819000000002 39.094039
14.905202 21.369124 40.504175000000004
14.890856 21.352243 39.105752
15.969325999999999 21.919325999999998 38.428695000000005
17.04375 22.496105999999997 40.492055
15.975529 21.938359 41.196705
15.969325999999999 21.919325999999998 36.794326
17.051484000000002 22.492927 39.094039
17.166457 16.013599999999997 9.284476999999999
17.187249 16.005957 10.6829
15.969325999999999 15.969325999999999 11.359957
14.750155999999999 15.943128 9.296596999999998
15.954564 15.982847999999999 8.591947
15.969325999999999 15.969325999999999 12.994326
14.744985 15.936556 10.694612999999999
16.972451999999997 21.264482 9.284476999999999
16.98502 21.24624 10.6829
15.969325999999999 21.919325999999998 11.359957
14.958637 22.601652 9.296596999999998
15.965076999999999 21.938888 8.591947
15.969325999999999 21.919325999999998 12.994326
14.950621 22.599269999999997 10.694612999999999
35.011653 21.803400000000003 9.284476999999999
35.031239 21.79305 10.6829
33.819326 21.919325999999998 11.359957
32.60757 22.056109 9.296596999999998
33.806502 21.934697 8.591947
33.819326 21.919325999999998 12.994326
32.601569 22.050286 10.694612999999999
21.052483 28.696165999999998 9.284476999999999
21.043453 28.716395 10.6829
21.919325999999998 27.869326 11.359957
22.788593 27.014085 9.296596999999998
21.919936 27.849317 8.591947
21.919325999999998 27.869326 12.994326
22.796909 27.014964999999997 10.694612999999999
9.284476999999999 28.538472 26.875684
10.6829 28.542949 26.853988
11.359957 27.869326 27.869326
9.296596999999998 27.203909000000003 28.891227
8.591947 27.873026000000003 27.889000000000003
12.994326 27.869326 27.869326
10.694612999999999 27.195597999999997 28.892153
9.284476999999999 20.723174999999998 21.98493
10.6829 20.70317 21.994446000000003
11.359957 21.919325999999998 21.919325999999998
9.296596999999998 23.135768 21.833702000000002
8.591947 21.932786 21.904508999999997
12.994326 21.919325999999998 21.919325999999998
10.694612999999999 23.141519000000002 21.839773
9.284476999999999 15.690548999999999 14.804266
10.6829 15.677603999999999 14.786288999999998
11.359957 15.969325999999999 15.969325999999999
9.296596999999998 16.271433000000002 17.150762999999998
8.591947 15.986313999999998 15.979915
12.994326 15.969325999999999 15.969325999999999
10.694612999999999 16.266489999999997 17.157508
9.284476999999999 21.397421 34.89761
10.6829 21.396058 34.919721
11.359957 21.919325999999998 33.819326
9.296596999999998 22.433543 32.713594
8.591947 21.912881 33.800373
12.994326 21.919325999999998 33.819326
10.694612999999999 22.441639000000002 32.711503
40.504175000000004 32.950739 16.794334
39.105752 32.930089 16.802355
38.428695000000005 33.819326 15.969325999999999
40.492055 34.716399 15.143298
41.196705 33.839341 15.969703999999998
36.794326 33.819326 15.969325999999999
39.094039 34.71593 15.134948999999999
40.504175000000004 15.03587 27.118499
39.105752 15.025167999999999 27.099103
38.428695000000005 15.969325999999999 27.869326
40.492055 16.907590999999996 28.648249
41.196705 15.97162 27.889212
36.794326 15.969325999999999 27.869326
39.094039 16.915802999999997 28.646670999999998
40.504175000000004 22.929249 22.563637999999997
39.105752 22.942006999999997 22.581747999999997
38.428695000000005 21.919325999999998 21.919325999999998
40.492055 20.901553 21.247611999999997
41.196705 21.914872000000003 21.899808999999998
36.794326 21.919325999999998 21.919325999999998
39.094039 20.893562 21.250078
40.504175000000004 22.132613999999997 26.690517
39.105752 22.144534999999998 26.671844999999998
38.428695000000005 21.919325999999998 27.869326
40.492055 21.683658 29.065789000000002
41.196705 21.902955 27.880847000000003
36.794326 21.919325999999998 27.869326
39.094039 21.688969999999998 29.072246999999997
26.678319000000002 9.284476999999999 21.790551
26.658845 10.6829 21.779991000000003
27.869326 11.359957 21.919325999999998
29.079537000000002 9.296596999999998 22.069166000000003
27.881984000000003 8.591947 21.934834000000002
27.869326 12.994326 21.919325999999998
29.085600999999997 10.694612999999999 22.063408000000003
22.826435000000004 9.284476999999999 22.701780999999997
22.836464999999997 10.6829 22.721533
21.919325999999998 11.359957 21.919325999999998
21.008376 9.296596999999998 21.108627
21.917716 8.591947 21.899372
21.919325999999998 12.994326 21.919325999999998
21.000115 10.694612999999999 21.109921999999997
27.496048000000002 9.284476999999999 14.831017999999998
27.497649000000003 10.6829 14.808922999999998
27.869326 11.359957 15.969325999999999
28.231319999999997 9.296596999999998 17.133809999999997
27.860408999999997 8.591947 15.987248999999998
27.869326 12.994326 15.969325999999999
28.239064999999997 10.694612999999999 17.136963
21.345737 9.284476999999999 14.917623999999998
21.343303 10.6829 14.895605
21.919325999999998 11.359957 15.969325999999999
22.486567 9.296596999999998 17.048817
21.913808000000003 8.591947 15.988569
21.919325999999998 12.994326 15.969325999999999
22.494754999999998 10.694612999999999 17.050513000000002
28.743958999999997 40.504175000000004 34.637921999999996
28.764667000000003 39.105752 34.645791
27.869326 38.428695000000005 33.819326
26.966200999999998 40.492055 32.999919999999996
27.849314 41.196705 33.819851
27.869326 36.794326 33.819326
26.966608 39.094039 32.991566999999996
23.025563 40.504175000000004 16.429024
23.047714999999997 39.105752 16.429127
21.919325999999998 38.428695000000005 15.969325999999999
20.786124 40.492055 15.518866
21.900771 41.196705 15.976839
21.919325999999998 36.794326 15.969325999999999
20.783575 39.094039 15.510900999999999
33.453171 40.504175000000004 26.728707
33.438902 39.105752 26.711761000000003
33.819326 38.428695000000005 27.869326
34.209984 40.492055 29.024509000000002
33.837067 41.196705 27.878599
33.819326 36.794326 27.869326
34.205566 39.094039 29.031608999999996
16.163629999999998 40.504175000000004 17.151412
16.175249 39.105752 17.170273
15.969325999999999 38.428695000000005 15.969325999999999
15.752929 40.492055 14.769228
15.953142999999999 41.196705 15.957543
15.969325999999999 36.794326 15.969325999999999
15.758344 39.094039 14.762856
24.894326 18.944325999999997 11.518664999999999
18.944325999999997 37.837776000000005 11.950876
11.518664999999999 30.844326000000002 24.894326
11.518664999999999 24.894326 24.894326
11.950876 30.844326000000002 37.837776000000005
24.894326 37.837776000000005 37.837776000000005
24.894326 11.518664999999999 30.844326000000002
18.944325999999997 11.518664999999999 30.844326000000002
18.944325999999997 24.894326 38.269987
37.837776000000005 18.944325999999997 37.837776000000005
11.950876 37.837776000000005 18.944325999999997
30.844326000000002 24.894326 38.269987
37.837776000000005 18.944325999999997 11.950876
24.894326 11.518664999999999 18.944325999999997
30.844326000000002 30.844326000000002 38.269987
24.894326 30.844326000000002 11.518664999999999
18.944325999999997 30.844326000000002 38.269987
12.994326 12.994326 18.944325999999997
12.994326 12.994326 24.894326
12.994326 12.994326 30.844326000000002
12.994326 18.944325999999997 12.994326
12.994326 18.944325999999997 18.944325999999997
12.994326 18.944325999999997 24.894326
12.994326 18.944325999999997 36.794326
12.994326 24.894326 12.994326
12.994326 24.894326 18.944325999999997
12.994326 24.894326 30.844326000000002
12.994326 24.894326 36.794326
12.994326 30.844326000000002 12.994326
12.994326 30.844326000000002 18.944325999999997
12.994326 30.844326000000002 30.844326000000002
12.994326 36.794326 24.894326
12.994326 36.794326 30.844326000000002
18.944325999999997 12.994326 12.994326
18.944325999999997 12.994326 18.944325999999997
18.944325999999997 12.994326 24.894326
18.944325999999997 12.994326 36.794326
18.944325999999997 18.944325999999997 12.994326
18.944325999999997 18.944325999999997 18.944325999999997
18.944325999999997 18.944325999999997 24.894326
18.944325999999997 18.944325999999997 30.844326000000002
18.944325999999997 18.944325999999997 36.794326
18.944325999999997 24.894326 12.994326
18.944325999999997 24.894326 18.944325999999997
18.944325999999997 24.894326 24.894326
18.944325999999997 24.894326 30.844326000000002
18.944325999999997 30.844326000000002 12.994326
18.944325999999997 30.844326000000002 18.944325999999997
18.944325999999997 30.844326000000002 24.894326
18.944325999999997 30.844326000000002 30.844326000000002
18.944325999999997 36.794326 18.944325999999997
18.944325999999997 36.794326 24.894326
18.944325999999997 36.794326 30.844326000000002
18.944325999999997 36.794326 36.794326
24.894326 12.994326 24.894326
24.894326 12.994326 36.794326
24.894326 18.944325999999997 18.944325999999997
24.894326 18.944325999999997 24.894326
24.894326 18.944325999999997 30.844326000000002
24.894326 18.944325999999997 36.794326
24.894326 24.894326 12.994326
24.894326 24.894326 18.944325999999997
24.894326 24.894326 24.894326
24.894326 24.894326 30.844326000000002
24.894326 24.894326 36.794326
24.894326 30.844326000000002 18.944325999999997
24.894326 30.844326000000002 24.894326
24.894326 30.844326000000002 30.844326000000002
24.894326 36.794326 12.994326
24.894326 36.794326 18.944325999999997
24.894326 36.794326 24.894326
24.894326 36.794326 30.844326000000002
30.844326000000002 12.994326 12.994326
30.844326000000002 12.994326 18.944325999999997
30.844326000000002 12.994326 24.894326
30.844326000000002 12.994326 30.844326000000002
30.844326000000002 12.994326 36.794326
30.844326000000002 18.944325999999997 12.994326
30.844326000000002 18.944325999999997 18.944325999999997
30.844326000000002 18.944325999999997 24.894326
30.844326000000002 18.944325999999997 30.844326000000002
30.844326000000002 18.944325999999997 36.794326
30.844326000000002 24.894326 12.994326
30.844326000000002 24.894326 18.944325999999997
30.844326000000002 24.894326 24.894326
30.844326000000002 24.894326 30.844326000000002
30.844326000000002 30.844326000000002 12.994326
30.844326000000002 30.844326000000002 18.944325999999997
30.844326000000002 30.844326000000002 24.894326
30.844326000000002 30.844326000000002 30.844326000000002
30.844326000000002 36.794326 18.944325999999997
30.844326000000002 36.794326 24.894326
30.844326000000002 36.794326 30.844326000000002
30.844326000000002 36.794326 36.794326
36.794326 12.994326 18.944325999999997
36.794326 12.994326 24.894326
36.794326 12.994326 30.844326000000002
36.794326 18.944325999999997 18.944325999999997
36.794326 18.944325999999997 24.894326
36.794326 18.944325999999997 30.844326000000002
36.794326 24.894326 12.994326
36.794326 24.894326 18.944325999999997
36.794326 24.894326 24.894326
36.794326 24.894326 30.844326000000002
36.794326 24.894326 36.794326
36.794326 30.844326000000002 12.994326
36.794326 30.844326000000002 18.944325999999997
36.794326 30.844326000000002 24.894326
36.794326 30.844326000000002 36.794326
36.794326 36.794326 18.944325999999997
36.794326 36.794326 24.894326
36.794326 36.794326 30.844326000000002
15.498311 25.747947000000003 41.024541
15.986381 27.845379 42.288652
16.458931 29.958509 41.047378
16.445135 29.973518999999996 38.555856000000006
15.491817999999999 25.766827 38.532131
30.039943 33.716735 41.024541
27.890016000000003 33.840212 42.288652
25.727265000000003 33.945721999999996 41.047378
25.714827 33.92957 38.555856000000006
30.022446000000002 33.707118 38.532131
34.730832 25.896698 41.024541
33.847407 27.860621000000002 42.288652
32.942122 29.827619999999996 41.047378
32.922052 29.831192 38.555856000000006
34.714222 25.907776 38.532131
17.885962 22.943343 41.024541
15.976393 21.947862999999998 42.288652
14.065017 20.930383 41.047378
14.062610999999999 20.910139 38.555856000000006
17.875863 22.926119999999997 38.532131
13.796883999999999 15.918337999999999 8.764111
15.949138 15.990698 7.499999999999999
18.113785 16.044790999999996 8.741273999999999
18.125836 16.028348 11.232795999999999
13.814148 15.908309 11.256521
14.165890999999998 23.131648 8.764111
15.965176999999999 21.948431 7.499999999999999
17.764038999999997 20.743142999999996 8.741273999999999
17.764389 20.72276 11.232795999999999
14.174199 23.113493 11.256521
31.65952 22.158792 8.764111
33.802172 21.943201000000002 7.499999999999999
35.954667 21.707853 8.741273999999999
35.964415 21.689948 11.232795999999999
31.675291 22.146548000000003 11.256521
23.471359999999997 26.348374 8.764111
21.918096 27.839953 7.499999999999999
20.369276 29.353153999999996 8.741273999999999
20.37265 29.373258999999997 11.232795999999999
23.466502 26.367739999999998 11.256521
8.764111 26.67996 29.687983000000003
7.499999999999999 27.876832 27.897750000000002
8.741273999999999 29.064723 26.087353999999998
11.232795999999999 29.057111999999996 26.068441999999997
11.256521 26.680546999999997 29.668025999999998
8.764111 24.087300999999997 21.77104
7.499999999999999 21.937469999999998 21.896194
8.741273999999999 19.776972999999998 22.040674000000003
11.232795999999999 19.76648 22.058152
11.256521 24.071029000000003 21.782609
8.764111 16.503503000000002 18.075687000000002
7.499999999999999 15.995332999999999 15.983033999999998
8.741273999999999 15.466239999999999 13.883348
11.232795999999999 15.447165 13.876154
11.256521 16.489207 18.061749999999996
8.764111 22.839551999999998 31.850751000000002
7.499999999999999 21.907876 33.792249
8.741273999999999 20.987941 35.752438
11.232795999999999 20.99815 35.770084
11.256521 22.841793000000003 31.870590999999997
41.024541 35.414974 14.494195
42.288652 33.848603 15.972002999999999
41.047378 32.260855 17.444305999999997
38.555856000000006 32.24094 17.439943999999997
38.532131 35.395393 14.498092
41.024541 17.644042999999996 29.254036999999997
42.288652 15.970576999999999 27.898698000000003
41.047378 14.299714999999999 26.521439
38.555856000000006 14.301381999999998 26.501120999999998
38.532131 17.637571 29.235149999999997
41.024541 20.103305 20.72594
42.288652 21.914873 21.890265999999997
41.047378 23.726247 23.076666000000003
38.555856000000006 23.72681 23.097043999999997
38.532131 20.111803000000002 20.744006999999996
41.024541 21.503596 30.002228000000002
42.288652 21.894125000000003 27.884465
41.047378 22.305152 25.758511
38.555856000000006 22.323794999999997 25.750264
38.532131 21.517091 29.987515000000002
30.026424 8.764111 22.182065
27.886221999999997 7.499999999999999 21.943385
25.73639 8.741273999999999 21.684842000000003
25.726835 11.232795999999999 21.666834
30.010785999999996 11.256521 22.169652
20.293172 8.764111 20.477894
21.919085000000003 7.499999999999999 21.889927999999998
23.541643 8.741273999999999 23.323779000000002
23.539278000000003 11.232795999999999 23.344028
20.298992 11.256521 20.496992999999996
28.518501999999998 8.764111 18.043132999999997
27.854363 7.499999999999999 15.994632
27.204357 8.741273999999999 13.929174999999999
27.216831 11.232795999999999 13.913049999999998
28.523370999999997 11.256521 18.02377
22.933948 8.764111 17.890952
21.909202 7.499999999999999 15.996927
20.895277999999998 8.741273999999999 14.083663
20.90462 11.232795999999999 14.065543
22.935223999999998 11.256521 17.871026999999998
26.262869000000002 41.024541 32.355973
27.840069999999997 42.288652 33.822218
29.438606 41.047378 35.282802
29.458486999999998 38.555856000000006 35.278294
26.282479000000002 38.532131 32.359726
19.901573999999997 41.024541 15.162615999999998
21.892944 42.288652 15.982299
23.902307 41.047378 16.789195
23.919342999999998 38.555856000000006 16.777997999999997
19.921253999999998 38.532131 15.159248999999999
34.511392 41.024541 29.929215999999997
33.846296 42.288652 27.881026
33.159805 41.047378 25.827407
33.14024 38.555856000000006 25.821678
34.496082 38.532131 29.916401
15.587947999999999 41.024541 13.830013999999998
15.944370999999999 42.288652 15.953783999999999
16.321157999999997 41.047378 18.086072
16.339667 38.555856000000006 18.094617999999997
15.601206 38.532131 13.844942999999999
25.595968 18.17763 11.184743999999998
23.879526 18.720034 11.184743999999998
25.207483000000003 19.935313999999998 11.184743999999998
24.247689 19.650917 13.369067999999999
25.829571 19.151034 13.369067999999999
24.605718000000003 18.031025999999997 13.369067999999999
19.819381999999997 38.470379 12.111244
18.992390999999998 37.33979 10.980654999999999
18.021205000000002 38.411512 12.052375999999999
18.137869000000002 36.163941 12.893906
18.900028999999996 37.205895999999996 13.935861999999998
19.795079 36.218193 12.948158
11.184743999999998 29.809221 24.801141
11.184743999999998 31.281177 25.837345
11.184743999999998 31.442579000000002 24.044491999999998
13.369067999999999 31.798284000000002 24.980206000000003
13.369067999999999 30.441721 24.025233999999998
13.369067999999999 30.292972999999996 25.677538
11.184743999999998 24.861134999999997 25.933086000000003
11.184743999999998 25.810515000000002 24.403689999999997
11.184743999999998 24.011329000000003 24.346201
13.369067999999999 24.924915 23.936999
13.369067999999999 24.049962 25.346499
13.369067999999999 25.708101 25.399479999999997
10.980087999999999 30.869711000000002 37.339223
12.066548999999998 29.931849999999997 38.425684000000004
12.097638 31.731417 38.456773
13.936383999999999 30.820932 37.206419
12.935096999999999 31.685268 36.205131
12.906444999999998 30.026778 36.176479
24.594959000000003 37.370152 38.777635000000004
25.905912999999998 38.24244 37.905347000000006
24.182105999999997 38.609089 37.538699
25.170223999999997 37.177915 35.880772
23.962041999999997 36.37401 36.684677
25.550711999999997 36.036105 37.022582
24.099313000000002 11.184743999999998 30.174937999999997
25.871539 11.184743999999998 30.490519
24.712125999999998 11.184743999999998 31.867520999999996
25.627014000000003 13.369067999999999 31.461236999999997
23.993721 13.369067999999999 31.170395999999997
25.062243000000002 13.369067999999999 29.901344
17.908955 11.184743999999998 30.934503
19.383916 11.184743999999998 29.90258
19.540107 11.184743999999998 31.695895
19.898528999999996 13.369067999999999 30.761218
18.539198 13.369067999999999 31.712244
18.395251000000002 13.369067999999999 30.059516000000002
19.747318 24.234530999999997 38.603908000000004
19.114229 25.919635 38.603908000000004
17.971431 24.528812000000002 38.603908000000004
18.204285 25.502395999999997 36.419584
18.787742 23.949396 36.419584
19.840950999999997 25.231186 36.419584
37.684290000000004 19.825542999999996 38.463497000000004
37.729062 18.026553 38.418725
38.808328 18.980883 37.339459
36.888404 18.132191999999996 36.170282
36.847141 19.790151 36.211545
35.852484 18.910635 37.206202
10.993081 37.352216 19.140509
12.195733999999998 38.554869 19.730106
11.955459999999999 38.314596 17.962364
13.92441 37.194445 18.763523
12.816039 36.086073 18.220148000000002
13.037476999999999 36.307511 19.849308
31.231274 25.858896 38.603908000000004
29.815509 24.747148000000003 38.603908000000004
31.486193999999998 24.076934 38.603908000000004
30.487713 24.005373 36.419584
31.792488999999996 25.029966 36.419584
30.252777000000002 25.647638999999998 36.419584
37.454781 19.504258999999998 11.095645999999999
38.726337 19.422614 12.367201999999999
38.040562 17.906104999999997 11.681427
37.09992 18.428288000000002 13.829884999999999
35.928048 18.503534000000002 12.658013