137_cspbbr3_4\137_cspbbr3_4.xyz
1.0
44.731855 0 0
0 44.731855 0
0 0 44.731855
Br Cs Pb 
240 112 64 
Cartesian
31.440251500000002 34.348375499999996 31.1689255
34.414339500000004 19.5326455 25.4567745
34.1015465 19.176334500000003 19.385507500000003
31.4616995 34.0917525 25.432170499999998
25.407079500000002 25.559976499999998 10.320052500000001
25.196740499999997 22.5354605 13.384358500000001
22.449512499999997 25.4905585 13.337010500000002
34.2967235 19.511866500000004 13.6521225
22.234027500000003 31.143373500000003 13.3765645
25.096613500000004 25.285456500000002 16.4227255
25.237021499999997 28.290710500000003 13.251677500000001
25.261847500000002 22.4659025 19.6117365
25.511399500000003 31.370287500000003 10.507378500000002
25.167748500000002 25.405193500000003 34.4116255
34.286635499999996 13.5211935 31.5633585
34.4285545 13.4733025 25.2010785
25.3847685 25.155330499999998 22.3675585
25.243787500000003 19.561440500000003 34.2582875
25.581596500000003 22.350035499999997 25.358543500000003
22.5405795 25.357792500000002 25.270053500000003
34.445902499999995 13.481971500000002 19.5773685
34.2308885 13.674663500000001 13.410626500000001
25.560432499999997 25.211327500000003 28.4637005
25.4699405 22.2777745 31.4015955
22.5252335 25.3385435 31.4600025
22.246109500000003 25.118751500000002 19.3052955
31.1510805 22.1096475 31.3297065
34.2360305 19.6176795 31.3058075
25.608168499999998 16.5369435 31.231607500000003
25.214839500000004 10.320381500000002 13.324457500000001
22.4928575 13.295448500000001 13.426650500000001
34.1266745 31.4517825 31.116026500000004
25.4175885 13.377615500000001 16.5756485
25.2756075 10.687755500000002 19.320690499999998
22.5327555 13.582312500000002 19.4987105
34.0554155 31.2094995 25.164964500000004
25.3556575 13.631243500000002 22.3457625
25.2451875 10.664260500000001 25.193563500000003
22.4991325 13.4200975 25.201507499999998
34.4463575 31.2531825 19.5403875
25.146468499999997 10.3382745 31.254220500000002
22.396395499999997 13.3086745 31.1658635
34.2755235 31.5092615 13.5530685
22.1949125 19.282225500000003 31.095583500000004
25.197815499999997 13.301747500000001 34.324420499999995
25.359835500000003 16.602990500000004 13.495764500000002
34.4056145 25.164550499999997 31.447610500000003
22.3515035 19.1637665 13.3773525
34.1047905 25.1132105 25.411877500000003
25.3041155 19.5853715 16.3362555
25.3750535 16.5637015 19.286362500000003
34.325118499999995 25.449954499999997 19.1800765
22.4334105 19.204134500000002 19.514559499999997
34.2006995 25.0530045 13.404635500000001
25.375445499999998 19.5408745 22.2432405
25.507873500000002 16.2879645 25.229043500000003
22.5123035 19.168428499999997 25.389044499999997
31.163182499999998 34.0883385 19.2760775
25.464003499999997 19.457854500000003 28.463269500000003
25.2932695 19.3863555 10.238648500000002
25.3589055 31.0951625 16.574482500000002
25.627917500000002 31.3495255 22.3334895
22.4686265 31.416867500000002 19.2440145
31.4694025 16.323435500000002 13.5742325
28.129284500000004 19.479535499999997 13.380249500000001
28.417300500000003 31.326778500000003 19.6517025
31.216406499999998 19.210108499999997 16.621145499999997
31.4584665 28.1541275 19.411547499999998
31.3487505 16.2740905 19.5446965
28.343542499999998 19.5517865 19.240832500000003
31.229142500000002 31.483433500000004 16.3617225
31.387913500000003 19.529216499999997 22.202341500000003
31.3355745 16.466775500000004 25.5591535
28.133382500000003 19.3804225 25.3333955
28.3083035 31.0383555 13.4227465
31.342763500000004 19.5746545 28.5235395
31.108019500000005 28.384744500000004 13.371512500000001
31.2107915 16.618140500000003 31.4553715
28.4684745 19.598865500000002 31.3147375
31.357017499999998 19.196498499999997 34.4140665
31.353590500000003 31.231530499999998 10.1921715
31.132057500000002 25.181785500000004 10.276093500000002
31.340089499999998 22.1776015 13.667463500000002
28.456655500000004 25.5253845 13.383373500000001
31.5141675 25.2718025 16.3114455
31.249596500000003 22.219745500000002 19.2824915
31.4062865 25.3610715 34.4133345
28.2089445 25.469356500000004 19.276371500000003
28.411665499999998 25.5699555 31.454963499999998
31.262775500000004 25.1468335 22.3903945
31.211577500000004 22.139785500000002 25.1789675
28.4107675 25.4473865 25.2156795
31.1041515 19.292120500000003 10.530300500000001
25.345214499999997 28.485105500000003 19.223654500000002
31.4470965 13.4272775 34.3959445
31.1635525 10.256737500000002 31.198223500000005
31.248374500000004 34.4697635 13.233457500000002
31.3122265 31.438202500000003 34.4163735
31.448649500000002 25.485229500000003 28.5200355
25.3256065 28.0788095 25.497102499999997
22.1609015 31.397144500000003 25.3521755
28.3779355 31.421186500000005 31.165231500000004
25.4387775 31.176959500000002 28.474095500000004
25.3234555 28.265871500000003 31.1125995
22.5271415 31.143547500000004 31.429905500000004
25.3894995 31.083501500000004 34.2053185
25.220380499999997 34.4943775 13.310270500000001
25.2590845 34.1084725 19.5819615
31.214836500000004 28.2167375 31.027232500000004
25.1741405 34.1232525 25.235656499999997
25.155336499999997 34.4783155 31.2840725
31.090610500000004 31.225195499999998 28.5207895
31.4314685 13.281210500000002 10.3214415
31.3170645 10.3761275 13.255187500000002
28.1794955 13.3514955 13.2111295
31.159873500000003 13.466328500000001 16.5719845
28.1416105 31.442418500000002 25.214575500000002
31.006784500000002 10.471082500000001 19.4494325
28.567887499999998 13.5647955 19.333988500000004
31.197126500000003 28.4861485 25.363546499999998
25.4880895 13.668607500000002 10.3992655
31.3862905 31.368804500000003 22.188933499999997
31.1416415 10.651509500000001 25.445550500000003
28.4364695 13.343908500000001 25.446361500000002
31.120265500000002 13.4978805 28.5154735
28.1936345 13.279692500000001 31.310095500000003
31.239754500000004 13.3779485 22.135985499999997
25.367509499999997 13.321886500000002 28.1492225
19.4178135 19.5059405 16.6275015
13.5185445 16.619960499999998 25.2209085
19.3088025 13.5883315 10.402034500000001
19.2303415 10.3619105 13.648219500000002
13.273745500000002 19.486020500000002 22.312833500000004
16.3774825 13.622715500000002 13.619497500000001
19.470245499999997 13.3015755 16.5034275
19.1797245 10.279594500000002 19.344004499999997
16.2975565 13.314727500000002 19.2996665
10.528211500000001 19.2128065 19.4523655
19.331596500000003 13.610843500000001 22.133897500000003
19.1757955 10.4764645 25.4175775
13.199423500000002 16.4903865 19.385132499999997
16.4011055 13.3072285 25.483861500000003
13.567383500000002 19.5525885 16.279959500000004
19.2175485 13.618614500000001 28.328838500000003
19.2098485 10.5994995 31.201499500000004
10.605948500000002 19.5815025 13.4707465
16.535033499999997 13.548960500000002 31.4135215
19.5096215 13.570274500000002 34.4070095
13.498147500000002 16.593303499999998 13.316006500000002
19.3695005 19.1815505 10.505887500000002
13.4277505 19.2672635 10.311780500000001
19.275282500000003 16.541611500000002 13.367297500000001
16.485716500000002 19.279861500000003 13.5841425
13.418442500000001 22.506663500000002 25.094911500000002
19.147836499999997 16.3188385 19.4248355
16.520743500000002 19.3998025 19.6634855
19.3735395 19.555550500000003 22.479366499999998
13.3057055 13.5777595 34.094229500000004
13.3249235 34.4559805 31.416348499999998
19.424656499999998 16.663382499999997 25.265266500000003
10.4255045 19.288715500000002 25.181748499999998
13.369628500000001 34.356764500000004 19.174062499999998
10.322323500000001 25.465326500000003 25.2666045
10.4180775 25.6015175 19.2714595
13.5351075 25.508415499999998 28.149139500000004
13.389356500000002 22.4865955 31.451707499999998
10.5050035 25.5513185 31.233456500000003
13.334324500000001 22.3714205 19.240967500000004
13.314827500000002 25.2022885 16.6046295
13.509889500000002 25.549268500000004 34.0739515
13.6094535 31.1413065 10.324490500000001
13.625471500000002 28.3356555 13.590255500000001
10.2375845 25.154320499999997 13.460996500000002
10.726187500000002 31.1692205 13.3684375
13.578103500000001 31.1199085 16.6168635
13.3728355 28.5628945 19.2452555
13.5363295 22.412650499999998 13.640737500000002
10.532084500000002 31.255241500000004 19.181672499999998
13.7172785 25.2772225 10.497022500000002
13.4796565 31.4150385 22.227996500000003
13.4203755 28.451144499999998 25.509817499999997
10.2678115 31.2912655 25.4823425
13.576050500000001 19.297397500000002 34.1148295
13.4675545 31.496297500000004 28.1669365
13.344204500000002 28.5141835 31.358158500000002
10.3054915 31.2302965 31.4072995
13.6010705 31.425642500000002 34.2049285
13.514133500000002 34.4214755 13.683520500000002
10.312859500000002 19.356421500000003 31.396210500000002
13.378899500000001 16.222981500000003 31.2135545
13.410918500000001 19.5059945 28.460435500000003
13.461503500000001 34.4452135 25.533013500000003
16.5135085 19.302603500000004 25.472511500000003
13.3172975 25.225702499999997 22.5650605
19.516946500000003 28.4155825 13.6298375
19.239793499999998 28.5036475 25.271251499999998
13.340950500000002 10.291365500000001 25.352141500000002
10.519424500000001 13.4004475 13.6669605
19.5768725 25.353016500000003 28.5498155
19.3864155 31.442088500000004 34.0490505
13.4092605 13.2429815 22.2550715
19.5471445 22.187349500000003 31.1975525
16.5785975 25.4498495 31.439238500000002
19.495743500000003 25.372406499999997 34.4440605
16.4091245 31.530660500000003 31.344393500000002
19.4366185 22.5912935 25.3915925
19.322503500000003 31.113884500000005 10.581013500000001
16.4262845 31.059993500000004 13.552501500000002
19.5410775 28.2056855 31.500347500000004
19.5215835 31.1576175 28.2518775
10.417004500000001 13.584995500000002 19.190053499999998
19.409513500000003 31.397437500000002 16.1631965
19.3309415 28.524029500000005 19.4143215
16.584281500000003 31.293997500000003 19.2346505
13.582263500000002 13.568988500000001 16.4562825
13.516094500000001 10.562354500000001 19.233667500000003
19.2527865 31.423781500000004 22.159713500000002
19.574071500000002 19.339180499999998 28.1895015
19.5002425 25.246019500000003 22.184959499999998
16.569263499999998 25.551618500000004 25.4633865
19.527674500000003 34.4095965 13.439049500000001
10.509739500000002 13.5633885 31.143119500000005
19.453664500000002 16.615621500000003 31.387173500000003
19.509825499999998 34.4115165 31.305077500000003
16.183131500000002 19.391605499999997 31.147243500000002
13.302112500000002 10.398597500000001 31.127357500000002
19.1846375 19.5050655 34.299907499999996
13.3228325 13.328641500000002 10.3749075
19.575498500000002 34.300191500000004 25.544923500000003
13.584148500000001 13.395601500000001 28.161762500000002
19.200937500000002 22.461875499999998 13.485161500000002
16.2823755 25.2499635 13.565368500000002
19.2572075 25.4740555 10.318827500000001
19.365610500000003 22.447292500000003 19.566128499999998
10.4957735 13.648965500000001 25.3450085
16.5587145 25.184962499999997 19.286995500000003
19.1825805 25.322239500000002 16.6124175
13.2883835 10.535630500000002 13.565014500000002
16.4625555 31.0887715 25.215959499999997
19.461867499999997 34.034234500000004 19.3843625
34.0298965 28.063249499999998 10.182025500000002
33.897003500000004 27.978485499999998 34.5472375
34.314105500000004 28.074295499999998 16.886168500000004
27.977819500000003 28.773551500000004 10.578141500000001
28.565349500000004 22.0307975 28.340650500000002
28.1699675 22.6280565 34.6876685
34.4875555 22.0455745 34.6826995
34.226527499999996 27.766045500000004 22.489638499999998
34.5427895 28.0109305 28.4110985
10.6925775 22.2068815 10.067277500000001
10.373786500000001 22.275073499999998 16.7757535
10.923582500000002 10.455733500000001 16.7411485
33.933857499999995 10.900395500000002 16.3600055
28.653130500000003 28.554900500000002 16.511998500000004
34.6469455 10.363337500000002 22.2737615
28.139410500000004 34.745693499999994 34.1010415
10.8619885 16.2092685 10.5442335
34.2322925 10.053090500000001 27.8909235
27.867602500000004 34.5918235 28.356649500000003
10.915878500000002 10.7154865 28.0154895
33.8297725 16.7006345 16.1053335
28.3134405 34.5365555 15.875020500000002
28.747418500000002 34.4012045 10.597860500000001
10.6965745 16.6308785 16.1783025
27.9401335 28.435506500000002 34.3979845
34.567502499999996 16.712740500000002 22.800714499999998
33.992132500000004 16.080591500000004 27.9906875
10.5999645 16.1619015 21.8660285
28.5267585 28.064468500000004 28.010388499999998
34.448032500000004 16.2848525 33.9549605
34.593597499999994 22.649159500000003 10.538282500000001
10.7077565 10.1528755 22.002905499999997
10.3318325 16.709047500000004 28.7663675
28.3669645 27.961262500000004 22.210744499999997
34.1444595 22.726791499999997 16.757245500000003
34.346968499999996 22.061200499999998 22.586146499999998
9.915090500000002 16.219846500000003 34.2639275
34.4828745 22.5447865 28.017950499999998
16.322998500000004 34.6211925 33.9252375
10.009415500000001 34.5082465 22.6764175
27.913625500000002 22.115126500000002 22.7393905
16.7611115 22.7113115 34.6297635
22.771474500000004 15.9968935 34.1000095
22.1947075 21.9750875 10.0608535
16.566821500000003 22.4279035 27.880295500000003
22.062071500000002 22.185815499999997 16.163267500000003
16.4920605 22.673280499999997 22.621241500000004
22.7206465 16.264306500000004 28.449298500000005
22.7245835 22.079437499999997 22.276618499999998
22.4385555 22.6957885 28.493494500000004
16.5021705 22.0129845 10.574307500000002
16.5450005 16.073035500000003 33.9604875
22.638817500000002 22.573801500000002 33.9558895
22.6717285 28.118706500000002 10.532296500000001
16.0725305 16.3888135 27.914885500000004
16.9749635 22.312546500000003 16.4365405
22.5792455 28.8184865 16.3151235
16.1849255 28.2119005 10.853661500000001
16.7846805 28.610187500000002 16.411517500000002
16.6946235 33.931144499999995 28.3257865
22.0963305 10.530819500000002 16.1239485
16.652153499999997 34.541301499999996 21.8777015
16.785045500000003 34.2465905 16.2095805
22.700984499999997 10.3875325 22.562571499999997
16.1580365 34.7199585 10.625544500000002
22.1181225 16.847981500000003 22.141222499999998
16.480253500000003 28.7726445 34.2698875
34.4214845 34.2168515 21.838139499999997
22.086015500000002 10.5145715 34.5681905
16.849456500000002 28.321923500000004 28.089076500000004
21.965259500000002 16.2239395 10.705117500000002
16.530120500000002 28.0370705 21.9655365
22.152004499999997 16.734674500000004 16.509690499999998
21.830977500000003 10.546748500000001 28.229366500000005
16.343284500000003 16.3730845 21.9194935
22.855000500000003 28.1170245 22.2754335
15.910944500000001 16.6011685 16.259142500000003
28.672382499999998 16.5369235 10.7128525
10.7844045 28.1595485 33.896877499999995
28.4114085 16.0702395 16.6926475
10.7342925 28.5713475 28.500490499999998
28.4169975 16.0574265 22.1032345
10.321399500000002 28.0737265 22.762299499999997
10.340518500000002 33.865224500000004 16.386019500000003
27.788315500000003 16.371269500000004 28.5778965
28.0285655 16.707632500000003 34.2492775
28.2696385 22.5224715 10.132381500000001
10.1195725 28.046628500000004 10.489667500000001
10.5150105 22.066719499999998 34.060196499999996
28.588576500000002 22.0908255 16.5893375
10.252826500000001 22.3288235 27.8038295
10.5644135 28.1244125 16.804655500000003
28.1572995 10.128668500000002 34.0417055
22.0438465 10.227846500000002 10.347186500000001
10.6961805 33.998715499999996 28.578050500000003
22.726574499999998 27.8980125 28.4442685
16.469472500000002 16.8028165 10.155608500000001
16.0242235 10.6120815 34.0373515
22.300489499999998 34.7782785 10.689016500000001
22.5848515 34.6110975 16.649012499999998
22.613521499999997 34.1100875 22.7834195
16.0970775 10.716440500000001 28.559090500000003
22.288908499999998 34.5550955 28.5951935
28.3834765 10.938559500000002 10.407741500000002
16.0307995 10.818164500000002 22.615120500000003
28.1067265 10.9197175 16.169630500000004
16.266313500000003 10.220959500000001 16.034457500000002
28.679229499999998 10.824061500000001 22.4688065
16.7885085 10.2297355 10.8843615
28.691035499999998 10.3590195 27.882571500000005
10.7374965 22.5004645 22.726651500000003
33.858019500000005 34.2867475 28.614940500000003
13.653958500000002 13.187560500000002 13.574084500000001
19.383920500000002 19.622065499999998 13.4587195
19.185843499999997 13.2893845 31.0967335
31.4059465 13.301621500000001 13.7065075
19.232330500000003 13.223074500000001 25.228601500000003
31.206114499999998 13.689792500000001 19.262992500000003
19.6422905 13.5509485 19.606925500000003
31.3470395 13.5928175 25.1747985
19.5675035 13.3286805 13.169471500000002
31.338122500000004 13.2593615 31.095321500000004
31.489790499999998 19.476696500000003 13.7343375
31.433463500000002 19.2688725 19.118739500000004
13.145898500000001 31.2381655 31.1536185
31.5116675 19.590593499999997 25.462146500000003
13.674731500000002 31.5241305 25.3600865
31.155024500000003 19.271106500000002 31.415372500000004
13.610200500000001 31.086198500000002 19.610864499999998
31.334813500000003 25.0672845 13.537648500000001
13.2320015 31.183733500000002 13.4347325
31.1456255 25.617811500000002 19.394205499999998
13.614900500000001 25.642548500000004 31.2699225
31.415273499999998 25.553647499999997 25.1052065
25.329353500000003 31.0617125 31.0298715
19.4958095 19.6074815 19.213696499999998
25.6109205 31.343351500000004 25.426004499999998
19.3103725 19.071586500000002 25.2554965
25.1758945 13.6144805 19.5661865
25.4656655 13.220360500000002 25.3106145
25.1155265 13.6103745 31.433842500000004
19.3276725 31.5648225 31.389477499999998
25.140986499999997 19.2105855 13.405615500000001
19.4576865 31.4947085 25.570645499999998
25.673165500000003 19.477101500000003 19.380770499999997
19.5808635 31.0238655 19.4871165
25.531822499999997 19.156552500000004 25.3317925
19.1346695 31.2328715 13.2386815
13.434750500000002 25.5252635 25.4890615
25.473124499999997 19.2435405 31.397940500000004
25.468334499999997 25.3999735 13.7079105
19.201165500000002 25.5176435 25.3857955
25.349073500000003 25.5400085 19.2086095
19.621219500000002 25.256176500000002 19.418668500000003
25.5327635 25.1455505 25.1162645
19.2253895 25.1856345 13.388376500000001
25.530987500000002 25.2360835 31.462258500000004
25.459388500000003 31.4569725 13.336329500000002
19.2251245 19.225035499999997 31.191705499999998
25.559399499999998 31.2415205 19.319633500000002
19.546608499999998 25.446811500000003 31.1714325
31.3671365 25.399330499999998 31.077960500000003
25.399406499999998 13.1257915 13.614176500000001
13.563852500000001 13.1546015 19.3432965
13.550344500000001 19.6087525 31.085201500000004
13.382046500000001 13.695801500000002 25.529306499999997
13.732390500000001 13.4041475 31.1860285
13.429576500000001 19.395601499999998 25.5799405
31.3612525 31.4936795 19.572427500000003
31.093121500000002 31.014877500000004 31.3044905
13.454026500000001 25.048416500000002 13.3826905
31.1209555 31.4087175 13.2799755
31.4983055 31.4560965 25.4635855
13.577486500000001 19.2063025 19.315616499999997
13.635601500000002 25.360507499999997 19.158046499999998
13.313694500000002 19.5275805 13.6843795
