1_train/62_cspbbr3_methylammonium_4_0.30\62_cspbbr3_methylammonium_4_0.30.xyz
1.0
47.811243000000005 0 0
0 47.811243000000005 0
0 0 47.811243000000005
Br C Cs H N Pb 
240 26 86 156 26 64 
Cartesian
24.1539975 26.9732835 26.823307500000002
35.9104665 21.098038499999998 15.1256225
23.7623785 27.0645265 20.7681565
26.7289695 23.9864055 26.7777085
26.9270835 23.7106675 20.8569735
26.7379275 26.9507395 23.7236685
35.6599635 15.1548235 32.9152195
23.9879425 27.012016499999998 32.7302495
27.0540925 26.7722665 29.6826415
26.9976125 23.7936545 32.6933475
26.7177055 27.0330975 18.139273499999998
26.8723085 26.719234500000002 36.041000499999996
35.87919550000001 15.1309425 21.0759025
27.0171035 32.670094500000005 11.9368055
26.989434499999998 29.7847955 14.7565795
23.7990465 32.6028825 15.0921195
35.669867499999995 14.8244495 15.0741065
32.8686665 36.0305565 33.0200125
26.789189500000003 32.661083500000004 18.1373275
26.913719500000003 29.7962825 21.204881500000003
24.0253295 32.6081875 20.7869745
33.0168775 35.890561500000004 27.008060500000003
36.019349500000004 15.0869805 27.005547500000002
35.967462499999996 20.9823315 20.8330465
35.76421450000001 20.7212405 32.8786725
23.756197500000003 27.0558715 14.8025455
35.6750895 32.6128105 32.6709655
26.9065245 12.0955525 26.7138755
24.0634835 15.1281875 27.0747085
35.80566950000001 32.7417985 26.719233499999998
35.82893850000001 32.8869575 20.7449925
26.6393235 14.830422500000001 29.885361500000002
26.9811845 12.105890500000001 32.590337500000004
23.7533115 14.898846500000001 32.9936645
27.0352895 15.1068005 35.8363585
35.656281500000006 33.0266765 15.0654595
27.030898500000003 21.0478415 11.8186905
26.857086499999998 17.7890325 15.1801355
24.0182155 20.799176499999998 15.2195405
26.786980500000002 20.7732645 17.9185865
27.119314499999998 17.976802499999998 21.0975035
23.7941255 20.7719505 20.986888500000003
35.907368500000004 26.7732835 32.7160075
35.9578075 26.7813905 26.6593465
27.0396375 20.9572415 24.014792500000002
26.7182925 17.8876975 27.0597185
23.6544195 20.8263305 26.7645315
35.681317500000006 26.6960045 20.924222500000003
26.7663885 21.1190305 29.9466495
27.120862499999998 17.9380305 32.7586205
24.0934835 20.725386500000003 32.752294500000005
27.0496755 20.8765415 35.7353105
35.8387465 26.7643275 14.814849500000001
26.666387500000003 26.6964085 12.0344885
26.9354305 23.6754285 15.1479425
35.6897915 21.024884500000002 26.9933525
26.8760245 33.0194495 23.9860795
29.9693645 26.8646095 32.6079105
23.8161175 32.7015965 26.993586500000003
29.8930205 20.7724855 14.8566895
32.9843265 21.1017465 17.950951500000002
32.7072035 17.7910115 21.0876835
29.8951425 20.8795995 21.153233500000002
29.8217125 32.710963500000005 20.7504325
32.920396499999995 18.1410405 26.8436495
29.6612035 21.1523255 26.9276215
32.790963500000004 29.6999485 20.7345305
32.8387715 20.7262605 29.9197175
32.8948855 17.9526275 32.6341585
33.067839500000005 32.7015655 17.8971975
30.0026275 21.1072775 32.758266500000005
32.8297805 20.980663500000002 35.9794675
32.5578485 17.9489795 15.0011015
32.9926965 26.780582499999998 12.1564425
32.7162705 23.7751695 15.116369500000001
29.9204365 26.6972275 14.938394500000001
32.693228500000004 26.7575855 18.0630895
32.890009500000005 29.717609500000002 15.2285275
32.702417499999996 23.7647055 20.7716995
30.0157015 26.7977765 21.1282265
33.0387845 32.9307885 12.0862735
32.7346085 26.9215185 23.7350615
32.7186545 24.1243965 26.9682605
29.9393735 26.769140500000002 27.028112500000002
32.6537025 26.7741705 35.6742605
32.9371405 27.0988525 29.7362225
32.897994499999996 23.8881145 32.6168915
29.7041415 32.7708055 14.8550585
26.9917305 30.0218825 27.004911500000002
32.6947765 21.0186305 11.8956125
32.8658035 15.0377895 35.563471500000006
32.8961995 36.07274150000001 21.0113555
33.0104915 35.9104665 15.066425500000001
26.9055595 29.6126805 32.792514499999996
23.9782445 32.939297499999995 33.001493499999995
33.0769625 32.8717705 35.684287499999996
27.0068245 32.9536095 35.71048450000001
26.9795495 36.0369355 15.0357775
26.7194065 35.687610500000005 20.9821685
26.7195445 35.9674035 26.7610105
27.0867885 35.8359105 33.0307325
30.0161855 33.0433175 32.9159925
32.5675315 15.1015885 12.0537295
33.0096945 11.8105455 14.959770500000001
32.8346875 32.793617499999996 23.7277295
29.8385545 15.0685385 14.7082605
32.9882245 32.9620235 29.6781855
32.704710500000004 14.8811895 18.059728500000002
32.9875375 11.8933005 20.9129135
29.9385295 14.8856505 20.6626325
32.711515500000004 14.7973385 23.764851500000002
32.9296265 11.9078975 27.054696500000002
29.9627805 15.1383545 26.7626635
27.0793735 15.1509895 23.8824025
29.9512455 32.9096555 26.6259555
32.958425500000004 14.8114775 29.8265375
32.8718355 11.833097500000001 32.9582895
29.9308035 14.7958495 32.9099625
32.774294499999996 29.7432245 26.6593195
32.8445595 29.9579145 33.1120095
26.7124715 32.8680285 29.9099495
32.697061500000004 21.0779335 23.8685675
14.9130425 33.0500615 17.8969595
12.153076500000001 20.8246035 20.890441499999998
14.7245325 35.674203500000004 32.8806815
14.7798675 17.999630500000002 20.9571665
20.7613795 14.8466655 12.1972095
20.762546500000003 12.1754665 14.9651695
17.856171500000002 14.7677175 14.8158955
14.8253685 21.148342500000002 18.0256575
11.9263975 21.105660500000003 14.893952500000001
20.914112499999998 14.7629645 17.7545115
20.832825500000002 12.137705500000001 21.0593545
18.1470495 14.8903665 21.0972125
14.9434215 18.1031295 15.1262135
20.7895595 15.0358335 23.7172215
20.7262615 12.0712515 26.833609499999998
17.9290425 14.8130645 26.6920205
21.0584995 14.847955500000001 29.7882235
14.8504825 20.7794675 11.9220635
21.0704675 11.8311325 32.738971500000005
18.0569955 14.8724195 33.0510975
20.9086715 15.1443185 35.672546499999996
14.8707455 14.8943835 35.59012750000001
21.1511855 20.8403995 12.1069775
21.128348499999998 18.1110935 15.0877375
12.1872695 14.851492499999999 32.7504105
17.981378499999998 21.1246085 15.0073925
14.8507505 23.9022835 21.1175165
15.120606500000001 12.2057925 32.9187205
21.1179755 20.9587545 17.914990500000002
20.8787805 18.1061805 20.6925255
14.7770885 35.88758850000001 27.084411499999998
18.0091175 21.149428500000003 21.0495535
15.0780015 21.0329005 23.6846415
15.0248685 17.960600499999998 27.1169775
15.1802305 26.7038575 17.8844655
15.1442035 26.7290005 23.7658745
14.7998305 23.811698500000002 27.0005515
12.1550325 27.0139645 27.0352095
14.8035775 27.035099499999998 29.9930175
14.738269500000001 23.8280865 32.7002005
12.1235975 27.0633665 32.8137555
11.8766345 26.9958215 14.8279575
14.875417500000001 23.6950155 15.0292905
14.7702025 26.6890245 35.886660500000005
15.1631505 27.048496500000002 12.0779055
14.8611995 33.0111255 12.1394555
14.8008735 29.7239465 14.882070500000001
15.2353285 20.8586275 35.7946345
12.0266815 33.0753565 14.9301065
15.0390615 29.707811500000002 21.128352500000002
12.1939305 20.7959725 32.8990425
12.164196500000001 32.9623175 20.866011500000003
14.9978915 18.1399275 32.6599435
15.0802425 21.146838499999998 29.8877495
14.9066165 32.8296535 23.7371495
15.2139225 29.7912265 26.8095075
12.0570785 33.0575385 26.9677385
15.2251565 32.7613975 29.7349205
15.0780065 29.9468935 32.6823225
11.944340500000001 32.7189255 32.703455500000004
11.9361995 20.7716635 26.7136955
15.0992765 33.006198499999996 35.8021655
15.104511500000001 35.9208845 15.0931435
15.1125555 35.6343815 20.7348435
15.1500645 15.0909205 29.9748675
11.8519645 26.708626499999998 20.790931500000003
17.9300635 32.6309355 14.9067585
17.9824415 26.795208499999998 33.0164895
24.1725495 14.9513775 20.8565485
21.0614445 26.7687365 35.672619499999996
21.050449500000003 36.000699499999996 32.9172235
15.1337215 15.1897725 18.0806505
20.8510405 32.5791555 12.0825195
21.079213499999998 30.0754785 14.9966935
20.8811485 21.053285499999998 24.0613855
15.1435475 14.8151465 11.9206625
20.9277755 33.0778575 17.8883455
20.8652315 30.047355500000002 20.9166425
17.9967485 32.6614735 21.0096655
20.8737235 35.97845650000001 26.970813500000002
20.9106725 32.5904655 24.0083245
21.0283835 35.694302500000006 20.743153500000002
20.815137500000002 35.6544895 14.8816635
20.8710495 29.9640085 27.0309725
18.0884565 33.0296715 26.852158499999998
14.861843499999999 11.9335565 14.7442065
21.0199515 33.012167500000004 30.0400685
11.8143695 14.8892975 14.9930475
21.0284665 30.0525365 32.8145895
18.1291965 32.7016675 33.0267305
20.7524115 23.946216500000002 32.692513500000004
21.084443500000003 27.0118495 29.937071500000002
14.8790365 11.9642245 20.7266565
17.6863345 26.9000835 26.871499500000002
20.8629285 18.0450685 26.7168355
17.9063585 21.024006500000002 27.0492725
26.6803725 12.1952745 20.9838845
12.2074915 14.8477435 26.9034825
20.8512475 20.9896395 30.1088025
20.9994645 18.1161915 32.6748855
18.1301095 20.9092205 32.9728865
20.8332855 20.7622695 35.6201365
27.0804255 15.0606235 17.9555405
20.8171155 26.739970500000002 11.8657275
23.7056605 15.1533455 14.8845095
20.6970105 23.7968535 14.9447555
11.8705905 14.9421005 20.7551575
17.7132495 26.9767915 14.8607625
15.1576985 11.9410585 26.7496045
20.6553325 26.7676865 17.9534195
21.0832845 23.785476499999998 20.9487175
17.8712305 27.1160295 20.948773499999998
20.8166735 26.9220205 24.0773355
26.7407225 15.2069965 12.0976185
14.818972500000001 14.7902265 23.9670725
20.6874265 23.7654355 26.9490735
26.6255065 12.068241500000001 14.9339695
20.9933215 32.7569935 35.9975955
17.9296145 23.8080705 10.5327385
17.8913565 29.7967595 10.4871955
17.9080425 37.351127500000004 23.861144499999998
10.6032285 29.8925925 29.9065355
11.0402635 29.8872935 36.858414499999995
36.9011965 36.89952050000001 17.9717785
23.9534445 10.9589095 36.942631500000005
23.8558945 37.2350065 29.9173575
23.966537499999998 10.4859545 29.8663845
29.8068455 37.2708815 29.9119995
23.8558235 10.5937535 17.9020875
37.2590465 23.8678055 18.0285835
10.5653295 18.0218685 17.9400245
23.9234355 36.8784675 10.8773235
23.8311795 36.8689315 36.8465015
29.9111535 37.2857635 23.9548345
17.9356915 10.5840815 29.9168025
37.34150150000001 23.9334475 23.9591765
17.9016685 18.0024405 37.21084950000001
23.969282500000002 18.0199965 37.292499500000005
10.4877815 17.8783935 23.9043325
37.2606495 18.0344375 23.8496075
23.9122005 23.9664845 37.33204550000001
17.8764185 37.3357685 17.912322500000002
10.9574525 23.8202655 11.0026665
23.959218500000002 23.8647755 10.4811795
12.0001345 24.2927705 18.0961025
36.1406635 29.6491345 35.4827315
29.9898445 30.1113675 18.2815165
35.9704495 30.2701415 30.2387545
35.63031050000001 36.11510750000001 23.766215499999998
29.9831875 29.3815125 23.548996499999998
35.49058050000001 17.7665165 18.0224095
35.2650895 29.8532585 23.8937835
11.790155500000001 12.1837725 29.5927295
36.2594905 18.1654635 29.9762575
36.0516935 11.9079895 23.5604155
35.28687550000001 12.0348325 17.927280500000002
36.096354500000004 18.2297975 35.9523095
35.41690150000001 23.8082985 12.2878135
29.3084415 35.94019350000001 35.6638825
35.96813950000001 24.3646815 30.0338215
30.1588745 35.6969725 17.7553045
29.7558585 35.8198055 11.644028500000001
29.826483500000002 29.5342135 36.1073725
36.1204965 23.8549465 35.43255550000001
35.553475500000005 29.7062005 11.6848305
12.2085345 17.8681245 30.3345685
12.304128500000001 12.3688225 18.0071605
30.1766225 29.5772915 29.8393365
35.976881500000005 30.2075105 17.8667415
12.2786755 17.626050499999998 35.5428045
36.236048499999995 12.1762455 29.4926175
23.5648935 11.9854815 23.5603175
11.8344785 23.6028495 24.1730445
18.3189245 17.4840985 17.9852355
23.5229185 29.8569195 35.338905499999996
17.7566605 18.2007495 24.1255485
24.316896500000002 29.7617035 29.9008405
18.3183095 17.828757500000002 29.9725545
23.6431505 30.0129895 23.622757500000002
24.0533405 29.6253565 17.5338705
18.3598245 23.7285015 17.576680500000002
23.9177475 29.5776445 11.6128415
17.9192125 24.2024925 24.134138500000002
24.243814500000003 23.655368499999998 29.7352165
17.969634499999998 24.3219895 30.0701555
24.1670055 23.519886500000002 23.716566500000003
18.0453425 23.9387245 35.378476500000005
23.684192499999998 24.284208500000002 17.878974499999998
18.3104175 29.6350025 17.709646499999998
18.0710885 29.4267985 24.1412395
23.837716500000003 17.6447945 30.3223095
18.2560775 29.6113075 29.4123305
29.9923835 30.2709075 11.7714275
17.6155425 30.0544855 35.56057750000001
23.8239235 18.454804499999998 18.1825585
18.0193635 36.12895350000001 11.8374015
23.590203499999998 18.1722435 12.3902195
18.0915925 36.249288500000006 30.1072235
17.9276805 36.106722500000004 36.2784255
23.5893135 11.7567975 12.0790095
23.9482025 35.896634500000005 17.6001815
18.3147975 18.0577815 12.3269315
23.643002499999998 18.1838495 23.7528215
17.9865855 11.895400500000001 36.2817515
29.8101575 12.3543075 11.730935500000001
30.3299935 23.943984500000003 36.1097295
11.6400545 23.5531735 30.1920795
29.7150815 23.7579055 29.4157805
11.6908545 23.573275499999998 35.7613595
30.0129115 24.1946385 23.720157500000003
12.0314345 30.1773365 12.2125135
12.4929985 29.6947815 18.145501499999998
29.4615945 23.7224275 12.3660115
29.7056245 18.1561415 35.5143975
11.7515075 30.0834195 23.691322500000002
29.6123735 18.0431505 30.2867825
29.7988835 24.2139175 18.2554295
29.8985825 11.5395055 23.5194325
29.8979235 12.3040925 18.459259499999998
30.2888115 17.635841499999998 24.117403499999998
17.8509475 12.3420915 24.2122415
29.3972375 11.9980685 30.2171595
17.6456265 12.1673855 17.6129295
17.8062175 11.6223445 11.5804645
30.1440235 11.7008655 36.014962499999996
29.5485235 17.8054615 12.1972985
12.124679500000001 35.663163499999996 29.5075195
11.7019325 36.179375500000006 23.7112665
30.0730245 17.5785935 18.1208895
12.3810575 35.72742650000001 18.1153375
35.4163825 23.6788355 18.8797815
12.3648865 18.7913725 18.476937500000002
24.7392185 23.4237195 35.4633245
23.0186925 23.459018500000003 35.42485550000001
37.583323500000006 18.0590095 22.8682505
37.622436500000006 18.7860355 24.5205135
37.616695500000006 17.0347985 24.3238155
35.42881150000001 17.1467595 23.4071545
35.461509500000005 18.7883545 23.4775495
23.9379195 24.8844895 35.46742950000001
22.9983845 24.4863375 37.6036565
22.9425865 23.577654499999998 10.2056365
24.0955765 24.912436500000002 10.1655825
24.7267225 23.269537500000002 10.2070785
24.835583500000002 24.2180225 12.3933535
35.4275835 17.852929500000002 24.8476745
12.3565695 17.0929155 18.3938155
10.1669085 17.0640155 17.3968375
10.2120365 18.8658995 17.4165235
11.400496500000001 30.1796165 37.75144950000001
10.1741305 30.5210065 36.5503655
12.4106305 30.7680225 35.6415865
11.6537495 29.5180975 34.8667435
12.7706235 29.2371635 36.0279335
30.147326500000002 37.59492850000001 24.880259499999998
28.8153215 37.63063650000001 23.6597255
18.3389315 28.9318405 10.2070095
16.9084785 29.9868435 10.1788645
18.623966499999998 30.6901125 10.1742015
17.5786525 30.7220125 12.3790875
18.9268615 29.7115335 12.4132785
17.3676135 29.1364705 12.3802465
30.6077515 37.636112499999996 23.1825355
10.2133555 17.919504500000002 19.018061499999998
12.3769825 17.9424875 17.0138555
23.7387735 22.9265515 12.3580515
23.1730915 24.5439595 12.416318500000001
24.8203245 24.4102165 37.582721500000005
35.394476499999996 23.3410265 24.6987715
35.4287585 23.5084325 23.0765995
18.9445715 18.1481665 37.604299499999996
17.6053505 16.9785215 37.6464045
10.2162825 18.7593985 24.5793595
10.1759555 18.1339705 22.8504855
10.2319735 16.9690665 24.2748795
35.4480535 24.8307235 23.9758375
12.3675645 17.173879499999998 23.322775500000002
12.3784045 18.8729085 23.5292865
17.271483500000002 18.757261500000002 37.647574500000005
24.496409500000002 18.7228475 35.4092605
23.5253615 18.9083945 37.65178350000001
23.2781665 17.1560955 37.582271500000004
24.8925455 17.7895465 37.6146095
24.2248415 17.0756285 35.4470285
12.3611155 17.8081565 24.8178865
10.6316515 28.8421115 36.9780815
37.60202650000001 24.3073705 24.8776085
37.61828250000001 22.848827500000002 23.848021499999998
23.8649135 22.8541055 37.6561725
17.025274500000002 37.5850095 17.5479395
18.0805025 37.6428085 18.9662045
18.7694765 37.62061250000001 17.3240515
18.8555315 35.4137015 18.362074500000002
17.8530905 35.3920205 17.0158525
17.1604335 35.4588555 18.5294835
37.595369500000004 24.5091955 23.0822555
17.056794500000002 17.7617475 35.4347135
17.1476995 10.1821515 29.1626825
18.943347499999998 10.1701265 29.5536785
18.1593195 12.4101985 28.9475375
18.6464635 12.3530825 30.5078125
17.0506605 12.3640165 30.2028945
18.2315015 18.8493845 35.454203500000006
18.5837505 17.2323655 35.3893255
17.7638815 10.1561185 30.8698285
29.1684195 35.4445135 24.6255415
12.3988315 30.6371915 30.3703045
35.4096555 24.8147195 17.6970955
23.9769885 34.8405855 11.5814545
23.0339585 35.83879950000001 12.6157015
24.714052499999998 35.941989500000005 12.664158500000001
24.8114545 35.4428065 29.500162500000002
23.813937499999998 35.40785650000001 30.817224500000002
24.7344315 10.2125735 18.6472895
22.919241500000002 10.1968105 18.3542545
23.0544355 36.658538500000006 10.3134645
24.1095215 10.1788875 16.9110285
24.8241605 12.3570795 17.6394715
23.7390945 12.4241005 18.9085135
24.7096735 37.5909915 30.4774435
22.9766485 37.607510500000004 30.2342955
28.8396535 37.6020915 29.5897955
30.1099235 37.6337695 30.9046765
30.6258725 37.5874065 29.159450500000002
23.1849495 12.4060805 17.3732195
30.7723525 35.4017515 30.1080055
24.8551525 36.7446515 10.3575385
23.1725355 35.41875950000001 29.2660565
35.4694985 23.2395955 17.2826405
37.5795375 24.1664685 16.9317645
10.4090675 24.8193555 11.085950500000001
11.4828025 23.8714805 10.0174135
10.311861500000001 23.0002205 11.1416315
12.556829500000001 23.0142625 11.9582805
11.6164555 23.9305075 12.9738965
23.865647499999998 37.79798050000001 11.4427495
12.6431285 24.6848135 11.9346495
37.580732499999996 24.6223195 18.6724755
23.6497655 10.0414155 36.40519450000001
24.939200500000002 10.9192215 37.3130965
23.1311955 11.2232895 37.5898035
24.1407995 12.9004355 36.2221655
22.9923195 12.0885045 35.3224015
24.5946755 11.7643035 35.0990245
37.6146195 22.934665499999998 18.1913855
30.8156085 35.41666550000001 24.130246500000002
29.6526875 35.394411500000004 28.9447605
24.037100499999998 37.647472500000006 28.8560825
35.290231500000004 35.7861915 17.0766745
35.05835950000001 35.9901835 18.6801595
17.7768945 37.64287850000001 24.949233500000002
17.163259500000002 37.630665500000006 23.2128035
18.9397935 24.1906595 10.1857095
17.6622435 22.9016985 10.1675455
17.2249735 24.6660165 10.2250415
36.23070750000001 34.8913895 18.114210500000002
17.0381145 23.632410500000002 12.3740135
18.6613745 23.248832500000002 12.3923785
29.5549345 35.42030150000001 22.9942265
10.1744175 29.7410735 30.8944905
10.1714075 30.8028795 29.4359595
10.219917500000001 28.9945725 29.2825555
12.3533595 29.9182915 28.8942605
12.3461185 29.0182445 30.2542075
18.2404205 24.8006475 12.3893775
29.1152195 35.4341455 30.5170475
37.5424215 36.6268285 17.1721765
36.3945645 37.803841500000004 17.762269500000002
24.0534865 10.2208255 28.8652485
24.7474855 10.1811915 30.5236585
22.9297975 10.1639315 30.2696365
23.773532499999998 12.3558045 30.8283975
23.145808499999998 12.4001315 29.3004375
24.8332965 12.3912375 29.4931585
17.0320115 35.447578500000006 24.2516305
37.3033885 36.8766545 18.9321455
18.1159645 35.4139845 22.9955065
23.7068035 36.3385205 37.82865650000001
24.915536499999998 37.2824485 36.8671985
24.5842675 35.107740500000006 35.976245500000005
24.0715865 36.22085250000001 34.9068255
22.9752285 35.349528500000005 35.760568500000005
18.687057499999998 35.4323455 24.4832035
18.905261499999998 37.6432255 23.5430665
23.1467645 37.591877499999995 36.6124945
22.945169500000002 18.1240765 35.4058835
17.9609485 35.7430875 17.9034765
23.8909555 17.8650105 35.8593815
23.963247499999998 11.9791015 35.88779650000001
12.0280055 23.8329625 11.9798345
35.8201725 18.0367445 23.8970755
23.818593500000002 35.7826515 12.0410385
17.9161995 29.806244500000002 11.9651775
23.959488500000003 12.0701005 17.9151785
12.0330845 18.0438085 23.8810235
29.7977855 35.8522945 29.8478305
23.8269025 12.0017855 29.9004915
35.85963650000001 23.8430845 23.9431385
11.9122505 29.8308265 35.763472500000006
23.9516515 35.727584500000006 35.7810985
17.8843835 11.9501955 29.8008215
35.8108915 35.76764850000001 17.861020500000002
23.9583805 23.9343825 11.931969500000001
18.0045625 23.8313725 12.0417915
12.0379255 29.9140645 29.8105445
11.9895985 17.9656075 17.8815495
17.9104755 17.9091505 35.8390225
35.8486865 23.8377695 17.9022245
29.9004145 35.72134150000001 23.8875845
17.8996125 35.7910045 23.9561035
23.8331365 23.8694315 35.80257950000001
23.9547135 35.756823499999996 29.8366275
15.0382255 15.1111385 15.1532215
20.7319395 21.0790385 20.779507499999998
21.1831695 21.0563105 15.1749085
32.6406255 15.1598165 14.8822955
32.843399500000004 15.2337195 20.7500245
20.7724805 15.1360985 32.969145499999996
20.6715695 15.1017105 26.7958745
33.0131175 15.102645500000001 26.7562515
32.9768835 15.169745500000001 32.9166245
20.7979555 14.6513755 14.9325875
26.822394499999998 32.5470265 32.9503415
32.837922500000005 21.0815705 15.1427045
33.0325325 21.1703695 26.6947045
15.0291095 32.5207795 32.920865500000005
33.059087500000004 20.8857925 33.0565225
14.7552945 32.8098615 26.7175255
32.6522095 26.7726465 15.1162235
14.7253495 32.580841500000005 20.9713975
32.8925075 26.6487095 21.006625500000002
14.9409025 32.964284500000005 15.1584465
32.8138165 27.165767499999998 26.6817685
33.0292415 21.0894685 20.6918985
20.9712815 20.705503500000003 27.1580315
26.6984645 32.815411499999996 26.6324395
20.9697885 20.700623500000003 32.5526205
27.0887865 14.9704805 21.114375499999998
27.0657955 14.855586500000001 32.9233435
26.8291115 14.936144500000001 14.6835495
27.045996499999998 20.874834500000002 14.7679215
26.886198500000003 20.9370855 21.1923925
26.7985535 20.8560365 26.6888055
21.0916525 32.7300535 33.0460675
27.0857875 21.1402805 33.024947499999996
21.0713215 32.726341500000004 27.035767500000002
21.1054995 32.9647625 21.1058635
26.7851555 26.8647305 15.1981725
20.9519765 32.6783455 15.1587995
26.9060405 27.155870500000002 20.7084955
27.024808500000002 26.6206565 26.7947995
21.040098500000003 26.7654405 33.0345775
26.5832555 26.7463105 32.8311725
20.8855565 27.0486895 26.7058945
20.7934755 27.0077195 20.749637500000002
26.8342425 33.065991499999996 15.0848355
20.9550415 27.0141045 15.2420785
26.994909500000002 33.0103465 21.1051125
14.7559305 26.7945515 32.9083715
32.9928295 26.771566500000002 33.1047925
20.883955500000003 14.8702775 20.6313925
26.7643565 15.2599725 26.7189585
14.7251115 26.9600155 15.0302465
32.6601735 32.9423775 20.7565955
14.6942345 14.8129335 21.0560115
32.7785395 33.156692500000005 32.796096500000004
14.8070815 20.9780295 14.7340015
14.7552025 26.6532075 21.0684125
15.1476655 21.0153875 27.1378925
14.9098875 15.0441205 26.680439500000002
15.0650145 20.8225735 33.137167500000004
33.055355500000005 32.9728755 26.710079500000003
15.1099835 14.7677795 32.9139555
32.6940075 33.0667495 14.8658345
14.9652755 27.0808705 27.0253485
14.7638185 21.0094465 20.844009500000002
