3_train/254_cspbbr3_MA-PhS_4_0.40\254_cspbbr3_MA-PhS_4_0.40.xyz
1.0
50.045282 0 0
0 50.045282 0
0 0 50.045282
Br C Cs H N Pb S 
198 286 78 414 34 64 42 
Cartesian
16.097641 16.097641 19.072640999999997
16.097641 13.122641 22.047641
13.122641 16.097641 22.047641
16.097641 16.097641 25.022641
13.122641 16.097641 27.997641
16.097641 16.097641 30.972641000000003
16.097641 13.122641 33.947641
16.097641 19.072640999999997 16.097641
16.097641 22.047641 19.072640999999997
16.097641 19.072640999999997 22.047641
13.122641 22.047641 22.047641
16.097641 22.047641 25.022641
16.097641 19.072640999999997 27.997641
16.097641 22.047641 30.972641000000003
16.097641 19.072640999999997 33.947641
16.097641 22.047641 36.922641
16.097641 25.022641 16.097641
16.097641 27.997641 19.072640999999997
16.097641 25.022641 22.047641
13.122641 27.997641 22.047641
16.097641 27.997641 25.022641
16.097641 25.022641 27.997641
13.122641 27.997641 27.997641
16.097641 27.997641 30.972641000000003
16.097641 25.022641 33.947641
13.122641 27.997641 33.947641
16.097641 33.947641 13.122641
16.097641 30.972641000000003 16.097641
13.122641 33.947641 16.097641
16.097641 33.947641 19.072640999999997
16.097641 30.972641000000003 22.047641
16.097641 33.947641 25.022641
16.097641 30.972641000000003 27.997641
13.122641 33.947641 27.997641
16.097641 33.947641 30.972641000000003
16.097641 30.972641000000003 33.947641
13.122641 33.947641 33.947641
16.097641 36.922641 27.997641
22.047641 13.122641 16.097641
19.072640999999997 16.097641 16.097641
22.047641 16.097641 19.072640999999997
22.047641 13.122641 22.047641
19.072640999999997 16.097641 22.047641
22.047641 16.097641 25.022641
22.047641 13.122641 27.997641
19.072640999999997 16.097641 27.997641
22.047641 16.097641 30.972641000000003
19.072640999999997 16.097641 33.947641
22.047641 19.072640999999997 16.097641
19.072640999999997 22.047641 16.097641
22.047641 22.047641 19.072640999999997
22.047641 19.072640999999997 22.047641
19.072640999999997 22.047641 22.047641
22.047641 22.047641 25.022641
22.047641 19.072640999999997 27.997641
19.072640999999997 22.047641 27.997641
22.047641 22.047641 30.972641000000003
22.047641 19.072640999999997 33.947641
19.072640999999997 22.047641 33.947641
22.047641 27.997641 13.122641
22.047641 25.022641 16.097641
19.072640999999997 27.997641 16.097641
22.047641 27.997641 19.072640999999997
22.047641 25.022641 22.047641
19.072640999999997 27.997641 22.047641
22.047641 27.997641 25.022641
22.047641 25.022641 27.997641
19.072640999999997 27.997641 27.997641
22.047641 27.997641 30.972641000000003
22.047641 25.022641 33.947641
19.072640999999997 27.997641 33.947641
22.047641 27.997641 36.922641
22.047641 33.947641 13.122641
22.047641 30.972641000000003 16.097641
19.072640999999997 33.947641 16.097641
22.047641 33.947641 19.072640999999997
22.047641 30.972641000000003 22.047641
19.072640999999997 33.947641 22.047641
22.047641 33.947641 25.022641
22.047641 30.972641000000003 27.997641
19.072640999999997 33.947641 27.997641
22.047641 33.947641 30.972641000000003
22.047641 30.972641000000003 33.947641
19.072640999999997 33.947641 33.947641
22.047641 33.947641 36.922641
22.047641 36.922641 22.047641
27.997641 16.097641 13.122641
27.997641 13.122641 16.097641
25.022641 16.097641 16.097641
27.997641 16.097641 19.072640999999997
27.997641 13.122641 22.047641
25.022641 16.097641 22.047641
27.997641 16.097641 25.022641
25.022641 16.097641 27.997641
27.997641 16.097641 30.972641000000003
25.022641 16.097641 33.947641
27.997641 16.097641 36.922641
27.997641 19.072640999999997 16.097641
25.022641 22.047641 16.097641
27.997641 22.047641 19.072640999999997
27.997641 19.072640999999997 22.047641
25.022641 22.047641 22.047641
27.997641 22.047641 25.022641
27.997641 19.072640999999997 27.997641
25.022641 22.047641 27.997641
27.997641 22.047641 30.972641000000003
27.997641 19.072640999999997 33.947641
25.022641 22.047641 33.947641
27.997641 22.047641 36.922641
27.997641 25.022641 16.097641
25.022641 27.997641 16.097641
27.997641 27.997641 19.072640999999997
27.997641 25.022641 22.047641
25.022641 27.997641 22.047641
27.997641 27.997641 25.022641
27.997641 25.022641 27.997641
25.022641 27.997641 27.997641
27.997641 27.997641 30.972641000000003
27.997641 25.022641 33.947641
25.022641 27.997641 33.947641
27.997641 27.997641 36.922641
27.997641 33.947641 13.122641
27.997641 30.972641000000003 16.097641
25.022641 33.947641 16.097641
27.997641 33.947641 19.072640999999997
27.997641 30.972641000000003 22.047641
25.022641 33.947641 22.047641
27.997641 33.947641 25.022641
27.997641 30.972641000000003 27.997641
25.022641 33.947641 27.997641
27.997641 33.947641 30.972641000000003
27.997641 30.972641000000003 33.947641
25.022641 33.947641 33.947641
27.997641 33.947641 36.922641
27.997641 36.922641 16.097641
27.997641 36.922641 22.047641
27.997641 36.922641 27.997641
27.997641 36.922641 33.947641
33.947641 16.097641 13.122641
33.947641 13.122641 16.097641
30.972641000000003 16.097641 16.097641
33.947641 16.097641 19.072640999999997
30.972641000000003 16.097641 22.047641
33.947641 16.097641 25.022641
30.972641000000003 16.097641 27.997641
33.947641 16.097641 30.972641000000003
33.947641 13.122641 33.947641
30.972641000000003 16.097641 33.947641
33.947641 16.097641 36.922641
33.947641 22.047641 13.122641
33.947641 19.072640999999997 16.097641
30.972641000000003 22.047641 16.097641
33.947641 22.047641 19.072640999999997
33.947641 19.072640999999997 22.047641
30.972641000000003 22.047641 22.047641
33.947641 22.047641 25.022641
33.947641 19.072640999999997 27.997641
30.972641000000003 22.047641 27.997641
33.947641 22.047641 30.972641000000003
33.947641 19.072640999999997 33.947641
30.972641000000003 22.047641 33.947641
33.947641 27.997641 13.122641
33.947641 25.022641 16.097641
30.972641000000003 27.997641 16.097641
33.947641 27.997641 19.072640999999997
33.947641 25.022641 22.047641
30.972641000000003 27.997641 22.047641
33.947641 27.997641 25.022641
33.947641 25.022641 27.997641
30.972641000000003 27.997641 27.997641
33.947641 27.997641 30.972641000000003
33.947641 25.022641 33.947641
30.972641000000003 27.997641 33.947641
33.947641 33.947641 13.122641
33.947641 30.972641000000003 16.097641
30.972641000000003 33.947641 16.097641
33.947641 33.947641 19.072640999999997
33.947641 30.972641000000003 22.047641
30.972641000000003 33.947641 22.047641
33.947641 33.947641 25.022641
33.947641 30.972641000000003 27.997641
30.972641000000003 33.947641 27.997641
33.947641 33.947641 30.972641000000003
33.947641 30.972641000000003 33.947641
30.972641000000003 33.947641 33.947641
33.947641 33.947641 36.922641
33.947641 36.922641 16.097641
33.947641 36.922641 27.997641
33.947641 36.922641 33.947641
36.922641 16.097641 27.997641
36.922641 22.047641 16.097641
36.922641 22.047641 22.047641
36.922641 22.047641 33.947641
36.922641 27.997641 16.097641
36.922641 27.997641 27.997641
36.922641 33.947641 16.097641
36.922641 33.947641 22.047641
36.922641 33.947641 27.997641
21.938954000000003 20.836872 40.754179
21.946326 20.830261999999998 39.366141
22.047641 22.047641 38.634892
22.137477000000004 23.259437 40.754672
22.032807 22.048454 41.453875
22.145782000000004 23.265055000000004 39.366608
16.575395 17.215463 40.754179
16.570428 17.224029 39.366141
16.097641 16.097641 38.634892
15.637497 14.973013 40.754672
16.111497 16.092281 41.453875
15.627862 14.970239 39.366608
14.95359 33.53664 40.754179
14.950695999999999 33.527171 39.366141
16.097641 33.947641 38.634892
17.23469 34.376174 40.754672
16.092135 33.961439 41.453875
17.243281 34.371005 39.366608
34.590285 26.965758 40.754179
34.600152 26.964923 39.366141
33.947641 27.997641 38.634892
33.289331 29.018988 40.754672
33.935311 27.989353 41.453875
33.292576 29.028475 39.366608
34.576078 21.007044999999998 40.754179
34.585932 21.006073999999998 39.366141
33.947641 22.047641 38.634892
33.303395 23.077917 40.754672
33.935198 22.039523000000003 41.453875
33.306769 23.087359 39.366608
21.883938 17.302205999999998 40.754179
21.875279 17.307008 39.366141
22.047641 16.097641 38.634892
22.229951 14.896272999999999 40.754672
22.062284 16.100152 41.453875
22.223105000000004 14.888947 39.366608
16.342433999999997 26.806905999999998 40.754179
16.351398 26.8027 39.366141
16.097641 27.997641 38.634892
15.8345 29.183928 40.754672
16.083202 27.994145000000003 41.453875
15.840834 29.191701000000002 39.366608
17.313206 22.034388999999997 9.291103
17.319043999999998 22.026392 10.679141
16.097641 22.047641 11.41039
14.882944 22.079752 9.29061
16.098319 22.062482000000003 8.591407
14.876521 22.072052 10.678674
27.431612 20.971822 9.291103
27.421832000000002 20.970273 10.679141
27.997641 22.047641 11.41039
28.580059 23.114088000000002 9.29061
28.01054 22.04027 8.591407
28.576134000000003 23.123314999999998 10.678674
14.88236 16.127063 9.291103
14.876629 16.135137999999998 10.679141
16.097641 16.097641 11.41039
17.311804000000002 16.049371999999998 9.29061
16.096764999999998 16.082810000000002 8.591407
17.318328 16.056986000000002 10.678674
23.263061999999998 22.024724 9.291103
23.268836999999998 22.016681 10.679141
22.047641 22.047641 11.41039
20.833236999999997 22.08941 9.29061
22.048437 22.062476000000004 8.591407
20.826754 22.081761 10.678674
27.921236 26.784407 9.291103
27.912945999999998 26.778993 10.679141
27.997641 27.997641 11.41039
28.092835 29.209027999999996 9.29061
28.012427000000002 27.996192 8.591407
28.085479 29.215842000000002 10.678674
14.933054 28.346227 9.291103
14.929653 28.355525999999998 10.679141
16.097641 27.997641 11.41039
17.256183 27.631169 9.29061
16.092889 27.983565 8.591407
17.264483 27.636795 10.678674
20.993661 15.491918 9.291103
20.984571000000003 15.495844 10.679141
22.047641 16.097641 11.41039
23.110449000000003 16.686675 9.29061
22.054591000000002 16.084511 8.591407
23.112071999999998 16.69657 10.678674
9.291103 14.980019 16.575863
10.679141 14.977693 16.585487
11.41039 16.097641 16.097641
9.29061 17.207231999999998 15.602333
8.591407 16.091324999999998 16.084194
10.678674 17.216115000000002 15.606983
9.291103 23.208152 33.585718
10.679141 23.211446000000002 33.576381
11.41039 22.047641 33.947641
9.29061 20.893379 34.327379
8.591407 22.052554999999998 33.961661
10.678674 20.885016 34.321848
9.291103 35.128153 21.757526
10.679141 35.132013 21.748407999999998
11.41039 33.947641 22.047641
9.29061 32.772275 22.355919999999998
8.591407 33.951686 22.061936000000003
10.678674 32.764266 22.349888
9.291103 16.666015 32.873059
10.679141 16.661772 32.864113
11.41039 16.097641 33.947641
9.29061 15.546256 35.030459
8.591407 16.111007 33.954126
10.678674 15.536424 35.032429
9.291103 21.020347 15.447686
10.679141 21.011097999999997 15.451223
11.41039 22.047641 16.097641
9.29061 23.084463 16.731296999999998
8.591407 22.055143 16.084818
10.678674 23.085665 16.741252
9.291103 20.938547999999997 28.495323
10.679141 20.936391 28.504987
11.41039 22.047641 27.997641
9.29061 23.148405000000004 27.483016
8.591407 22.041091 27.984306000000004
10.678674 23.157369000000003 27.48751
9.291103 27.527825 14.97646
10.679141 27.518217999999997 14.974062
11.41039 27.997641 16.097641
9.29061 28.484603 17.210918999999997
8.591407 28.011135000000003 16.091426
10.678674 28.479886999999998 17.219768000000002
40.754179 16.271977 17.300713000000002
39.366141 16.264975 17.307713999999997
38.634892 16.097641 16.097641
40.754672 15.942072999999999 14.892519
41.453875 16.112409 16.096023000000002
39.366608 15.933475 14.887361
40.754179 26.782118000000004 22.064349
39.366141 26.776085000000002 22.056497999999998
38.634892 27.997641 22.047641
40.754672 29.212761 22.049808
41.453875 27.997328000000003 22.062494
39.366608 29.218991000000003 22.041952000000002
40.754179 23.017158000000002 28.730997000000002
39.366141 23.017097 28.740899
38.634892 22.047641 27.997641
40.754672 21.090035 27.249636000000002
41.453875 22.05701 27.986111
39.366608 21.080292999999998 27.252009
40.754179 34.660346 34.932439
39.366141 34.657392 34.94189
38.634892 33.947641 33.947641
40.754672 33.250609 32.952318
41.453875 33.959972 33.939355
39.366608 33.240599 32.951738999999996
40.754179 27.909567000000003 32.735198
39.366141 27.917050000000003 32.728714
38.634892 27.997641 33.947641
40.754672 28.066848999999998 35.16079
41.453875 27.982795000000003 33.948201
39.366608 28.075057 35.166548999999996
40.754179 17.032488999999998 34.724709
39.366141 17.031973 34.734597
38.634892 16.097641 33.947641
40.754672 15.175362999999999 33.156487
41.453875 16.107529 33.936552999999996
39.366608 15.165523 33.158409999999996
40.754179 16.761192 23.066206
39.366141 16.757778000000002 23.075501000000003
38.634892 16.097641 22.047641
40.754672 15.450261 21.019332
41.453875 16.110363 22.039969
39.366608 15.440291 21.018262
28.156252000000002 9.291103 35.152887
28.149160000000002 10.679141 35.159796
27.997641 11.41039 33.947641
27.857823000000003 9.29061 32.74059
28.012428999999997 8.591407 33.946216
27.849293000000003 10.678674 32.73532
27.357092 9.291103 26.964456
27.360713000000004 10.679141 26.955240000000003
27.997641 11.41039 27.997641
28.621805000000002 9.29061 29.040205999999998
27.98475 8.591407 28.005025000000003
28.631748 10.678674 29.041497999999997
14.966337 9.291103 27.552751999999998
14.963727 10.679141 27.543201000000003
16.097641 11.41039 27.997641
17.221424 9.29061 28.459846
16.091726 8.591407 28.011269
17.230165 10.678674 28.454935
32.8007 9.291103 21.644775000000003
32.797739 10.679141 21.635326
33.947641 11.41039 22.047641
35.087704 9.29061 22.468089
33.942233 8.591407 22.061478
35.096258999999996 10.678674 22.462859
32.831359 9.291103 27.5163
32.82906 10.679141 27.506669000000002
33.947641 11.41039 27.997641
35.055844 9.29061 28.496045000000002
33.941288 8.591407 28.011070000000004
35.06474 10.678674 28.491419999999998
21.597386 9.291103 35.07682
21.587822 10.679141 35.079385
22.047641 11.41039 33.947641
22.515177 9.29061 32.826066
22.061241000000003 8.591407 33.95362
22.510306999999997 10.678674 32.817301
15.052278 9.291103 16.718117999999997
15.043134 10.679141 16.714319
16.097641 11.41039 16.097641
17.152065 9.29061 15.493727
16.104775 8.591407 16.110672
17.153548999999998 10.678674 15.483811
21.3983 40.754179 17.125323
21.401842000000002 39.366141 17.13457
22.047641 38.634892 16.097641
22.680678 40.754672 15.06044
22.034813 41.453875 16.090147
22.690632 39.366608 15.059233
14.883274 40.754179 22.103213000000004
14.877718999999999 39.366141 22.111409000000002
16.097641 38.634892 22.047641
17.310484000000002 40.754672 21.973250999999998
16.096446 41.453875 22.032833000000004
17.317169999999997 39.366608 21.980722999999998
16.502316999999998 40.754179 17.243945
16.51177 39.366141 17.24689
16.097641 38.634892 16.097641
15.675393999999999 40.754672 14.958243
16.083812 41.453875 16.103071
15.680611 39.366608 14.949679999999999
17.251537 40.754179 33.565152
17.254665000000003 39.366141 33.555757
16.097641 38.634892 33.947641
14.95031 40.754672 34.347832
16.102803 41.453875 33.961572
14.941849 39.366608 34.342451
32.911072 40.754179 21.412582999999998
32.901875 39.366141 21.416252
33.947641 38.634892 22.047641
34.993502 40.754672 22.666265000000003
33.954957 41.453875 22.034711
34.994847 39.366608 22.676201
20.836097000000002 40.754179 33.847964
20.829542 39.366141 33.855385
22.047641 38.634892 33.947641
23.260072 40.754672 34.02846
22.048344 41.453875 33.932801
23.265752 39.366608 34.036723
21.003681999999998 40.754179 27.374805000000002
20.994529 39.366141 27.378583
22.047641 38.634892 27.997641
23.100698 40.754672 28.603934000000002
22.054803999999997 41.453875 27.984626
23.102159999999998 39.366608 28.613854000000003
25.022641 25.022641 38.398302
37.966091000000006 19.072640999999997 37.966091000000006
30.972641000000003 37.966091000000006 12.079191
11.64698 30.972641000000003 19.072640999999997
19.072640999999997 37.966091000000006 37.966091000000006
37.966091000000006 25.022641 37.966091000000006
38.398302 30.972641000000003 19.072640999999997
25.022641 38.398302 19.072640999999997
38.398302 30.972641000000003 30.972641000000003
11.64698 30.972641000000003 30.972641000000003
25.022641 30.972641000000003 38.398302
12.079191 37.966091000000006 19.072640999999997
19.072640999999997 11.64698 25.022641
11.64698 25.022641 19.072640999999997
38.398302 19.072640999999997 25.022641
19.072640999999997 11.64698 30.972641000000003
30.972641000000003 37.966091000000006 37.966091000000006
30.972641000000003 19.072640999999997 38.398302
12.079191 25.022641 37.966091000000006
30.972641000000003 11.64698 25.022641
12.079191 19.072640999999997 12.079191
11.64698 19.072640999999997 19.072640999999997
19.072640999999997 38.398302 19.072640999999997
30.972641000000003 12.079191 37.966091000000006
19.072640999999997 37.966091000000006 12.079191
11.64698 19.072640999999997 25.022641
38.398302 25.022641 30.972641000000003
12.079191 12.079191 25.022641
19.072640999999997 19.072640999999997 38.398302
30.972641000000003 38.398302 25.022641
19.072640999999997 11.64698 19.072640999999997
25.022641 37.966091000000006 37.966091000000006
25.022641 11.64698 19.072640999999997
12.079191 30.972641000000003 37.966091000000006
13.122641 13.122641 19.072640999999997
13.122641 13.122641 30.972641000000003
13.122641 19.072640999999997 30.972641000000003
13.122641 19.072640999999997 36.922641
13.122641 25.022641 25.022641
13.122641 25.022641 30.972641000000003
13.122641 30.972641000000003 13.122641
13.122641 30.972641000000003 25.022641
13.122641 36.922641 25.022641
13.122641 36.922641 30.972641000000003
19.072640999999997 13.122641 13.122641
19.072640999999997 13.122641 36.922641
19.072640999999997 19.072640999999997 13.122641
19.072640999999997 19.072640999999997 19.072640999999997
19.072640999999997 19.072640999999997 25.022641
19.072640999999997 19.072640999999997 30.972641000000003
19.072640999999997 25.022641 13.122641
19.072640999999997 25.022641 19.072640999999997
19.072640999999997 25.022641 25.022641
19.072640999999997 25.022641 30.972641000000003
19.072640999999997 25.022641 36.922641
19.072640999999997 30.972641000000003 13.122641
19.072640999999997 30.972641000000003 19.072640999999997
19.072640999999997 30.972641000000003 25.022641
19.072640999999997 30.972641000000003 30.972641000000003
19.072640999999997 30.972641000000003 36.922641
19.072640999999997 36.922641 25.022641
19.072640999999997 36.922641 30.972641000000003
25.022641 13.122641 13.122641
25.022641 13.122641 25.022641
25.022641 13.122641 30.972641000000003
25.022641 13.122641 36.922641
25.022641 19.072640999999997 13.122641
25.022641 19.072640999999997 19.072640999999997
25.022641 19.072640999999997 25.022641
25.022641 19.072640999999997 30.972641000000003
25.022641 19.072640999999997 36.922641
25.022641 25.022641 19.072640999999997
25.022641 25.022641 25.022641
25.022641 25.022641 30.972641000000003
25.022641 30.972641000000003 13.122641
25.022641 30.972641000000003 19.072640999999997
25.022641 30.972641000000003 25.022641
25.022641 30.972641000000003 30.972641000000003
25.022641 36.922641 13.122641
25.022641 36.922641 25.022641
25.022641 36.922641 30.972641000000003
30.972641000000003 13.122641 19.072640999999997
30.972641000000003 19.072640999999997 13.122641
30.972641000000003 19.072640999999997 19.072640999999997
30.972641000000003 19.072640999999997 25.022641
30.972641000000003 19.072640999999997 30.972641000000003
30.972641000000003 25.022641 13.122641
30.972641000000003 25.022641 19.072640999999997
30.972641000000003 25.022641 25.022641
30.972641000000003 25.022641 30.972641000000003
30.972641000000003 25.022641 36.922641
30.972641000000003 30.972641000000003 13.122641
30.972641000000003 30.972641000000003 19.072640999999997
30.972641000000003 30.972641000000003 25.022641
30.972641000000003 30.972641000000003 30.972641000000003
30.972641000000003 30.972641000000003 36.922641
30.972641000000003 36.922641 19.072640999999997
30.972641000000003 36.922641 30.972641000000003
36.922641 13.122641 25.022641
36.922641 13.122641 30.972641000000003
36.922641 19.072640999999997 13.122641
36.922641 19.072640999999997 19.072640999999997
36.922641 19.072640999999997 30.972641000000003
36.922641 25.022641 13.122641
36.922641 25.022641 19.072640999999997
36.922641 25.022641 25.022641
36.922641 30.972641000000003 13.122641
36.922641 30.972641000000003 25.022641
36.922641 30.972641000000003 36.922641
36.922641 36.922641 19.072640999999997
36.922641 36.922641 25.022641
36.922641 36.922641 30.972641000000003
22.212284000000004 24.200160000000004 41.303637
22.02451 22.048684 42.545282
21.859270000000002 19.896335 41.302735
21.874065 19.894373 38.809070000000006
22.226866 24.200325 38.809825000000004
15.275466 14.101526999999999 41.303637
16.119315999999998 16.089495999999997 42.545282
16.942006 18.085265 41.302735
16.928542999999998 18.091704999999997 38.809070000000006
15.261548 14.105878 38.809825000000004
18.119518 34.70425 41.303637
16.088852 33.969063 42.545282
14.066877999999999 33.213067 41.302735
14.071325 33.19882 38.809070000000006
18.125805999999997 34.691093 38.809825000000004
32.782327 29.814915999999997 41.303637
33.92855 27.984538999999998 42.545282
35.093285 26.16704 41.302735
35.106276 26.174387000000003 38.809070000000006
32.793866 29.823832000000003 38.809825000000004
32.80735 23.880721 41.303637
33.928372 22.034802 42.545282
35.068081 20.201506000000002 41.302735
35.081171 20.208674000000002 38.809070000000006
32.81901 23.889478000000004 38.809825000000004
22.366538 13.962518 41.303637
22.070424000000003 16.101776 42.545282
21.752146000000003 18.236866 41.302735
21.737285999999997 18.235483000000002 38.809070000000006
22.352359999999997 13.959109 38.809825000000004
15.635074999999999 30.106308 41.303637
16.07519 27.991975000000004 42.545282
16.537136 25.883299 41.302735
16.551869 25.885683 38.809070000000006
15.64899 30.110667999999997 38.809825000000004
13.939461 22.099639000000003 8.741645
16.098922 22.07076 7.5
18.256993 22.019374 8.742547
18.257461999999997 22.004455999999998 11.236212
13.937834 22.085147 11.235457
29.027937 23.944726000000003 8.741645
28.017633000000004 22.035960000000003 7.5
26.98793 20.138693 8.742547
26.97444 20.145077 11.236212
29.015782 23.952782 11.235457
18.254938000000003 16.016936 8.741645
16.096052 16.074541 7.5
13.938856 16.154634 8.742547
13.938585999999999 16.169556 11.236212
18.256757999999998 16.031404000000002 11.235457
19.889943000000002 22.116797 8.741645
22.049106000000002 22.070749 7.5
24.206699999999998 22.002205000000004 8.742547
24.207050000000002 21.987284000000002 11.236212
19.888201000000002 22.102319 11.235457
28.161725000000004 30.150202 8.741645
28.020662 27.99516 7.5
27.857194 25.842675999999997 8.742547
27.842272 25.842983000000004 11.236212
28.147337999999998 30.15258 11.235457
18.157445000000003 27.351381000000003 8.741645
16.090021999999998 27.975776000000003 7.5
14.030154 28.621418 8.742547
14.033825 28.635883999999997 11.236212
18.163012000000002 27.364859000000003 11.235457
23.933388 17.148546 8.741645
22.058275000000002 16.077072 7.5
20.172932 15.025696 8.742547
20.164955 15.03831 11.236212
23.927432000000003 17.161856999999998 11.235457
8.741645 18.071013 15.222286
7.5 16.087595 16.076779000000002
8.742547 14.11409 16.951528
11.236212 14.119375 16.965486
11.235457 18.078071 15.235045999999999
8.741645 19.995386 34.617488
7.5 22.055509999999998 33.969418
8.742547 24.107836 33.300187
11.236212 24.103999 33.285764
11.235457 19.989665000000002 34.604074
8.741645 31.85819 22.590446
7.5 33.954161 22.069859
8.742547 36.043645 21.527673999999998
11.236212 36.0407 21.513043
11.235457 31.853301000000002 22.576707
8.741645 15.11354 35.869096
7.5 16.11857 33.957547
8.742547 17.103156 32.036479
11.236212 17.09027 32.028949
11.235457 15.100028 35.863611
8.741645 23.887037 17.227714
7.5 22.059139000000002 16.077543
8.742547 20.220167 14.947016
11.236212 20.211661 14.95928
11.235457 23.880521 17.24076
8.741645 24.005412999999997 27.08793
7.5 22.037232000000003 27.976958000000003
8.742547 20.079316 28.886065000000002
11.236212 20.084845 28.899928000000003
11.235457 24.012692 27.100565000000003
8.741645 28.858154 18.07753
7.5 28.018577999999998 16.087752000000002
8.742547 27.158672000000003 14.107733999999999
11.236212 27.144675 14.112915
11.235457 28.845340999999998 18.084491999999997
41.303637 15.816246 13.957253
42.545282 16.120680999999998 16.095342000000002
41.302735 16.402663 18.235528000000002
38.809070000000006 16.387997 18.238290999999997
38.809825000000004 15.801677 13.95788
41.303637 30.156447 22.046436999999997
42.545282 27.99693 22.070785
41.302735 25.838248 22.072597000000002
38.809070000000006 25.837412 22.057695000000002
38.809825000000004 30.157716 22.031910000000003
41.303637 20.343235 26.672708999999998
42.545282 22.062417000000003 27.979813
41.302735 23.767097999999997 29.304189
38.809070000000006 23.758606 29.316462
38.809825000000004 20.333311000000002 26.683394
41.303637 32.705147 32.182237
42.545282 33.966984 33.934913
41.302735 35.209904 35.699866
38.809070000000006 35.198194 35.709119
38.809825000000004 32.692532 32.189553
41.303637 28.125642 36.102649
42.545282 27.974494999999997 33.948291
41.302735 27.845895 31.793442
38.809070000000006 27.860720999999998 31.791732000000003
38.809825000000004 28.140219000000002 36.103063
41.303637 14.455821 32.545902
42.545282 16.113219 33.93051
41.302735 17.755339 35.331706
38.809070000000006 17.746293 35.343576999999996
38.809825000000004 14.445418 32.55612
41.303637 14.943221 20.223427
42.545282 16.117585 22.035877
41.302735 17.272453 23.859661000000003
38.809070000000006 17.260303 23.86833
38.809825000000004 14.930263 20.230114999999998
27.744218000000004 8.741645 31.803761
28.020709000000004 7.5 33.945643
28.274722000000004 8.742547 36.089329
28.260019999999997 11.236212 36.0919
27.729642 11.235457 31.804198
29.110872999999998 8.741645 29.847278000000003
27.977439000000004 7.5 28.008955
26.863749 8.742547 26.159737999999997
26.876089999999998 11.236212 26.151344
29.123978 11.235457 29.840882
18.096089 8.741645 28.814127
16.088217999999998 7.5 28.018791999999998
14.089654 8.742547 27.202914999999997
14.094524 11.236212 27.188808
18.102766000000003 11.235457 28.801163000000003
35.97484 8.741645 22.789873
33.939004 7.5 22.069125
31.911712 8.742547 21.327506
31.916058999999997 11.236212 21.313228000000002
35.981034 11.235457 22.776671999999998
35.918561 8.741645 28.878503000000002
33.937537 7.5 28.018475000000002
31.966482 8.742547 27.138218000000002
31.971806 11.236212 27.124276000000002
35.925655 11.235457 28.865762000000004
22.873607 8.741645 31.953091999999998
22.068747000000002 7.5 33.957164999999996
21.243389999999998 8.742547 35.951832
21.229306 11.236212 35.946895
22.860674000000003 11.235457 31.946354
17.968431000000002 8.741645 15.020336
16.108563 7.5 16.118057999999998
14.238183 8.742547 17.195829
14.230029 11.236212 17.183328
17.962289 11.235457 15.007109999999999
23.176614999999998 41.303637 14.25757
22.027535999999998 42.545282 16.086154999999998
20.898108 41.302735 17.925801999999997
20.910376999999997 38.809070000000006 17.934300999999998
23.189664999999998 38.809825000000004 14.264078
18.252701000000002 41.303637 21.920523000000003
16.095556000000002 42.545282 22.02458
13.940583 41.302735 22.151083999999997
13.940634 38.809070000000006 22.166009000000003
18.254832 38.809825000000004 21.934949000000003
15.35221 41.303637 14.071616
16.076171000000002 42.545282 16.106312000000003
16.820988 41.302735 18.132430999999997
16.835259 38.809070000000006 18.128062
15.365402 38.809825000000004 14.065401
14.057614 41.303637 34.653853
16.105896 42.545282 33.969274
18.146005000000002 41.302735 33.263677
18.141911999999998 38.809070000000006 33.249325
14.051655 38.809825000000004 34.640544
35.803157999999996 41.303637 23.151045000000003
33.958848 42.545282 22.027379000000003
32.103748 41.302735 20.923515000000002
32.09542 38.809070000000006 20.9359
35.796831 38.809825000000004 23.164184
24.201325000000004 41.303637 34.096267
22.048512000000002 42.545282 33.924503
19.894993999999997 41.302735 33.775279
19.893141999999997 38.809070000000006 33.790088
24.201599 38.809825000000004 34.110847
23.915993999999998 41.303637 29.079169
22.058609000000004 42.545282 27.977249
20.190668000000002 41.302735 26.895257
20.182485999999997 38.809070000000006 26.907739
23.909822 38.809825000000004 29.092381000000003
24.512914000000002 24.116934999999998 38.732223000000005
26.061869 25.034056999999997 38.732223000000005
24.493140000000004 25.91693 38.732223000000005
25.492407999999998 25.857343999999998 36.547899
24.064883000000002 25.012119 36.547899
25.510632 24.198459 36.547899
37.841777 18.166935000000002 38.56264
38.937054 19.084057 37.467363
37.827795 19.966929999999998 38.576622
36.989834 19.907344000000002 36.325483
35.980421 19.062119000000003 37.334895
37.00272 18.248458999999997 36.312597
30.462913999999998 38.842639000000005 12.483504
32.011869 38.194136 11.835001
30.44314 37.569851 11.210715
31.442408 36.067434 12.797398999999999
30.014882999999998 36.665098 13.395064
31.460631999999997 37.240443 13.970407999999999
11.313058999999999 30.066935 18.562914
11.313058999999999 30.984057 20.111869
11.313058999999999 31.866929999999996 18.54314
13.497383 31.807344 19.542408000000002
13.497383 30.962119 18.114883