121_cspbbr3_methylammonium_5_0.50\121_cspbbr3_methylammonium_5_0.50.xyz
1.0
53.813103999999996 0 0
0 53.813103999999996 0
0 0 53.813103999999996
Br C Cs H N Pb 
450 68 132 408 68 125 
Cartesian
23.956743999999997 39.00016299999999 20.872963
32.932998 27.090156999999998 29.686231999999997
32.985524999999996 32.839177 23.728702
32.691395 29.713074 26.993969999999997
26.74966 29.933266999999997 38.695249999999994
26.962441999999996 29.724697999999997 32.702535999999995
26.804993999999997 38.643100999999994 23.914455999999998
30.032496 26.767030999999996 26.738344999999995
32.686130999999996 23.755996999999997 27.072844999999997
32.736337 26.809202 24.170871999999996
27.02805 35.71473099999999 27.048379999999998
24.022377 32.995698 38.925779
23.915915999999996 38.986475 26.74588
26.681863999999997 32.760315 29.922921
32.816154999999995 23.905839 33.133371
30.048396999999998 26.981966999999997 32.940192999999994
26.956745999999995 35.62219699999999 20.9275
32.775763 29.748268 21.100871999999995
32.95274 26.960435999999998 41.633632
26.728975 36.012212999999996 15.046272999999998
23.781476999999995 38.72550999999999 14.931918999999997
30.001049 26.757239 38.785945
26.704314999999998 32.989869 35.920966
32.719846 32.952614999999994 11.895830999999998
32.656018 24.037830999999997 38.668122
32.754346999999996 32.963165 18.177533999999998
32.915124999999996 26.934842999999997 35.54517499999999
29.993164999999998 33.082807 20.795671999999996
33.051185 30.028997999999998 14.965194999999998
23.804987999999998 32.910411999999994 32.729416
27.067657999999998 38.938832 18.106468
27.048398 32.705094 41.634049
26.991128999999997 38.936855 11.911789999999998
30.030634999999997 32.692679999999996 14.990050999999998
32.853801 27.166081 12.165938999999998
32.996989 23.75423 20.941542
32.653036 17.996958999999997 21.149997
26.913959 41.569635999999996 38.945028
32.958254 21.087849999999996 17.841941999999996
30.108631999999997 20.875152999999997 14.891611999999999
32.96052 15.016362999999998 11.803959999999998
32.676036999999994 11.910620999999997 14.892801999999998
32.78735999999999 17.869517 15.167483999999998
29.894726999999996 32.666477 26.946019
32.934566 14.884842999999998 41.945829999999994
29.823213 15.166171999999998 14.810594999999998
29.723906999999997 15.025442999999997 38.707849
33.043246999999994 11.842607999999998 38.829795999999995
32.646587 14.961892999999998 17.865246
32.946605 15.017601999999998 36.102115
32.74077199999999 12.010657999999998 21.165796
29.975329 15.197083999999997 32.817046
29.845581 14.910124999999997 20.742082999999997
33.000592999999995 11.909242999999998 32.881764
33.029405999999994 14.798484999999998 29.766406999999997
32.69203399999999 15.054924999999997 24.048553
29.790642 15.204978999999998 27.065381
29.875148 20.700158 20.808387999999997
27.035997 41.589150999999994 32.894863
32.901167 20.939553999999998 23.744822
33.034485 17.894361999999997 26.724535999999997
32.810198 26.907854 18.162394
26.989756 38.99079 29.825062999999997
26.902642999999998 35.661119 33.039074
23.755768999999997 38.986182 32.974267999999995
29.880181999999998 26.935066999999997 14.762945999999998
32.939696999999995 23.819128999999997 15.203161999999997
33.056807 11.854940999999998 27.015321999999998
27.023709999999998 39.065103 35.846371
32.93553 21.027223 41.513646
26.819786999999998 35.651935 38.939167
29.740529 27.018063999999995 20.926472999999998
29.828336999999998 21.137876999999996 38.894225
33.119297 20.939645999999996 35.97385
23.857901 39.030559 38.720931
29.756594999999997 20.842045999999996 32.930927
32.841606999999996 18.151567 32.746044
26.827852 38.635239999999996 41.727608
32.907576 20.90732 29.706383999999996
26.828830999999997 41.906078 14.885421999999998
27.061332 41.670702999999996 20.894186999999995
29.932813999999997 20.885757999999996 27.097443
26.761512999999997 41.861236 26.706930999999997
33.13466 17.886917999999998 38.778726
32.962271 21.062813999999996 12.207050999999998
32.936693 42.002816 15.064198999999999
32.603161 29.854739999999996 32.736323
38.767593 35.699098 32.990554
38.748866 38.747355 29.643721
36.061697 38.791154999999996 27.030946
38.657625 35.933939 27.075075
38.840157999999995 38.849909 23.740522999999996
36.060252999999996 38.71328 21.035726999999998
38.937734 35.855522 21.082544
39.014113 38.955102 17.936878999999998
35.729064 38.675838999999996 15.182061999999998
38.982169999999996 36.010298999999996 14.854373999999998
38.692316999999996 38.755365 12.229212999999998
38.745584 32.684933 41.662625
35.89630399999999 32.644524 38.99807
38.955813 30.078321999999996 38.893792
35.997638 38.710086999999994 32.885267999999996
35.707623 33.055037999999996 32.98998399999999
38.97343299999999 33.031217 30.009486
35.728877 32.640491 27.019204
38.827754 29.904200999999997 26.610417999999996
38.658077 32.966162 23.794905
35.960134 32.993928999999994 21.061406999999996
38.644038 30.025989999999997 20.933009
38.85943699999999 32.780427 17.810021
35.776502 32.953057 15.183847999999998
38.687486 29.690886999999996 15.015441999999998
38.650005 32.72051 12.154139999999998
38.697078 26.924025 41.60386
35.992315999999995 26.858997 38.657917
38.999205999999994 24.042879999999997 38.918321999999996
38.949898999999995 27.020762999999995 35.772988
38.846244999999996 30.059886999999996 32.701905999999994
38.879672 38.62279899999999 36.013231
38.690446 35.754673 38.679448
35.987934 38.785402 38.948761999999995
41.753367 38.965483 38.970425
41.817771 38.706112 32.628692
41.591896999999996 38.653878999999996 26.862454999999997
41.925217999999994 38.654897999999996 21.084152999999997
41.649201999999995 38.679683 15.205837999999998
41.769416 33.006299999999996 38.701229
41.896663 32.76635 32.965209
41.620442 32.675606 26.926305
41.738351 32.766881 21.231261999999997
41.788638 32.57239 14.913379999999998
41.926702 26.800753999999998 38.732465
42.034579 26.845029999999998 32.981876
41.777747999999995 26.714568 26.706891999999996
41.91728199999999 26.941594 20.820400999999997
41.640147 26.823000999999998 15.169001999999997
41.67613599999999 21.193735999999998 38.886536
41.485645999999996 20.923128999999996 32.88568599999999
39.00581999999999 38.68736 41.930558999999995
38.5966 41.65624 14.867591999999998
38.932858 41.703364 20.700204999999997
38.698044 41.72907 26.700125999999997
38.645903999999994 41.856208 32.997682
38.784325 41.925785999999995 38.945547999999995
35.762552 27.066747 32.689282
41.93444 14.860986999999998 14.897426999999997
41.636914999999995 14.901743999999997 26.763304999999995
41.692759 14.869817999999999 33.028729
41.950495999999994 14.952528999999998 38.706726999999994
41.536497 20.975412 14.933660999999997
41.523993 20.955406999999997 21.092127999999995
41.616178999999995 21.080219 26.928542999999998
41.64325899999999 14.843696999999999 20.959413999999995
32.713845 33.06030199999999 29.861385
38.689243 23.868914999999998 33.026163
35.642114 26.949636999999996 26.997692999999998
39.021381 11.833803999999997 20.992360999999995
39.019017999999996 15.087953999999998 18.126329999999996
35.830097 14.884337999999998 15.149254999999998
38.630648 12.085206999999997 15.225463999999999
38.644431 14.866031999999997 12.176429999999998
33.128702 41.694747 38.785081999999996
32.611377 41.851105 32.71561
32.958462999999995 41.931250999999996 26.878712999999998
32.722824 41.67012999999999 20.847488
32.713347999999996 39.033549 41.693965999999996
29.854245 38.594153999999996 38.810018
32.625161 35.688292999999994 38.892474
32.799848999999995 38.981331 35.95401999999999
29.950255 38.998928 32.794309999999996
35.99299 15.073979999999999 20.813843
32.720546999999996 36.003036 32.999263
30.028349 38.880867 27.125123
32.874128999999996 35.637105999999996 26.770849
32.717025 38.90014299999999 24.031456999999996
29.678846999999998 38.700026 20.888977999999998
32.852236 36.005143 20.789516
33.030244999999994 38.976065999999996 18.017142
29.999315999999997 38.72433 14.892365999999997
32.685871 35.761243 15.165486999999999
32.857099 38.785593 12.213936999999998
32.835166 32.720811999999995 41.971466
29.958567 33.01401 39.01076199999999
32.884733 29.697606999999998 38.710362999999994
32.898874 32.695183 35.670104
30.028453 32.90486799999999 32.701252999999994
32.617427 38.741668 30.050337999999996
38.853446 14.850457999999998 24.078650999999997
38.959596 12.108122999999997 27.039398
35.78974 14.777337999999997 27.083515
38.546123 23.83643 26.955149
38.924917 26.958582999999997 23.769923999999996
35.950916 27.106271 20.786671999999996
38.901588999999994 24.082621999999997 20.991082
38.832361999999996 26.745469 18.110917999999998
36.061696 27.04903 15.022659999999998
38.977039 24.04356 15.071562999999998
38.833642 26.866521999999996 12.232032999999998
38.87727399999999 20.72658 41.687924
35.732217999999996 20.703651999999998 38.908741
38.719482 18.118914999999998 38.960624
38.926612 20.756211 35.82072
35.829732 21.09393 32.696308
38.678383 17.747957999999997 32.825162
38.826491 21.130384999999997 29.778802999999996
35.666934 20.765147 27.004776999999997
38.701557 17.743524999999998 27.055816999999998
38.996118 14.992812999999998 30.032894
38.599402 12.108023999999999 32.698108
35.98149299999999 15.057230999999998 32.699248
38.678622999999995 15.110357999999998 35.730987999999996
38.677529 11.983960999999997 38.959971
35.915603999999995 15.060496999999998 39.01636799999999
38.807714999999995 27.026010999999997 30.041095
38.990103999999995 14.953660999999997 41.990089
38.669716 18.191077999999997 14.946459999999998
35.834556 20.85888 14.846839999999997
38.905663999999994 21.063986 17.864499
38.921769 17.842104 20.939558999999996
35.904371 20.821824999999997 21.090888999999997
38.739174 21.113946999999996 23.83466
38.65085 21.087360999999998 11.814014999999998
24.060236999999997 32.925031 26.729464999999998
38.652684 32.767799999999994 35.678791999999994
26.850376999999998 32.918690999999995 24.103306999999997
18.080882 14.976203999999997 38.965493
21.17102 12.069419999999997 38.620814
20.870701999999998 14.732713999999998 35.803653
17.886450999999997 14.924657999999997 33.026241
20.740372999999998 12.204738999999998 32.85420499999999
21.021210999999997 15.132444999999997 30.000541
17.784643 15.036980999999997 27.087479
20.783379999999998 11.855947999999998 26.872145999999997
20.833532999999996 15.123075999999998 23.810973999999998
18.135105999999997 14.901994999999998 20.904778999999998
20.795952999999997 12.180112999999999 21.068577999999995
20.790476999999996 15.150259999999998 18.010838999999997
17.822940999999997 15.149637999999998 14.834723999999998
21.090432 12.052145999999997 14.856405999999998
21.079848999999996 15.194263999999997 41.651288
21.086335 14.940980999999997 11.921604999999998
14.954468999999998 41.953212 32.765417
14.779627999999999 41.671821 27.062714999999997
15.001961999999999 41.976825999999996 20.984655999999998
14.833188999999997 41.740924 14.903427999999998
14.908025999999998 38.644740999999996 41.591229
11.881402999999997 38.941348 38.767903999999994
15.016142999999998 36.029631 38.65306399999999
15.107876999999998 38.915265 35.940712999999995
11.997413999999997 38.969215 32.959177
15.028810999999997 35.829817999999996 33.111545
14.868357999999997 38.689006 29.976126999999998
11.846746999999997 38.859535 26.716778999999995
14.957380999999998 35.843833999999994 27.175393999999997
14.865126999999998 38.986985999999995 23.862368999999997
14.864020999999997 41.648633999999994 38.672824999999996
21.151708999999997 21.061422 12.178041999999998
20.923966 17.762456999999998 15.056785999999999
18.034162 21.165416 15.171797999999997
21.129202999999997 29.809905999999998 14.917976999999997
20.789367 32.642598 12.116207999999999
21.101084999999998 26.669368 41.82514
17.926271 26.792387999999995 38.64704
21.158669999999997 23.997566 39.016664999999996
21.087585999999998 26.717194 35.667928999999994
17.963893 26.805768999999998 33.082145999999995
21.102299 24.055383999999997 33.021238
20.813466 26.952008 29.774652999999997
17.994632999999997 26.732249999999997 27.131189999999997
20.783544999999997 24.070248999999997 27.044137
20.72377 26.870816999999995 24.086803999999997
17.929743 26.661538999999998 20.957254999999996
20.966507999999997 23.89794 20.661272999999998
20.971832999999997 26.853278999999997 17.701355
17.908641999999997 26.985797999999996 14.828134999999998
21.113196 23.685004 15.037576999999999
21.015851999999995 20.853702999999996 17.838824
20.763772999999997 17.801996999999997 21.052237999999996
17.825692999999998 21.084173999999997 20.759480999999997
20.922518999999998 20.764835999999995 23.817938999999996
21.097286999999998 18.179983 26.922925
18.082283999999998 20.805678 27.117556
11.866507999999998 38.755981999999996 20.848805999999996
21.154055999999997 21.096874999999997 30.018124999999998
18.141588999999996 20.837456999999997 32.934963999999994
21.098820999999997 21.088347999999996 35.865398
20.805062999999997 18.196142 38.903618
17.704891999999997 20.894797999999998 38.869434
20.85861 20.89922 41.932885999999996
21.189983999999995 26.996458999999998 12.051558999999997
21.201589999999996 17.845439999999996 32.754884
15.104259999999998 35.950781 20.767927
14.836528999999999 38.71456799999999 18.102059999999998
12.103967999999998 38.844663 14.809856999999997
12.157179999999999 20.989324999999997 38.653196
15.217671999999997 17.914437999999997 38.806182
15.230399999999998 21.020483 35.64272
12.029559999999998 20.995447999999996 32.678352
14.910337999999998 18.178897999999997 32.758814
14.818246999999998 21.160007999999998 29.811297999999997
12.195623999999999 20.860374 26.935910999999997
14.889262999999998 17.911617999999997 27.135087999999996
15.096626999999998 21.159675999999997 24.093137999999996
12.136857999999998 21.032003999999997 20.796704999999996
15.159772999999998 17.899468999999996 20.747833
15.036878999999997 21.115865 18.211951
11.891568999999997 20.97475 15.175656999999998
14.798731999999998 18.136438 15.060478999999997
15.116320999999997 20.852815999999997 11.879780999999998
14.835653999999998 15.100754999999998 41.64858399999999
11.874624999999998 15.186730999999998 38.955718
26.77561 30.085390999999998 26.923227999999998
15.116415999999997 14.826469999999997 11.890150999999998
15.016944999999998 11.825334999999997 15.163119999999997
11.943113999999998 15.033930999999997 15.182746999999997
14.802385999999998 14.983836999999998 18.078720999999998
14.780046999999998 12.009699999999997 21.130643999999997
15.144364999999997 21.083402999999997 41.582722999999994
11.857884999999998 15.005874999999998 21.031380999999996
15.140866999999998 12.115268999999998 26.808885999999998
11.859500999999998 15.105816999999998 26.737143999999997
15.053526999999997 14.869932999999998 29.66033
14.992175999999997 11.849084999999997 33.010422
14.826839999999997 14.869049999999998 35.720758
14.898711999999998 12.135981999999998 38.693917
15.104862999999998 14.916847999999998 23.794259999999998
18.081956999999996 32.653645 15.020331999999998
15.024258999999997 26.642298999999998 12.070020999999997
11.912221999999998 27.045372 15.143196999999997
14.806966999999998 35.837996 15.166120999999997
15.140624999999998 38.604493 12.130478999999998
14.844494999999998 32.909077999999994 41.958717
12.124129999999997 32.634051 38.894843
15.071995999999999 29.966617999999997 39.004402
14.878296999999998 32.984391 35.916992
11.768324999999997 32.855059 32.740126
14.962299999999997 30.104539 32.97155599999999
14.816357999999997 32.833890999999994 29.823147999999996
11.901440999999998 33.079049 26.949326999999997
15.053522999999998 30.012973 26.784886
15.140661999999997 32.995356 23.779503
11.930011999999998 33.03583999999999 21.106230999999998
15.043128999999997 30.037453999999997 20.807173
14.826832999999997 32.876688 17.981747
11.857031999999998 32.90273499999999 15.070997999999998
15.234776999999998 29.731002999999998 15.119901999999998
15.171224999999998 27.018831 18.055752
14.966932999999997 24.104031999999997 20.993136
12.170266999999997 26.919931 21.152761999999996
15.148056999999998 27.002944999999997 23.744115999999998
14.817147999999998 23.890504 26.719338999999998
11.832380999999998 27.105687999999997 26.899751
15.078125999999997 23.716021999999995 15.139697999999997
15.123396999999997 26.97132 29.671865999999998
12.113464999999998 26.969257999999996 32.596683999999996
14.890564999999999 26.767182999999996 35.792883999999994
14.860291999999998 23.840752 38.682393999999995
12.103874999999999 26.958352999999995 38.979921
15.148535999999998 26.906174 41.646372
14.947012999999998 32.942763 12.205670999999997
14.885824999999997 23.755404999999996 32.928143
20.855641999999996 32.723958999999994 18.068334999999998
12.077507999999998 15.175927999999997 32.907898
26.695878999999998 24.124295999999998 32.850567999999996
23.783896999999996 15.144800999999998 26.754301999999996
26.792237 12.207313999999998 27.04612
26.677241 14.973181999999998 23.776249999999997
26.790405 26.846605999999998 24.065123
23.909453 15.188641999999998 20.989100999999998
26.724137999999996 12.165730999999997 20.784675
26.984924 14.911553999999999 17.820158
26.877527999999998 23.764395999999998 27.136401999999997
23.799374 15.140758999999997 14.948482999999998
23.750462 26.820971999999998 26.817256
26.758972999999997 11.927464999999998 14.961022999999997
26.990084999999997 15.166642999999997 12.073032999999997
20.788447999999995 41.581647 38.885777
21.143023999999997 41.90689 33.011891
21.052025 41.956725 26.957195999999996
20.993592 42.030302 20.981578
27.056967999999998 27.067895999999998 29.806852
21.130938999999998 41.6134 14.987219999999997
24.031473999999996 26.750518 32.872078
21.117756 38.901025 41.607887999999996
17.798976999999997 38.981456 38.946306
20.917482 36.023222999999994 38.96896399999999
20.991726999999997 38.6005 35.900706
27.085758999999996 15.058610999999997 30.113061
27.074216999999997 12.180715999999999 32.873349
24.071529999999996 15.141696999999997 32.986862
24.092427999999998 26.986179 20.799711
27.007199 20.783457999999996 35.857734
23.716949999999997 21.121409 38.855633
23.954936999999997 20.773007 32.809201
26.799968 17.758162999999996 32.932787
26.765794 20.877491 41.66008299999999
26.759904999999996 20.828405999999998 29.992141999999998
23.932181 21.140594 27.021859999999997
26.742582999999996 26.675182999999997 11.988508999999997
26.774369 17.868707999999998 26.779176
26.764384999999997 21.173631999999998 23.850617999999997
27.078185999999995 24.111468 14.946148999999998
27.078241999999996 26.893539999999998 35.989976
23.808864 26.707065999999998 14.842085999999998
27.151201 17.975975999999996 20.990218999999996
27.074135 20.871157999999998 18.142919999999997
24.087666999999996 20.779430999999995 15.166689999999997
26.932342999999996 17.796754 14.833494999999997
26.834376 20.929834999999997 11.850372999999998
26.942162999999997 14.995045999999999 42.022524
26.86068 27.120990999999997 17.902635999999998
24.093075999999996 15.115246999999998 38.962421
26.784003999999996 11.912865999999998 38.702745
26.987992999999996 15.085432999999998 36.002165
26.971376 23.714133999999998 21.053565
23.971826999999998 21.125924999999995 20.771770999999998
17.919489 38.762719999999995 32.675741
26.96438 17.798146 39.005227
20.926869999999997 39.027913 29.938941999999997
26.805522999999997 32.901059 12.288079999999997
26.731572999999997 29.978796 15.159351999999998
24.1616 32.813100999999996 15.020128999999997
18.113411999999997 38.783556 14.885462999999998
21.009690999999997 35.966739 14.824777999999998
21.079406999999996 36.056351 32.998547
20.962939 32.632999999999996 41.963518
17.829317999999997 32.874514 38.589538
20.821944 29.887614 38.626151
20.815523 33.030649999999994 35.722592999999996
26.856963 32.730971999999994 17.817154
17.930466999999997 32.969004 32.99489199999999
21.191623999999997 29.748870999999998 32.756525999999994
20.78239 32.794408 30.04488
27.069967 29.917323999999997 20.740927999999997
24.149297999999998 32.703618999999996 21.048415999999996
17.856475999999997 33.023516 27.084871
20.780575999999996 29.859697999999998 27.000517
20.931829 32.962762 24.098668999999997
20.886900999999998 29.752512999999997 21.124950999999996
18.031975999999997 33.1089 20.959837
21.141571999999996 38.943716 18.023061999999996
21.10942 35.678928 21.120529999999995
20.873761 38.83788 12.243841999999997
26.625749 27.007115 41.811493
23.930754 26.775774 38.6568
26.97112 24.073383999999997 38.96156
17.989939999999997 38.78352 21.197036999999998
21.182553999999996 35.900246 26.783331999999998
17.784240999999998 38.60690399999999 26.882855
21.223466 38.73642 24.027562999999997
10.950508999999998 42.896959 29.938349999999996
23.919469999999997 23.996007999999996 10.634457999999999
10.512672999999998 35.739653999999994 29.889744999999998
10.478315999999998 35.872212 35.802652
35.797036 43.19044 35.843133
42.759150999999996 29.865363 11.026220999999998
10.584802999999997 29.810119999999998 17.953481999999997
35.776143 42.875717 42.827352
29.840189 29.948641 43.330875999999996
23.863352 10.633093999999998 29.861907999999996
35.882101 10.929331999999999 42.813677
17.910421 23.889924999999998 43.321976
17.895695999999997 43.210283 35.8555
35.858436 17.910704999999997 10.593291999999998
42.902592 23.912011999999997 42.817665
10.620487999999998 18.023504 18.041956
17.951652999999997 42.752703 42.900174
43.318971999999995 17.917018999999996 23.88082
43.326293 35.821206999999994 35.769444
23.982243999999998 35.753109 10.609087999999998
35.866426 10.618594999999997 29.896718999999997
18.053707999999997 10.564420999999998 17.910052999999998
29.940427999999997 35.79175299999999 43.174048
29.814939999999996 35.82147 10.515010999999998
35.79877 10.486294999999998 18.034301999999997
10.646969999999998 29.889378999999998 35.862018
29.801996 10.967802999999998 11.021070999999997
23.974348999999997 43.318943 35.903405
29.793269999999996 10.536761999999998 35.772740999999996
23.872798999999997 23.864897999999997 43.223265
23.891357 18.013355999999998 10.612372999999998
17.950727999999998 35.812463 10.484325999999998
42.748118 42.87762299999999 35.805951
17.958417999999998 10.931216999999998 11.053681999999998
18.016605 43.224351999999996 29.936984999999996
29.895246999999998 10.544662999999998 29.975880999999998
43.291166 35.757391 29.87709
42.885203999999995 42.86324 18.029329999999998
11.033299999999997 42.915905 23.894745
29.898187999999998 10.645646999999999 17.924698
43.299782 23.872285999999995 18.035351
35.916147 35.841787 43.213102
10.924163999999998 35.813674 42.772155
10.975658999999998 23.858148 42.844113
43.219201 23.86262 35.85688
42.834635999999996 18.033402 42.881296
42.850428 29.950506999999998 42.795035999999996
18.066657999999997 29.820861999999998 43.261421
42.807307 42.845589999999994 29.952996999999996
10.619666999999998 29.869007999999997 23.977065999999997
11.077028999999998 10.928478999999998 29.902634999999997
10.659887999999999 23.904694999999997 17.987997
29.811360999999998 11.032762999999997 42.763821
29.826216999999996 43.336357 29.871278999999998
10.920682999999997 29.92495 42.816311
10.608417999999999 17.974034999999997 23.843016
10.501719999999997 35.838736 17.932112999999998
18.04104 17.986717999999996 43.317043
29.936984 23.968550999999998 43.322244
35.888483 29.939080999999998 43.287252
29.916452999999997 43.281337 35.748327999999994
10.645177999999998 35.804523999999994 23.907223
35.865654 10.492868999999997 35.777087
23.879270999999996 11.048995999999997 10.921830999999997
23.968424 43.340673 18.011736
29.923167999999997 29.830264999999997 10.499629999999998
10.930994999999998 42.827315999999996 17.920885
17.884732999999997 35.818084 43.232921
36.173781 36.088435999999994 23.833169999999996
42.032664 12.330262999999999 35.619806
42.202712999999996 35.601493999999995 23.596270999999998
41.548855999999994 24.137454999999996 23.567735999999996
12.269459999999999 11.734424999999998 17.770728
24.25143 24.223914999999998 18.08806
11.907292999999997 23.603666999999998 12.258303999999997
41.746699 36.361379 18.201283999999998
23.351730999999997 29.835579 23.950097999999997
41.997403 17.547679 35.462461999999995
41.746455 17.590501999999997 29.765029
24.097009 35.446841 18.370635999999998
23.428423 35.729499999999994 41.808220999999996
11.849524999999998 17.849873 12.467743999999998
41.726124999999996 35.633492 42.27970199999999
12.394156999999998 23.733196 23.692750999999998
41.865756 41.973249 24.253992999999998
41.881634999999996 18.381458 18.164158999999998
35.74811 36.138755999999994 18.202755999999997
24.269366999999995 18.104139999999997 41.57412299999999
24.297566999999997 41.686119 24.010641999999997
11.714957999999998 23.751382999999997 30.280599999999996
23.583665999999997 29.741815 30.133397999999996
35.701705 36.097243 29.601671999999997
24.120396999999997 24.425335999999998 35.861211
41.551461999999994 36.13872 12.373541999999997
23.586591999999996 29.723373 12.373074999999998
35.457823 41.464600999999995 29.594686999999997
42.018396 23.839470999999996 29.596432999999998
35.508193999999996 42.046915 23.573341999999997
23.911175999999998 23.553153 30.358594999999998
24.068576999999998 30.433531 41.989774
35.597897999999994 42.082679 17.689791999999997
24.179809 35.505396 23.809542
12.322358999999997 17.837685999999998 29.520204999999997
41.418347 29.68846 17.628201999999998
11.608565999999998 12.442990999999997 35.705018
41.498529999999995 24.340608999999997 11.830514999999998
24.116037999999996 36.050973 30.127315999999997
41.560292999999994 29.96494 23.406476999999995
24.213813 24.334987999999996 23.955025
41.389776 11.805318999999997 18.215619999999998
11.688470999999998 18.210763999999998 35.888364
35.763909 35.940599 12.621110999999997
11.647532999999997 12.040214999999998 23.897085999999998
42.011312 29.772802999999996 30.162474999999997
35.968475 36.043941999999994 36.33899
41.955704 12.395018999999998 23.508853
23.751171 29.476412999999997 18.110370999999997
24.269029999999997 29.630999999999997 35.643859
12.192240999999997 17.964235 41.438134999999996
23.943358999999997 36.36146299999999 35.578993
41.573671999999995 12.372004999999998 29.999754999999997
18.385011999999996 30.071623 18.061890999999996
41.520451 30.135700999999997 35.363257
29.733632999999998 24.335186999999998 36.212872
29.518680999999997 41.881843999999994 17.596875999999998
29.581618999999996 42.193743 23.772465999999998
18.32585 17.915881999999996 35.652899
29.329048999999998 41.706067999999995 41.637137
35.610362 11.838337999999998 11.784946999999997
18.222868999999996 35.541772 23.55701
18.02142 18.242428999999998 30.173405999999996
30.094141999999998 24.298871999999996 29.573536999999998
18.213846999999998 18.265107999999998 24.102968999999998
17.744329999999998 35.611347 30.199510999999998
17.969437 17.633152999999997 18.403648999999998
18.209187 17.791539999999998 12.351361999999998
18.140507999999997 35.858889999999995 35.406952999999994
18.270664999999997 11.635396999999998 41.464571
29.429418 24.031988 18.353941999999996
18.361534 35.605546999999994 18.221255999999997
29.799649999999996 41.898393999999996 11.467015999999997
17.960637 23.774926999999998 12.493642999999997
29.834476999999996 36.31267 35.59508399999999
24.088299999999997 42.08369 30.146122
30.273684999999997 29.884366999999997 36.088848999999996
18.32144 30.280742999999998 23.967691
18.226011999999997 29.575654999999998 12.131290999999997
30.212113999999996 29.955275999999998 24.208329
18.297328999999998 23.496266 35.911409
29.694176 36.085743 18.172575
17.999363 12.273820999999998 35.469697
18.088395999999996 30.234243 30.006783
30.116701999999997 35.455463 23.839396999999998
30.206654999999998 30.070110999999997 17.788334999999996
17.824908999999998 29.568495999999996 36.180056
18.307647999999997 24.074151999999998 23.649184999999996
30.297552999999997 30.068565999999997 29.754407999999998
29.389684999999997 35.643679 30.159665999999998
17.658193999999998 24.23601 17.823431999999997
17.738160999999998 23.815998999999998 29.439652
30.059814999999997 24.273286999999996 11.965958999999998
29.529711 23.969479 24.062816999999995
36.06616399999999 18.296856999999996 17.966139999999996
11.688238999999998 36.029286 11.958195999999997
36.066635999999995 24.000608 35.558838
23.675065999999998 12.055393999999998 42.159946
35.96803 24.386866999999995 41.735418
18.245911999999997 11.680535999999998 30.18855
24.266016999999998 18.436215999999998 17.890541999999996
35.546626999999994 29.530320999999997 18.159236
30.127156999999997 12.246309999999998 24.129213
24.368119 18.279279 23.789074
35.351426999999994 29.800138999999998 23.612455999999998
23.661839999999998 17.639423999999998 29.817280999999998
12.411736999999999 30.221721 12.170800999999997
36.075939999999996 30.286528999999998 29.966305
23.525138999999996 42.044588999999995 41.672763999999994
24.023623999999998 18.242433999999996 35.588930999999995
36.112197 30.31834 35.979014
11.915663999999998 23.485621 36.225446999999996
35.887087 23.792257 29.508305999999997
23.814923999999998 11.644100999999997 35.720251999999995
35.527775999999996 30.052525 12.291641999999998
35.566385 23.865403999999998 24.180276
18.240799 42.264795 12.206135999999997
18.356277999999996 41.976713 17.967321
29.813174999999998 18.163334999999996 12.359184999999998
36.161331 17.952827 24.441570999999996
29.586005999999998 18.078183999999997 36.313458
36.03154 17.953058999999996 29.455433