1_train/9_cspbbr3_methylammonium_3_0.20\9_cspbbr3_methylammonium_3_0.20.xyz
1.0
41.715682 0 0
0 41.715682 0
0 0 41.715682
Br C Cs H N Pb 
108 10 44 60 10 27 
Cartesian
20.73222 23.907915 15.044683
26.648852 14.74194 17.80525
29.834451 15.191838 20.910774
23.925075 14.984698 15.136142
29.984809 14.829144 26.990254
26.679282 12.194519 14.853891
26.85303 15.030484999999999 11.778478999999999
29.908164 21.023655 14.931372
29.615991 20.728925999999998 21.049303
20.907031 29.817012 26.525368
20.982257 29.604961 20.695617000000002
20.913437 29.859764 14.707564
21.038054 26.894031000000002 29.907794
18.111464 26.826819 26.915145
20.627516 26.84757 11.985358999999999
20.961329 23.650049 26.697315999999997
21.053681 26.714285 23.915556
29.633135 20.904213000000002 27.045221
17.994965 26.641371 20.831094
20.812948000000002 24.001765000000002 20.661967
29.764995 26.997859000000002 14.724826
20.959201 26.947169 17.648301
29.667782 26.795854000000002 20.713811
18.06065 26.896705 14.743912
30.00079 26.684368 26.752352
24.058288 26.797943999999998 20.924853000000002
24.013182 14.861649 20.866573
29.68144 14.753703 14.914693
26.651554 23.902106999999997 20.75337
26.813833 27.042182999999998 18.027281
26.753161000000002 26.944599 23.698257
24.005667 26.727686000000002 14.956593999999999
26.781088999999998 23.616848 14.862334
26.855458000000002 26.793677 12.165741
26.597096 23.975297 26.87745
23.733348 26.844334999999997 26.552847
26.859165 20.658143 29.832197
24.003912 20.810565999999998 26.579586
26.643205 17.923144999999998 26.87615
26.966801999999998 26.948843999999998 29.708806
26.65117 20.988071 23.842457
23.990976999999997 20.711661 20.807581
26.948275 17.919092 21.040571
26.999167 29.671348 14.815882
26.65757 29.952869 20.822049
23.954041999999998 21.014564 14.85248
26.711325 17.866916 15.08913
26.633015 20.832266 12.042361
26.603635 29.931644 26.720043
26.638992 14.990798999999999 29.915002
24.032486000000002 14.762207 26.846137000000002
26.717789999999997 12.084648 26.646224999999998
26.677478 14.735438 23.749630999999997
27.063053999999998 11.858 20.892211
20.810145000000002 21.078770000000002 29.881831
26.918477 20.737223 18.024274000000002
17.69532 21.013858 26.639305
14.969638 11.740603 20.812379
15.058164 17.763792 14.864222999999999
12.081615 14.738502 20.974464
15.046451 29.898236 21.014709
14.805449 29.610094 14.929516
14.834963 26.718374 29.62799
14.828921 14.723168 23.972733
12.027576 27.000182 26.796298
14.804739999999999 23.937358999999997 26.683539
14.778739 26.943172 23.981429000000002
14.893321 12.041855 26.576833
11.923582999999999 26.717762 20.697027000000002
11.738459 14.773474 26.765800000000002
14.973523 23.738870000000002 21.009383
14.683389 26.965825 17.866575
11.813429 26.572912 14.970854
14.944279 23.930229 15.091984
14.896538 26.938032 12.073646
14.629054 14.941911 29.855322
14.726332 20.725918 29.87373
11.891188 20.960717 26.969419
14.935918000000001 20.702464 11.820975
14.986761 18.012747 26.571504
14.992192 20.880163 23.603339000000002
11.818507 20.982707 20.984305
14.805672999999999 17.82312 20.638648
14.756679 20.751495000000002 17.997809
20.764805 15.071318 12.133445
20.872453 11.95164 14.669858
14.981543 29.887309 27.074606
20.815341999999998 15.126597 29.687366
20.722935 17.714992 26.61606
20.748346 20.82441 23.65682
17.708481 20.954995 20.995696
20.755999 17.833005 21.070152
20.794973000000002 20.85186 17.612552
14.912188 15.038893999999999 11.797028
17.858859 20.586023 14.972131
20.967294 17.629194 14.896003
20.709236 21.030128 11.909092
14.907408 11.928866 15.092172
18.017779 15.126915 14.996275
11.945094 15.088299 15.096658
18.091541 14.943408999999999 26.609254
11.939135 20.639025 14.792956
20.981818999999998 12.111305 26.606666999999998
20.714945 15.035235 23.935033
14.904982 15.099921 17.774255
20.760645 15.141822999999999 17.796402999999998
21.065901999999998 11.777091 20.90512
17.943772 14.712399 20.686373
23.850427 10.475662999999999 23.75755
31.229899 23.917112 17.850759
10.501898 23.884774 17.913228
10.448846 17.967313 23.779719
23.898160999999998 31.302103 17.899762
17.954003 31.227831 17.810482999999998
30.739423 17.861152 10.87777
17.932395 10.385572 23.813892
17.877216 30.892136999999998 10.848022
10.893954 17.798344999999998 10.831581
29.502140999999998 23.834989 11.42059
29.938541999999998 30.188635 24.154742000000002
23.540108 23.840307 30.227532
29.745668 30.158017 17.453044
29.963674 23.521904 30.163071
29.680451 11.841198 23.414997
23.285712999999998 29.927404 29.834118
11.802313999999999 12.33498 23.783068
30.092704 17.443412 23.838556999999998
30.266846 23.73018 23.877191
29.461159 11.653527 17.712226
11.659678 12.237886 17.892218
18.400377 17.969523 30.034898
23.787972 29.480207 23.598173
23.555384999999998 29.340626 12.141151
29.807268 17.596249999999998 17.434389
29.551564 18.181038 29.48827
23.425615 23.684255 23.531341
11.757175 17.616534 17.58717
18.202157 24.236842 11.674277
18.286264 17.880504000000002 23.76231
18.354879999999998 23.894754 18.058485
17.466824 17.648984 17.840373
18.022233 24.120386 24.256007
18.304161 18.115275 11.901919
17.710345 24.404627 29.745371
17.494864 11.640138 29.477066
18.160794 30.221505 24.102687
18.18529 29.923953 29.617997
18.195384 11.996974 17.634738
23.545185999999998 11.731456 18.213556999999998
23.515437000000002 12.374055 11.889179
12.072439 29.427401 24.076416
23.468225 23.957832 18.207145
12.207878 17.951694 29.534216999999998
12.439624 23.729457999999997 12.005271
18.137005 12.041368 12.387675999999999
12.077352 24.218611 23.622515
24.030379 18.054119 24.134705
11.747614 23.547895 29.461654
23.793796 17.975305 11.395958
23.871357999999997 12.026164 29.284392
12.294528 29.420772 17.60662
23.543367999999997 18.14169 17.556544
12.205122 18.837218 12.225902
29.429811 23.844576999999997 16.958402
31.561461 22.936196 17.36354
31.617307 24.710625 17.344400999999998
31.589889 23.795556 18.907255
29.387011 24.694069 18.362703
23.787645 12.320151 22.896912
29.435333 23.024983000000002 18.376739
22.989062 12.331887 24.2978
10.046056 18.410792 11.306238
10.108668999999999 16.918886 24.112572
22.94661 29.39647 17.541246
10.675781 16.845684 10.641278
10.129634 18.647633 24.586585
10.135313 18.181087 22.802553
12.326168 18.796343 23.608181
12.29438 17.186023 23.177032999999998
12.277628 17.655351 24.759881
23.746205 31.578946 16.829602
23.02844 31.60428 18.480142
24.761557 31.561403 18.30853
23.927127000000002 29.43093 18.809193
24.625142999999998 29.436859 17.328175
11.287797 18.400419 9.9797
24.646851 12.281873 24.316036
18.329344 31.627815 16.970649
24.750716999999998 10.144261 23.318583999999998
12.757266 17.426293 11.615746999999999
17.062594 30.654882 10.231273
17.756147 31.808345 11.412621
18.814226 30.775985 10.309425
18.675977 29.924572 12.615807
17.989005 28.876607 11.50426
17.040941 29.816474 12.51262
17.127594000000002 10.126881 23.066999
18.867664 10.103788 23.545406
17.563511 10.147217 24.841165
18.570611 12.283185 24.520792
16.980144 12.316498 24.046446
18.117765 12.319559 22.926493
31.753834 18.071270000000002 11.361412
30.816375 16.932557 10.416891
30.569057 18.697031 10.186492
28.883043 17.679206999999998 11.528205
22.948134 10.096983999999999 23.334215
12.275352 24.745138 17.709353
12.310493 23.544404 18.796362
12.323257 23.222897 17.193897
10.140992 22.833884 18.083996
10.13313 24.219373 16.915577
23.828763 10.092663 24.884975999999998
10.088839 24.528812 18.662762
18.867531 29.39935 17.843534
17.468685 29.39129 18.715045
18.439365 31.62282 18.762864
16.832951 31.572254 17.972989000000002
29.926129 17.182478 12.633189
29.725613 18.763688 12.453949999999999
17.344893 29.418215 17.056488
11.580805 17.399432 12.778929
11.85785 17.850535999999998 11.99653
17.896388 29.70553 17.828161
17.963029 29.792552999999998 11.883412
11.878551 23.880077 17.819173
29.741951 17.950599999999998 11.875995
11.959023 17.87952 23.740157
29.810647 23.878321 17.937117
23.781904 11.912925 23.755585
17.942079 11.873428 23.893136000000002
23.764941 29.76644 17.864777
15.093098999999999 14.82934 14.817597
26.655424 26.638656 15.091061
14.719408 26.982128 15.045758
14.939806 26.923452 20.651654
26.789893 20.854785 26.568785000000002
20.727101 27.008947 14.981454
27.04671 20.792624 20.988783
26.869555000000002 20.921058 14.668396
26.68188 14.713895 26.810245
26.692822 26.582645 20.764799
20.885690999999998 15.130191 15.00273
21.082815999999998 15.075672 20.653353
26.606893 14.978272 15.195433999999999
21.033945 15.045496 26.830412
21.019420999999998 20.623163 15.055841000000001
20.668457999999998 26.924958 27.012776
20.735431000000002 20.791520000000002 21.179078999999998
20.645456 27.0279 20.776880000000002
20.691149 21.101889 26.762607
26.949886 14.720013 21.076795999999998
15.072178 20.857266 27.028867
15.153504 26.976056 26.689511
15.083199 20.950675 15.18324
26.742615 26.775964 26.530188
14.555277 14.94461 20.894012999999998
15.054611999999999 14.760704 26.543384
14.654973 20.804250999999997 20.603590999999998
