1_train/83_cspbbr3_methylammonium_4_0.50\83_cspbbr3_methylammonium_4_0.50.xyz
1.0
47.831362999999996 0 0
0 47.831362999999996 0
0 0 47.831362999999996
Br C Cs H N Pb 
240 43 69 258 43 64 
Cartesian
24.097792499999997 27.0485005 21.092329499999998
26.8650275 27.0667605 23.9587795
26.807084500000002 24.0459205 27.0473015
23.7385575 26.8673785 26.9240195
27.061867499999998 24.0225355 21.0840405
35.6726285 15.0459605 32.9749165
35.644471499999995 15.0103525 26.9806055
35.6131115 20.9695285 14.7999905
33.006919499999995 26.920446499999997 29.9679595
26.759497500000002 24.081193499999998 33.029717500000004
24.0629975 26.647470499999997 32.8798115
35.6556075 14.8518565 21.0585175
26.805628499999997 26.8896205 35.5512375
35.6751575 15.1358985 15.1222415
26.877671499999998 32.9454975 12.165540499999999
26.9861205 30.0404335 14.9395405
23.8977415 32.6443675 14.855425499999999
32.8704895 35.9291765 32.9974195
27.0637635 32.7679015 18.1269395
27.1173895 29.7744565 21.106018499999998
32.6808635 35.8397365 26.712835499999997
23.7950025 32.950430499999996 20.8599265
26.729017499999998 26.9172675 30.0006025
26.7846635 26.6370365 17.8551885
35.992416500000004 20.9230625 32.916901499999994
23.9702715 26.7427365 14.7904005
24.1006465 14.8235685 26.940962499999998
35.9798225 33.0383525 32.8262285
27.0643365 15.1665125 30.0185455
35.833063499999994 32.6910825 27.0359475
27.063571500000002 12.180987499999999 32.8850665
23.6452175 15.045745499999999 32.7937575
26.7130895 15.1381725 35.9539165
35.9147095 32.7300865 20.8250705
35.8714235 32.9799575 14.786427499999999
27.0364065 20.851245499999997 12.1048665
26.7391795 17.8111185 14.9115015
24.1341765 20.9231405 14.9142265
26.7617625 20.948710499999997 17.7859965
26.7632295 18.1629465 20.8126145
23.6723505 20.9158175 21.072905499999997
35.9466985 27.0389015 32.6611525
26.7729945 20.833636499999997 23.7473595
26.964986500000002 17.9325295 27.1356635
23.8491835 20.7428655 27.0187945
35.9447725 26.7582955 26.8675635
35.774368499999994 26.729256499999998 21.1090845
26.825709500000002 20.9470855 30.115215499999998
26.6756655 17.8449315 32.954477499999996
23.843928499999997 21.112865499999998 32.7841635
26.7063755 21.143876499999998 35.870921499999994
35.7501645 27.0459645 15.1480315
26.9924975 27.1240995 12.024504499999999
26.9732855 24.1008015 15.056547499999999
32.6615585 35.9284445 20.8559245
35.7012685 20.803489499999998 21.0170625
27.0737185 32.976183500000005 24.0982235
27.0629535 29.7753595 33.0034895
24.0607935 32.7821205 26.637924499999997
32.7679105 29.8783995 21.125631499999997
32.7124135 20.8026415 18.0960505
33.0101125 18.057083499999997 20.7258105
29.7047055 21.0108145 20.814043499999997
32.9878005 32.988401499999995 17.8548975
32.9761485 21.1400645 23.8537075
32.6583845 17.8318305 26.7209185
30.1040575 20.8871215 26.9058445
32.617996500000004 20.8237545 29.7085965
33.0014905 17.9470055 32.9660705
29.6927955 20.8743715 32.9057665
32.8034215 20.7421865 35.7895215
29.8066355 32.7260165 14.840394499999999
32.977228499999995 29.9224695 15.1602885
32.6583385 27.1009625 12.0576305
32.8707395 23.6807105 15.077261499999999
29.9985295 26.9943295 15.0795955
33.0531115 32.9525625 12.1042975
32.8352465 27.088682499999997 18.1900415
33.0289865 24.0310045 21.0924105
30.0295755 27.0680195 20.9509625
32.810424499999996 26.6887865 35.7718005
33.0269985 26.9323605 23.7396165
32.6771635 24.008038499999998 26.8670835
29.7520585 27.118753499999997 32.745309500000005
29.7493055 26.7303875 27.0684455
32.6219855 23.9871205 32.7233345
29.9883335 21.0539785 14.8344445
30.120496499999998 32.7383445 20.8623005
32.9886365 18.134189499999998 14.9557465
32.973947499999994 20.9222675 11.8695735
32.7407285 35.6735685 15.1625215
26.696326499999998 33.0204105 29.8639605
23.678731499999998 32.7597645 32.982521500000004
32.7003445 32.7482275 35.8851365
27.0583935 32.757848499999994 35.7577945
26.8154215 35.6664655 15.105836499999999
27.1481295 35.914734499999994 20.8662895
27.1149355 35.745093499999996 27.033862499999998
30.0480985 32.958158499999996 32.835095499999994
27.0007095 35.672565500000005 32.7322725
32.6524385 30.0552845 32.807982499999994
32.9448955 15.1146015 12.1588345
32.702085499999995 12.2345235 15.0482825
26.7951975 29.979539499999998 26.6520445
29.9179605 15.210364499999999 15.1487915
32.6026145 14.9662325 17.9412255
32.9639975 12.1638305 21.0383725
30.0060275 14.8771865 20.9135585
29.7606555 33.0666855 26.9783835
32.9428705 15.139896499999999 23.9280915
32.633506499999996 11.8607215 26.9490665
29.8028475 15.1544095 26.697787499999997
33.0764395 29.8549505 26.7951925
27.142387499999998 12.0113785 27.0436375
32.7363115 12.2474665 32.9824665
29.8603035 15.2022465 32.9548425
32.8935305 32.682070499999995 24.0433545
32.7518095 14.907776499999999 35.6249845
32.7979975 32.7613845 29.6890595
32.8000525 15.0934855 30.0377835
35.5842855 20.8503005 27.0472535
14.8648975 20.970242499999998 23.7812195
14.848504499999999 17.8141405 32.7598435
14.8869635 21.0757475 30.057768499999998
20.841150499999998 14.8936435 17.7975095
21.1145975 11.8196415 20.9762055
17.912788499999998 14.911761499999999 20.684175500000002
20.8804125 15.1662495 23.761722499999998
21.0860125 11.9524185 26.723287499999998
18.1191985 14.8273835 26.958042499999998
12.1721015 21.1370495 26.919796499999997
20.7948065 15.1360375 29.9326145
20.8465745 11.7506325 32.8986245
18.1705015 14.8581525 32.869333499999996
15.0365585 17.8086235 26.761621499999997
18.0895525 14.7494705 15.0185335
20.9417605 15.0474915 35.9887535
20.876416499999998 21.1136205 11.859472499999999
20.6581935 17.9880325 15.0520365
18.1370615 20.780700500000002 14.8898695
14.850403499999999 18.131645499999998 20.7886895
14.9941605 21.1336365 18.1906885
20.9706525 21.1311315 18.001115499999997
20.738290499999998 17.7935315 20.8507255
18.0999275 20.8382385 21.0450645
20.9970875 20.8566475 24.0900555
21.0045665 18.0161995 27.0519565
11.968306499999999 27.1533755 20.9179715
12.1855935 20.7922555 14.9060515
15.027986499999999 18.2422815 14.889260499999999
12.014013499999999 20.909761500000002 21.166914499999997
20.875964500000002 12.004982499999999 14.7525705
20.7611435 14.9973345 12.063563499999999
15.0417505 35.6636355 32.6333965
15.2058945 26.8096665 23.7628575
14.8379795 23.991065499999998 27.1302305
14.8934345 26.7190175 18.0026235
11.8552745 26.8638945 27.0147605
14.8540345 27.073434499999998 30.0111055
14.8127895 24.0654905 32.7337495
11.864378499999999 27.0405255 32.8239035
15.157655499999999 27.0351745 35.6711185
15.1141985 32.630568499999995 12.0657575
15.1397865 29.6955615 14.9242715
11.9575075 32.8232555 15.1645225
12.068142499999999 26.6584245 15.1060245
14.8347175 32.7653425 17.8052205
15.1543835 29.877045499999998 21.0458785
11.7591475 32.9619905 20.8732525
15.0350025 24.0982995 14.8170325
15.071422499999999 32.8123155 24.123405499999997
14.9357855 29.7249665 26.6934745
11.9828555 32.685511500000004 26.6647095
14.9013545 33.0423645 29.8242595
14.8555295 26.6953405 12.080764499999999
15.027645499999998 29.9860695 32.6004265
12.061617499999999 32.725457500000005 33.0230895
15.0722125 20.7556865 35.6958335
15.0977415 33.059107499999996 35.7491165
14.8692475 35.9554285 15.1473865
15.0791495 36.0263695 20.7670945
12.111872499999999 20.8234195 32.9888605
14.8147935 35.726682499999995 26.6818455
20.9241875 20.7756835 29.7489195
21.1199345 18.0466685 32.6315965
18.007903499999998 20.8367665 27.0447355
14.867611499999999 14.8099355 24.0474835
20.9620815 30.0653955 20.931655499999998
17.7779195 32.8587515 21.059841499999997
17.822142499999998 20.797976499999997 33.0099525
11.9486355 15.1857595 20.9392495
21.0289585 32.6816635 24.0408385
21.1032565 29.743958499999998 26.8119425
18.0639045 32.9864945 27.0706825
15.1566535 12.083328499999999 21.0151805
14.8381055 14.9490375 18.1531345
21.0708995 32.814479500000004 29.7377245
20.7870995 29.9877035 32.8211455
17.7730515 32.8355275 32.6691955
20.855548499999998 32.7772855 35.6304145
12.0490595 15.155130499999999 15.1779575
20.7185235 35.750249499999995 15.1324235
20.831241499999997 35.6519225 21.0201805
15.2067215 11.8232775 15.0174395
15.2345235 15.1147005 11.9325665
21.0425345 35.6908985 27.0292975
20.911862499999998 35.662383500000004 32.628848500000004
27.0870035 14.9668825 11.9433325
27.0490645 11.7905845 15.0228895
24.0325275 14.8323545 15.1103895
26.7894555 14.8606685 17.8347475
26.7675465 12.1264375 20.7231825
26.9001865 14.8585435 24.0953265
23.8070915 15.1314335 20.7726385
20.748143499999998 32.727493499999994 18.0144425
14.936646499999998 12.030569499999999 26.6496195
14.8211815 23.9000065 20.8470385
21.094548500000002 29.7235475 15.1266715
14.8565545 20.9965425 12.141370499999999
20.9822575 21.1069875 36.0393935
21.0014325 26.6760575 12.0195255
20.9529565 23.9153195 14.744764499999999
17.7912465 26.860670499999998 14.8766885
15.1256775 14.8691345 35.6196585
21.1111255 26.7313665 17.8203775
20.7963645 23.784104499999998 20.7542605
17.8591855 26.7390735 20.7333635
11.8708645 15.1568975 32.7083315
18.0735775 32.7318695 15.170702499999999
21.1501115 26.992275499999998 24.0134715
21.0660915 23.958107499999997 27.0157435
18.154227499999998 27.080996499999998 26.9927055
15.0466695 12.2000005 32.9017965
14.9706745 14.9917695 29.6117325
21.0378305 26.7134625 30.0283005
20.725063499999997 32.8417475 12.0355195
20.9883325 27.057525499999997 36.0023315
20.7846075 24.0978435 32.909567499999994
18.037017499999997 26.9345425 33.0164025
11.7898675 14.903357499999998 26.7179795
29.913953499999998 37.3340235 17.9294185
29.8662565 36.7894445 36.9041605
10.6141635 23.9636495 29.8212445
29.9339945 36.8276645 10.9511615
37.2548015 17.9314205 29.7990055
10.9391645 29.9285065 10.925803499999999
10.9295005 23.975789499999998 36.8321935
37.286049500000004 23.8558955 29.8189975
10.612437499999999 29.8330165 17.9978415
23.959014500000002 23.9825855 10.521832499999999
18.013948499999998 37.3655895 29.8305295
37.2628875 29.9386205 23.9622015
29.8870515 23.9618515 10.4682765
36.8978885 10.9913975 18.0364135
11.0028265 11.036882499999999 23.9421765
17.8926585 29.8918665 10.5338455
10.9066435 36.9091205 17.9303775
23.9879825 29.9130765 37.3392425
36.8312405 11.0163905 23.8569295
36.9454675 10.9447295 29.8568845
23.9054915 37.370071499999995 23.9720555
17.8650035 37.319160499999995 17.9734145
37.2157835 29.9281215 29.9088045
37.2968955 23.8436715 23.991569499999997
17.9312915 10.9470125 11.0422475
17.911378499999998 10.4886815 23.8711495
18.0210085 23.858720499999997 10.598283499999999
29.8356205 17.9056865 10.4980215
29.9109145 37.2591525 23.9701725
11.0322325 10.971418499999999 29.7928245
37.3249515 17.8943375 17.9878675
36.8586635 29.8094165 10.912098499999999
10.6056515 18.0374335 23.9190875
29.9092725 17.9380995 37.2034415
29.8397205 23.8483605 37.2287545
23.9361065 11.062991499999999 11.007185499999999
29.851318499999998 10.6263455 18.0198425
36.9172435 17.9119545 36.874722500000004
37.2200335 29.9172045 17.9305015
29.8196995 11.0182475 11.0257845
17.9304745 29.9385015 37.3287785
23.8629875 29.8858845 10.6300115
23.944241499999997 37.2590915 17.9063595
29.7699735 29.569816499999998 12.313086499999999
35.7177585 23.5524535 11.807209499999999
11.6695535 17.9437145 30.0368635
35.992118500000004 35.361827500000004 30.1842865
35.502731499999996 18.3209315 23.8896905
36.1250215 36.231905499999996 23.9392475
12.023804499999999 24.415946499999997 17.7050995
11.7927175 17.5444035 11.760731499999999
36.120225500000004 35.4554225 17.6728845
35.5161835 18.1063395 11.7166415
36.1712345 29.6912225 35.879968500000004
30.2277025 29.533240499999998 23.8444505
29.4935945 29.7470255 35.9672845
29.6352185 29.7920445 30.2787595
11.761813499999999 17.7022885 35.9344575
11.8301755 11.5213295 17.9422105
30.0045995 29.6061505 18.2873205
11.633457499999999 17.7864295 17.9546435
29.9934225 36.2017975 29.821689499999998
24.2209315 11.9819905 23.6464135
29.7681255 24.3401085 29.5725715
18.2958185 24.2033335 18.3900205
18.331573499999998 24.3590565 23.7536895
23.6017095 23.9053545 36.1929085
18.1231815 23.469989499999997 30.0810195
23.686206499999997 23.375614499999998 29.874702499999998
17.5086335 24.1195915 35.7805735
23.933994499999997 23.5199835 23.5138505
17.694422499999998 29.7153815 17.6813445
17.4498325 30.107363499999998 24.0789045
24.2410715 17.6722015 36.1949665
23.694801499999997 30.0602615 17.6818125
17.5993125 29.4629965 29.8816235
23.8873395 18.5301605 23.9114365
18.3394385 35.7807695 12.236198499999999
18.1831935 36.042325500000004 24.1589765
23.9292875 17.6031335 18.2588795
17.6505205 36.059040499999995 35.4566135
23.642497499999998 18.2772585 11.7861855
23.851104499999998 12.4444035 36.1599965
24.1438075 11.6447255 18.3317205
24.1879565 11.850092499999999 30.1377075
12.1093715 24.3467575 23.7200415
24.117613499999997 18.3641415 30.189794499999998
23.674780499999997 29.6344255 24.1137685
24.1988515 23.8648765 17.7213445
23.7227325 30.1257375 30.1210055
29.4695435 23.5746685 23.650473499999997
29.7055905 24.403253499999998 17.9289485
17.6099565 18.1934115 35.9187625
12.335599499999999 30.2312205 29.5789685
29.5983875 18.2676345 29.6887655
12.4113195 29.5946775 36.1105125
29.6863675 17.6832885 24.302493499999997
11.551266499999999 36.0331785 24.1208405
29.4460965 18.0048335 18.3877295
17.9621645 11.6438385 17.8176565
29.6793975 11.9468645 35.4319285
29.4880845 12.2416375 29.4632695
11.7439415 29.6304585 23.7180545
29.8837305 11.8356435 23.4352425
17.5702055 17.8451455 29.6776185
17.6608625 11.5824765 30.0396675
23.6054205 35.7378605 29.6409925
18.1891285 17.7058975 18.1462595
24.1134245 36.2023595 36.2424585
18.0649035 18.3204945 23.8418055
17.857383499999997 12.076243499999999 36.2905755
17.6906205 18.249989499999998 12.3271465
37.6020865 30.141516499999998 24.939147499999997
35.422777499999995 30.8161505 24.138585499999998
18.8713385 10.1913495 24.4522335
37.7875455 29.6332375 11.4495355
36.5776185 29.061528499999998 10.2527745
36.869091499999996 30.8797295 10.4733965
34.9127225 30.0522725 11.5843285
17.4066015 12.864314499999999 11.719035499999999
37.5939525 30.6136285 23.1645765
18.5708155 10.1534845 11.3231495
18.433677499999998 11.4242645 10.1097295
12.9177585 11.6242495 29.5423635
11.780068499999999 12.764056499999999 29.1822805
36.0210235 30.5628595 12.707115499999999
35.7413375 28.932467499999998 12.5036165
17.9760805 10.243736499999999 22.874837499999998
17.022239499999998 10.2332205 24.397284499999998
17.9460175 12.4042665 24.8328805
17.1500995 12.399167499999999 23.3733345
29.0845095 35.4292765 24.4108265
29.856060499999998 35.4579235 22.9555555
30.7424145 35.4439395 24.3806505
30.756051499999998 37.619739499999994 23.396182500000002
29.9136415 37.6104415 24.985054499999997
17.5353785 11.702503499999999 12.913812499999999
28.9501715 37.608988499999995 23.468466499999998
10.2248415 30.631379499999998 17.316888499999997
10.2422875 28.8964195 17.639363499999998
16.9214075 10.655334499999999 10.8205815
35.4698765 29.6205955 23.016678499999998
10.175751499999999 30.0669625 19.0066105
12.422853499999999 29.120831499999998 18.580056499999998
37.608731500000005 28.8291405 23.621162499999997
12.3930525 30.7608855 18.2570525
12.3597485 29.6727395 17.0291865
18.8086175 12.4058035 23.4231105
18.9285635 12.3452475 12.206906499999999
35.435627499999995 29.210223499999998 24.5588465
37.5976925 23.1897515 24.6532985
17.6239025 30.8109015 37.6340325
35.4359575 24.3036805 29.0304745
37.6267585 24.9787605 29.829690499999998
37.6420745 23.309357499999997 28.996526499999998
37.6034095 23.4685215 30.7692485
11.8112695 35.0344385 17.313463499999997
12.9079535 36.227082499999995 17.7079285
35.4105755 24.442907499999997 30.644585499999998
12.1234685 35.4057825 18.8576245
10.035071499999999 36.4168965 18.2261635
10.877041499999999 37.232997499999996 16.9669185
28.9447075 35.437400499999995 18.1122235
30.244366499999998 35.466519500000004 17.0655225
30.467913499999998 35.4183015 18.7423225
30.9123525 37.6425265 17.8035555
11.266752499999999 37.6003875 18.6534135
29.4439785 37.6502665 18.9032355
35.4261255 22.9449545 29.9631775
10.1902125 22.8463015 29.7159445
35.4627365 22.9611305 23.7115035
37.6456225 23.644191499999998 22.9412795
12.1149335 12.4164625 30.7654735
37.590999499999995 24.9547685 24.1690005
34.8918575 17.635074499999998 36.160039499999996
35.7057565 18.9034495 35.4421385
10.1875425 24.543411499999998 29.005142499999998
36.0564495 17.3096675 35.064603500000004
36.9408255 16.9219465 37.2722325
36.535822499999995 18.651784499999998 37.6804755
12.404828499999999 23.5297965 28.9541155
12.4172985 24.8821685 29.995496499999998
12.4024425 23.3137315 30.6510685
10.2097465 24.2908485 30.8046245
37.7656705 18.3184565 36.3883855
19.0053905 29.6364895 37.6413185
29.2234345 37.6556935 17.1210925
35.9159235 12.705249499999999 24.701967500000002
35.4238705 30.5300865 18.7011435
37.6267675 29.537899499999998 18.9906105
37.5898745 30.8814255 17.7136705
37.6560305 29.1570665 17.179882499999998
23.8099875 35.4290825 17.0448435
24.7805995 35.459821500000004 18.3286895
35.4537365 28.9011095 18.1495675
23.1126695 35.4738165 18.5283195
22.982639499999998 37.6115625 17.5219035
24.7344995 37.6230635 17.3246255
18.6266375 30.584138499999998 35.474915499999994
18.2985405 28.9345105 35.460280499999996
17.0187945 30.0165155 35.4526625
17.309807499999998 29.0615965 37.620388500000004
24.0257175 37.597078499999995 18.9814465
34.8383665 11.6036595 23.9680845
35.458716499999994 30.171183499999998 17.026604499999998
30.5688515 37.6455105 36.5230705
35.8524495 12.547186499999999 23.019892499999997
37.8082985 11.492070499999999 23.802553500000002
36.697391499999995 10.2855945 23.0825315
36.7854705 10.3962605 24.8378545
17.5841065 35.4543135 30.7206805
17.3443825 35.4310035 29.1247955
30.1825115 36.435149499999994 37.7830515
18.9366515 35.409150499999996 29.7451555
18.6201525 37.603984499999996 30.6764995
16.9703765 37.634302500000004 30.0142015
30.8076525 35.4014235 35.741660499999995
29.2338745 35.040781499999994 36.025527499999995
29.563052499999998 36.169661500000004 34.9165105
28.8881775 37.2451495 36.944937499999995
18.3751315 37.6046925 28.9344525
10.0265445 11.4241215 30.2179245
24.4805815 30.6455655 35.4687075
10.8994705 10.5807185 28.8828825
29.7757455 16.9085695 37.5988585
29.0325985 18.5678225 37.6230515
34.9128345 11.5998635 29.9624025
35.9113275 12.676662499999999 30.6798385
35.799578499999996 12.5755325 28.9871815
37.8194485 11.442230499999999 29.8182775
30.7739025 18.4136845 37.5992265
36.6983175 10.309882499999999 29.0326605
11.6451095 12.9291545 24.1036495
12.7534265 11.8146755 24.6482055
12.4614935 12.095423499999999 23.0215055
11.483812499999999 9.9986985 23.7089905
10.2464005 11.2113765 23.172019499999998
10.5071455 10.929530499999998 24.8875295
36.7810285 10.436574499999999 30.8331025
30.639919499999998 17.4107985 35.418589499999996
29.923948499999998 18.9579425 35.4259285
29.0009585 17.585344499999998 35.4312905
12.765611499999999 29.2385075 11.7838205
10.5856625 28.8183225 10.8449355
11.4356125 30.2140445 10.0851945
10.1918435 30.5586035 11.3137785
29.2571995 23.198271499999997 12.3720345
30.8209655 23.7346475 12.3644345
29.5393885 24.8357375 12.4142905
30.5089345 24.7577335 10.1816295
28.8707285 24.070158499999998 10.2275675
30.2236255 22.9793755 10.2216925
24.3698625 29.0100425 35.4563695
22.9775745 29.9439975 35.4694595
23.488690499999997 30.8242835 37.6409905
24.946070499999998 29.8156615 37.6558435
23.340700499999997 29.0388465 37.630086500000004
23.2975305 23.1416555 12.3721705
11.675281499999999 29.5706275 12.913729499999999
24.8453645 23.773407499999998 12.4277795
24.544506499999997 24.7165675 10.178941499999999
22.8494195 10.7233245 10.735533499999999
17.3670775 24.6982045 12.415540499999999
17.613577499999998 22.985448499999997 12.415922499999999
18.9428265 24.0377565 12.381869499999999
18.6415425 23.0797935 10.2170525
18.3627875 24.9095935 10.2395055
24.3888075 11.4047255 10.1106625
16.9367075 23.797780500000002 10.1974945
22.9952035 29.6212805 12.4350525
24.5705915 29.168325499999998 12.422205499999999
23.6558915 28.8468035 10.2304655
24.9261825 30.0999795 10.1744325
23.2103015 30.5727965 10.2235525
35.4272335 24.544773499999998 23.187368499999998
24.141819499999997 30.7882315 12.3712745
24.4636455 10.143134499999999 11.341357499999999
24.8476525 12.2977805 12.223326499999999
23.442113499999998 11.6620095 12.8645655
22.9112595 24.087242500000002 10.175400499999999
24.2672905 22.958906499999998 10.1843335
35.4036605 18.8999615 29.7296425
35.434402500000004 17.3732435 29.0930265
35.4408655 17.6514675 30.7367625
37.6513545 16.9426685 30.0077595
37.6482025 18.6470665 30.6616545
37.5911375 18.3200355 28.8743095
35.4804245 28.9872935 30.2688605
35.4213635 30.6859545 30.4227755
35.4397635 29.9748275 28.8877515
37.6154455 30.8500705 29.4373145
37.5984885 29.031294499999998 29.2928575
37.6466935 29.7984115 30.8964495
23.4360895 12.8392725 11.6855715
23.5365205 24.826887499999998 12.4207325
11.2560595 10.2215965 30.552805499999998
12.3850815 30.794227499999998 12.191734499999999
36.420064499999995 10.0129285 17.676474499999998
23.787622499999998 35.4184035 22.9870785
24.8379765 35.4684215 24.2465585
24.7352715 37.658865500000005 23.271755499999998
24.0575325 37.593723499999996 24.9607025
22.9743445 37.605982499999996 23.532472499999997
18.4596655 30.696945499999998 12.3816125
23.1766725 35.4748685 24.5437505
17.0302755 29.8883175 12.3688305
17.3860355 28.9877985 10.2376945
18.9994865 29.8466815 10.1814555
17.4991645 30.8108885 10.1847055
12.9709135 24.122887499999997 36.2117865
12.095058499999999 22.962117499999998 35.3958605
11.7837705 24.609190499999997 35.0991715
18.4215965 29.0060795 12.4186385
17.4743475 37.6014625 17.0424465
17.388402499999998 37.6582875 18.8623515
19.0284585 37.6282365 17.9946495
12.3723295 18.5990635 23.2180405
12.4030735 18.3083495 24.7910685
12.3954975 16.9925545 23.7250255
10.2271185 17.2693665 24.6849325
10.1754585 17.6512065 22.9178495
10.2371415 18.9829385 24.0841115
28.9381275 35.4764535 12.156708499999999
30.4921835 35.0441315 11.7741645
30.197902499999998 36.1535605 12.8920155
30.9226085 37.2023395 10.8360915
29.2280275 37.656229499999995 11.3369355
29.4603115 36.395317500000004 10.063613499999999
17.0167725 35.412946500000004 17.9281335
18.4709865 35.4145725 17.1896055
18.4056125 35.466080500000004 18.8358635
9.9880855 23.642892500000002 36.4023135
37.2142855 10.9042655 18.982366499999998
10.934189499999999 24.9028845 37.3271795
29.9773215 11.6299145 12.990857499999999
35.4572325 17.2031185 18.4817545
37.6104005 17.0372715 17.5509215
37.5975705 18.023303499999997 18.9970775
37.6022445 18.8486905 17.3709055
30.7681505 12.356897499999999 17.6905585
29.191726499999998 12.354958499999999 17.2824955
35.465785499999996 17.9284385 17.0325515
29.6030925 12.3807855 18.9278585
30.6292555 10.2281675 18.7039775
30.1104505 10.2290765 16.9891455
35.0332595 11.7983545 18.6394815
36.183299500000004 12.916876499999999 18.2759445
35.3630405 12.1385995 17.0251415
37.6338225 11.2372575 17.2603255
28.8957345 10.2244085 18.2179335
35.4319255 18.8225365 18.3417055
29.4484705 22.9245965 37.633045499999994
30.9161045 24.0873575 37.6417285
30.6388885 12.6883705 11.8448975
28.9599925 12.5730005 11.996036499999999
29.7156355 11.4731705 10.0037585
29.0252375 10.2685295 11.2002495
30.7953545 10.4229845 11.0004935
30.4513355 18.676367499999998 12.3740165
28.9437675 18.0762835 12.3771545
30.1974375 17.1075025 12.375171499999999
29.233265499999998 17.1189935 10.1869765
30.8554065 17.8100705 10.2112825
29.5079335 18.9606355 10.2298235
30.444287499999998 23.1439205 35.4718355
28.8858995 23.8158475 35.444205499999995
30.2533355 24.7709865 35.4396155
29.2559845 24.7481985 37.6130065
11.2465645 23.1954635 37.6339565
35.4581015 24.2156125 24.837635499999998
35.745487499999996 11.9742005 23.9312975
17.9966515 11.966058499999999 11.953203499999999
18.0549865 29.8853445 11.9731905
29.8080525 23.8601355 35.8252945
23.8238055 29.8407895 35.770469500000004
29.8142675 18.048091499999998 35.7803225
29.8116145 12.019615499999999 12.085364499999999
23.9506585 35.7653465 18.0027295
18.0260115 35.7458435 29.8882135
35.7618125 17.9714625 17.9005655
35.7163305 29.8583715 12.0369905
12.0642085 29.9277035 18.0245385
11.9495355 23.9945995 35.8347945
29.8605715 11.962389499999999 17.9047715
12.0407425 29.9149925 12.0658905
29.8211995 35.8748255 35.8577145
35.8098545 29.9529205 17.9273465
35.7927675 12.0968515 17.9394505
29.823448499999998 18.0225195 12.091388499999999
29.8403485 23.8151895 12.0065105
35.8421635 23.8494265 29.7939865
12.0503985 23.9761995 29.8919385
11.9322065 12.0038045 29.8134175
23.8639755 29.9337375 11.9965315
35.8437705 23.9379325 23.8537795
18.0057315 23.8462075 12.033101499999999
18.0454025 12.0112825 23.8725825
12.0283575 17.9099045 23.9701285
35.888608500000004 17.9560225 35.8014535
23.9017175 11.948753499999999 12.043433499999999
35.7900985 29.7776885 29.8541805
29.9051155 35.7666605 23.852275499999998
29.9274815 35.8556895 12.0571535
35.7360975 17.9241985 29.8535745
23.953922499999997 23.8546835 12.028060499999999
17.9302575 35.7775675 18.0383505
35.812653499999996 29.7954755 23.9840925
17.999629499999998 29.9188995 35.7575815
23.9127845 35.7660025 23.8640305
29.9373465 35.887412499999996 17.9361385
12.047703499999999 35.8934085 17.9382745
35.7645415 11.983110499999999 29.8083465
12.0449485 12.0137855 23.9977095
15.0433775 15.2318515 15.060442499999999
21.0425705 21.1325865 20.7073455
32.5439455 14.9934075 14.8823855
20.6869275 20.8598395 15.1896895
33.1700735 15.0527225 20.9964715
32.9974625 15.1400265 27.0537705
20.7896285 14.9532335 32.6133915
33.0697265 14.757040499999999 32.825472500000004
21.1323515 15.1628015 26.9276675
20.6836305 14.9443515 20.960393500000002
32.6447345 20.893438500000002 14.764711499999999
21.0574345 15.143618499999999 14.872356499999999
32.732592499999996 20.8121685 21.1591065
33.0277785 21.0157285 27.1655275
32.631362499999994 20.9026615 33.045156500000004
15.1801005 32.8815695 32.7031635
15.2356415 32.7192625 26.9491305
33.0443445 27.1209295 15.133229499999999
15.032356499999999 32.672783499999994 20.7342685
32.6843525 27.1682555 20.7892785
14.823195499999999 32.7651085 14.8265655
32.7147955 26.7914045 27.045671499999997
20.6898655 20.9136315 26.8644695
14.7193445 27.0678955 32.8420335
27.0925995 32.7227115 32.9503815
27.076120500000002 33.0179305 27.0494675
27.0571785 15.160518499999998 32.6403325
27.0841125 15.1341355 20.8734325
27.1083895 20.8659575 14.7587315
26.9686405 14.7566565 15.0995815
27.1169245 21.0729995 20.8927975
26.6515395 21.0283105 26.9649325
21.1710325 32.9736105 33.0845845
27.0155705 21.0170215 32.6558785
20.876617500000002 33.0882285 26.8125565
27.0427665 27.1440355 15.1995155
20.6644035 33.0606765 21.031183499999997
26.7117415 27.0536655 20.9811995
20.9601015 32.7081175 14.7923675
26.966651499999998 26.9551025 26.5837145
20.7187225 26.6681785 32.8607245
26.8684585 26.604529499999998 32.9530835
20.7091535 27.024786499999998 26.773787499999997
27.112077499999998 32.625831500000004 15.185537499999999
20.8887735 26.6097775 21.0997435
26.717017499999997 32.999602499999995 21.199537499999998
20.7558285 27.0244895 14.7975235
21.2334055 20.820057499999997 32.749602499999995
32.7910695 26.7431865 32.5726305
26.825919499999998 15.2098225 26.7911735
14.7154425 21.149168500000002 26.9139645
32.9466995 32.7031395 26.6828225
32.7769035 33.022364499999995 33.0691275
14.8132215 14.8814865 20.849838499999997
14.7810455 26.8803355 21.1005875
15.105043499999999 27.0074865 15.231270499999999
14.7354235 14.977857499999999 26.788321500000002
33.055248500000005 32.9751545 15.131171499999999
14.8380075 20.8644495 14.8215025
15.025893499999999 21.1876535 32.7865685
14.8998715 14.7379515 32.6162805
15.0873695 26.593331499999998 26.9082135
14.7671575 20.7157655 20.8306015
32.8100415 33.1081685 20.8059685
