3_train/193_cspbbr3_MA-BS_3_0.20\193_cspbbr3_MA-BS_3_0.20.xyz
1.0
45.126988 0 0
0 45.126988 0
0 0 45.126988
Br C Cs H N O Pb S 
96 82 44 120 10 36 27 12 
Cartesian
16.613493999999996 13.638493999999998 16.613493999999996
13.638493999999998 16.613493999999996 16.613493999999996
16.613493999999996 16.613493999999996 19.588493999999997
16.613493999999996 13.638493999999998 22.563494
16.613493999999996 16.613493999999996 25.538493999999996
16.613493999999996 13.638493999999998 28.513493999999998
13.638493999999998 16.613493999999996 28.513493999999998
16.613493999999996 16.613493999999996 31.488494
16.613493999999996 19.588493999999997 16.613493999999996
13.638493999999998 22.563494 16.613493999999996
16.613493999999996 22.563494 19.588493999999997
16.613493999999996 19.588493999999997 22.563494
13.638493999999998 22.563494 22.563494
16.613493999999996 22.563494 25.538493999999996
16.613493999999996 19.588493999999997 28.513493999999998
16.613493999999996 22.563494 31.488494
16.613493999999996 28.513493999999998 13.638493999999998
16.613493999999996 25.538493999999996 16.613493999999996
13.638493999999998 28.513493999999998 16.613493999999996
16.613493999999996 28.513493999999998 19.588493999999997
16.613493999999996 25.538493999999996 22.563494
13.638493999999998 28.513493999999998 22.563494
16.613493999999996 28.513493999999998 25.538493999999996
16.613493999999996 25.538493999999996 28.513493999999998
13.638493999999998 28.513493999999998 28.513493999999998
16.613493999999996 28.513493999999998 31.488494
16.613493999999996 31.488494 16.613493999999996
16.613493999999996 31.488494 28.513493999999998
22.563494 16.613493999999996 13.638493999999998
22.563494 13.638493999999998 16.613493999999996
19.588493999999997 16.613493999999996 16.613493999999996
22.563494 16.613493999999996 19.588493999999997
22.563494 13.638493999999998 22.563494
19.588493999999997 16.613493999999996 22.563494
22.563494 16.613493999999996 25.538493999999996
22.563494 13.638493999999998 28.513493999999998
19.588493999999997 16.613493999999996 28.513493999999998
22.563494 22.563494 13.638493999999998
22.563494 19.588493999999997 16.613493999999996
19.588493999999997 22.563494 16.613493999999996
22.563494 22.563494 19.588493999999997
22.563494 19.588493999999997 22.563494
19.588493999999997 22.563494 22.563494
22.563494 22.563494 25.538493999999996
22.563494 19.588493999999997 28.513493999999998
19.588493999999997 22.563494 28.513493999999998
22.563494 22.563494 31.488494
22.563494 28.513493999999998 13.638493999999998
22.563494 25.538493999999996 16.613493999999996
19.588493999999997 28.513493999999998 16.613493999999996
22.563494 28.513493999999998 19.588493999999997
22.563494 25.538493999999996 22.563494
19.588493999999997 28.513493999999998 22.563494
22.563494 28.513493999999998 25.538493999999996
22.563494 25.538493999999996 28.513493999999998
19.588493999999997 28.513493999999998 28.513493999999998
22.563494 28.513493999999998 31.488494
22.563494 31.488494 22.563494
22.563494 31.488494 28.513493999999998
28.513493999999998 16.613493999999996 13.638493999999998
25.538493999999996 16.613493999999996 16.613493999999996
28.513493999999998 16.613493999999996 19.588493999999997
28.513493999999998 13.638493999999998 22.563494
25.538493999999996 16.613493999999996 22.563494
28.513493999999998 16.613493999999996 25.538493999999996
25.538493999999996 16.613493999999996 28.513493999999998
28.513493999999998 16.613493999999996 31.488494
28.513493999999998 22.563494 13.638493999999998
28.513493999999998 19.588493999999997 16.613493999999996
25.538493999999996 22.563494 16.613493999999996
28.513493999999998 22.563494 19.588493999999997
28.513493999999998 19.588493999999997 22.563494
25.538493999999996 22.563494 22.563494
28.513493999999998 22.563494 25.538493999999996
28.513493999999998 19.588493999999997 28.513493999999998
25.538493999999996 22.563494 28.513493999999998
28.513493999999998 28.513493999999998 13.638493999999998
28.513493999999998 25.538493999999996 16.613493999999996
25.538493999999996 28.513493999999998 16.613493999999996
28.513493999999998 28.513493999999998 19.588493999999997
28.513493999999998 25.538493999999996 22.563494
25.538493999999996 28.513493999999998 22.563494
28.513493999999998 28.513493999999998 25.538493999999996
28.513493999999998 25.538493999999996 28.513493999999998
25.538493999999996 28.513493999999998 28.513493999999998
28.513493999999998 28.513493999999998 31.488494
28.513493999999998 31.488494 16.613493999999996
28.513493999999998 31.488494 22.563494
28.513493999999998 31.488494 28.513493999999998
31.488494 16.613493999999996 22.563494
31.488494 22.563494 16.613493999999996
31.488494 22.563494 22.563494
31.488494 22.563494 28.513493999999998
31.488494 28.513493999999998 16.613493999999996
31.488494 28.513493999999998 22.563494
31.488494 28.513493999999998 28.513493999999998
22.343667999999997 16.573221999999998 35.841060999999996
22.563494 16.613493999999996 34.465135
22.982644999999998 15.446963999999998 33.814156
22.965501 14.226429999999997 35.888305
22.541471999999995 15.383828999999999 36.55090799999999
23.189204999999998 14.250686999999997 34.51403499999999
28.293668 22.523222 35.841060999999996
28.513493999999998 22.563494 34.465135
28.932644999999997 21.396963999999997 33.814156
28.915500999999995 20.176429999999996 35.888305
28.491471999999998 21.333828999999998 36.55090799999999
29.139205 20.200687 34.51403499999999
16.833319999999997 16.573221999999998 9.285926999999997
16.613493999999996 16.613493999999996 10.661852999999997
16.194342999999996 15.446963999999998 11.312831999999998
16.211486999999998 14.226429999999997 9.238682999999998
16.635515999999996 15.383828999999999 8.576079999999997
15.987782999999999 14.250686999999997 10.612952999999997
16.833319999999997 22.523222 9.285926999999997
16.613493999999996 22.563494 10.661852999999997
16.194342999999996 21.396963999999997 11.312831999999998
16.211486999999998 20.176429999999996 9.238682999999998
16.635515999999996 21.333828999999998 8.576079999999997
15.987782999999999 20.200687 10.612952999999997
9.285926999999997 22.523222 28.293668
10.661852999999997 22.563494 28.513493999999998
11.312831999999998 21.396963999999997 28.932644999999997
9.238682999999998 20.176429999999996 28.915500999999995
8.576079999999997 21.333828999999998 28.491471999999998
10.612952999999997 20.200687 29.139205
9.285926999999997 16.573221999999998 22.343667999999997
10.661852999999997 16.613493999999996 22.563494
11.312831999999998 15.446963999999998 22.982644999999998
9.238682999999998 14.226429999999997 22.965501
8.576079999999997 15.383828999999999 22.541471999999995
10.612952999999997 14.250686999999997 23.189204999999998
35.841060999999996 16.573221999999998 16.833319999999997
34.465135 16.613493999999996 16.613493999999996
33.814156 15.446963999999998 16.194342999999996
35.888305 14.226429999999997 16.211486999999998
36.55090799999999 15.383828999999999 16.635515999999996
34.51403499999999 14.250686999999997 15.987782999999999
35.841060999999996 16.573221999999998 28.733319999999996
34.465135 16.613493999999996 28.513493999999998
33.814156 15.446963999999998 28.094343
35.888305 14.226429999999997 28.111487
36.55090799999999 15.383828999999999 28.535515999999998
34.51403499999999 14.250686999999997 27.887782999999995
28.293668 9.285926999999997 28.473221999999996
28.513493999999998 10.661852999999997 28.513493999999998
28.932644999999997 11.312831999999998 27.346963999999996
28.915500999999995 9.238682999999998 26.126429999999996
28.491471999999998 8.576079999999997 27.283828999999997
29.139205 10.612952999999997 26.150686999999998
28.293668 9.285926999999997 16.573221999999998
28.513493999999998 10.661852999999997 16.613493999999996
28.932644999999997 11.312831999999998 15.446963999999998
28.915500999999995 9.238682999999998 14.226429999999997
28.491471999999998 8.576079999999997 15.383828999999999
29.139205 10.612952999999997 14.250686999999997
16.393667999999998 35.841060999999996 22.603765999999997
16.613493999999996 34.465135 22.563494
17.032645 33.814156 23.730023999999997
17.015500999999997 35.888305 24.950557999999997
16.591471999999996 36.55090799999999 23.793159
17.239205 34.51403499999999 24.926301
22.343667999999997 35.841060999999996 16.653765999999997
22.563494 34.465135 16.613493999999996
22.982644999999998 33.814156 17.780023999999997
22.965501 35.888305 19.000557999999998
22.541471999999995 36.55090799999999 17.843159
23.189204999999998 34.51403499999999 18.976301
12.595043999999998 12.595043999999998 25.538493999999996
12.595043999999998 19.588493999999997 32.531943999999996
19.588493999999997 32.964155 25.538493999999996
25.538493999999996 12.595043999999998 32.531943999999996
25.538493999999996 32.964155 19.588493999999997
32.531943999999996 12.595043999999998 25.538493999999996
32.531943999999996 19.588493999999997 32.531943999999996
25.538493999999996 12.162833 25.538493999999996
25.538493999999996 32.531943999999996 12.595043999999998
12.595043999999998 25.538493999999996 32.531943999999996
13.638493999999998 13.638493999999998 19.588493999999997
13.638493999999998 19.588493999999997 19.588493999999997
13.638493999999998 19.588493999999997 25.538493999999996
13.638493999999998 25.538493999999996 13.638493999999998
13.638493999999998 25.538493999999996 19.588493999999997
13.638493999999998 25.538493999999996 25.538493999999996
13.638493999999998 31.488494 19.588493999999997
13.638493999999998 31.488494 25.538493999999996
19.588493999999997 13.638493999999998 13.638493999999998
19.588493999999997 13.638493999999998 19.588493999999997
19.588493999999997 13.638493999999998 25.538493999999996
19.588493999999997 13.638493999999998 31.488494
19.588493999999997 19.588493999999997 13.638493999999998
19.588493999999997 19.588493999999997 19.588493999999997
19.588493999999997 19.588493999999997 25.538493999999996
19.588493999999997 19.588493999999997 31.488494
19.588493999999997 25.538493999999996 13.638493999999998
19.588493999999997 25.538493999999996 19.588493999999997
19.588493999999997 25.538493999999996 25.538493999999996
19.588493999999997 25.538493999999996 31.488494
19.588493999999997 31.488494 13.638493999999998
19.588493999999997 31.488494 19.588493999999997
25.538493999999996 13.638493999999998 13.638493999999998
25.538493999999996 13.638493999999998 19.588493999999997
25.538493999999996 19.588493999999997 13.638493999999998
25.538493999999996 19.588493999999997 19.588493999999997
25.538493999999996 19.588493999999997 25.538493999999996
25.538493999999996 19.588493999999997 31.488494
25.538493999999996 25.538493999999996 13.638493999999998
25.538493999999996 25.538493999999996 19.588493999999997
25.538493999999996 25.538493999999996 25.538493999999996
25.538493999999996 25.538493999999996 31.488494
25.538493999999996 31.488494 25.538493999999996
25.538493999999996 31.488494 31.488494
31.488494 13.638493999999998 19.588493999999997
31.488494 19.588493999999997 13.638493999999998
31.488494 19.588493999999997 19.588493999999997
31.488494 19.588493999999997 25.538493999999996
31.488494 25.538493999999996 13.638493999999998
31.488494 25.538493999999996 19.588493999999997
31.488494 25.538493999999996 25.538493999999996
31.488494 25.538493999999996 31.488494
31.488494 31.488494 19.588493999999997
31.488494 31.488494 25.538493999999996
23.119331 13.300926999999998 36.444435
22.360402999999998 15.357725999999998 37.626988
22.010382999999997 17.472251 36.361108
22.402234999999997 17.528447 33.893596
23.512435999999997 13.356574999999998 33.979346
29.069331 19.250926999999997 36.444435
28.310402999999997 21.307726 37.626988
27.960382999999997 23.422251 36.361108
28.352234999999997 23.478447 33.893596
29.462436 19.306575 33.979346
16.057657 13.300926999999998 8.682552999999999
16.816584999999996 15.357725999999998 7.499999999999998
17.166604999999997 17.472251 8.76588
16.774752999999997 17.528447 11.233391999999998
15.664551999999997 13.356574999999998 11.147641999999998
16.057657 19.250926999999997 8.682552999999999
16.816584999999996 21.307726 7.499999999999998
17.166604999999997 23.422251 8.76588
16.774752999999997 23.478447 11.233391999999998
15.664551999999997 19.306575 11.147641999999998
8.682552999999999 19.250926999999997 29.069331
7.499999999999998 21.307726 28.310402999999997
8.76588 23.422251 27.960382999999997
11.233391999999998 23.478447 28.352234999999997
11.147641999999998 19.306575 29.462436
8.682552999999999 13.300926999999998 23.119331
7.499999999999998 15.357725999999998 22.360402999999998
8.76588 17.472251 22.010382999999997
11.233391999999998 17.528447 22.402234999999997
11.147641999999998 13.356574999999998 23.512435999999997
36.444435 13.300926999999998 16.057657
37.626988 15.357725999999998 16.816584999999996
36.361108 17.472251 17.166604999999997
33.893596 17.528447 16.774752999999997
33.979346 13.356574999999998 15.664551999999997
36.444435 13.300926999999998 27.957656999999998
37.626988 15.357725999999998 28.716585
36.361108 17.472251 29.066605
33.893596 17.528447 28.674753
33.979346 13.356574999999998 27.564551999999996
29.069331 8.682552999999999 25.200926999999997
28.310402999999997 7.499999999999998 27.257725999999998
27.960382999999997 8.76588 29.372251
28.352234999999997 11.233391999999998 29.428447
29.462436 11.147641999999998 25.256574999999998
29.069331 8.682552999999999 13.300926999999998
28.310402999999997 7.499999999999998 15.357725999999998
27.960382999999997 8.76588 17.472251
28.352234999999997 11.233391999999998 17.528447
29.462436 11.147641999999998 13.356574999999998
17.169331 36.444435 25.876060999999996
16.410403 37.626988 23.819262
16.060382999999998 36.361108 21.704736999999998
16.452234999999998 33.893596 21.648540999999998
17.562435999999998 33.979346 25.820413
23.119331 36.444435 19.926060999999997
22.360402999999998 37.626988 17.869262
22.010382999999997 36.361108 15.754736999999999
22.402234999999997 33.893596 15.698540999999999
23.512435999999997 33.979346 19.870413
12.451029999999998 12.266822999999999 26.569589999999998
11.681459999999998 13.036392999999997 25.135749999999998
12.944288999999998 11.773563999999997 24.910142999999998
13.818593999999997 13.988359999999998 24.588230999999997
14.527832999999998 13.279119999999999 25.909665
13.364002999999997 14.442949999999998 26.117586
13.046164999999998 19.220349 33.455299999999994
12.240748999999997 20.614258999999997 32.649884
11.789864999999999 18.930873999999996 32.199
13.270113999999998 19.927777999999996 30.590148999999997
14.012389999999998 18.643144 31.332424
14.427925999999998 20.19456 31.747960999999997
19.370881999999998 33.298075999999995 26.554746999999995
20.577401 33.298075999999995 25.218825999999996
18.817199 33.298075999999995 24.84191
19.789046 31.113751999999998 24.60191
18.677111999999997 31.113751999999998 25.833102
20.299322999999998 31.113751999999998 26.180469
26.574100999999995 12.297107999999998 32.706243
25.096403 13.024012999999998 33.433148
24.944977999999995 11.755658999999998 32.164794
24.584073 13.960448999999997 31.280483999999998
25.945928 13.290529999999997 30.610563999999997
26.085480999999998 14.459451999999997 31.779486
24.516885999999996 33.298075999999995 19.779393
26.214620999999998 33.298075999999995 20.377782999999997
25.883974 33.298075999999995 18.608306
26.480012999999996 31.113751999999998 19.41256
24.915370999999997 31.113751999999998 18.861081999999996
25.220097999999997 31.113751999999998 20.491839999999996
33.33430799999999 12.925172999999997 24.876032
32.890612 12.481476999999998 26.563231999999996
32.079265 11.670129999999997 25.176218
30.701655999999996 13.381620999999999 26.149022
31.110568999999998 13.790533999999997 24.594089999999998
31.858309 14.538274999999999 25.87237
32.427447 18.667576999999998 33.108676
33.502313 19.631787 32.03381
32.374425 20.466117999999998 33.161699
31.537422999999997 20.437216 30.909599999999998
30.546820999999998 19.548595 31.900201
31.586288999999997 18.779670999999997 30.860732999999996
24.508702999999997 11.828911999999999 25.398296
26.174803999999998 11.828911999999999 24.716768
25.931974 11.828911999999999 26.500418
26.487554999999997 14.013236 25.667702
24.952066999999996 14.013236 26.295800999999997
25.175860999999998 14.013236 24.65198
24.538828 32.969049 12.559913999999997
26.284485999999998 33.279736 12.870600999999997
25.792168 32.0554 11.646263999999999
26.459791999999997 31.038279999999997 13.718244999999998
24.850984 30.751949999999997 13.431914999999998
25.304706999999997 31.880304 14.560269999999997
12.792178999999997 24.699023999999998 33.201313999999996
12.656367999999997 26.488852999999995 33.065504
11.628231999999997 25.427604999999996 32.037366999999996
13.504188999999997 26.312153999999996 30.824222999999996
13.629352999999998 24.662637999999998 30.949386999999998
14.576887999999999 25.640689999999996 31.896922999999997
13.638493999999998 13.638493999999998 25.538493999999996
13.638493999999998 19.588493999999997 31.488494
19.588493999999997 31.488494 25.538493999999996
25.538493999999996 13.638493999999998 31.488494
25.538493999999996 31.488494 19.588493999999997
31.488494 13.638493999999998 25.538493999999996
31.488494 19.588493999999997 31.488494
25.538493999999996 13.638493999999998 25.538493999999996
25.538493999999996 31.488494 13.638493999999998
13.638493999999998 25.538493999999996 31.488494
22.563494 16.613493999999996 31.488494
22.910422999999998 14.185341999999999 31.515456999999998
24.746619 15.757552999999998 31.885531999999998
28.513493999999998 22.563494 31.488494
28.860422999999997 20.135341999999998 31.515456999999998
30.696619 21.707552999999997 31.885531999999998
16.613493999999996 16.613493999999996 13.638493999999998
16.266565 14.185341999999999 13.611530999999998
14.430368999999997 15.757552999999998 13.241455999999998
16.613493999999996 22.563494 13.638493999999998
16.266565 20.135341999999998 13.611530999999998
14.430368999999997 21.707552999999997 13.241455999999998
13.638493999999998 22.563494 28.513493999999998
13.611530999999998 20.135341999999998 28.860422999999997
13.241455999999998 21.707552999999997 30.696619
13.638493999999998 16.613493999999996 22.563494
13.611530999999998 14.185341999999999 22.910422999999998
13.241455999999998 15.757552999999998 24.746619
31.488494 16.613493999999996 16.613493999999996
31.515456999999998 14.185341999999999 16.266565
31.885531999999998 15.757552999999998 14.430368999999997
31.488494 16.613493999999996 28.513493999999998
31.515456999999998 14.185341999999999 28.166565
31.885531999999998 15.757552999999998 26.330368999999997
28.513493999999998 13.638493999999998 28.513493999999998
28.860422999999997 13.611530999999998 26.085341999999997
30.696619 13.241455999999998 27.657552999999997
28.513493999999998 13.638493999999998 16.613493999999996
28.860422999999997 13.611530999999998 14.185341999999999
30.696619 13.241455999999998 15.757552999999998
16.613493999999996 31.488494 22.563494
16.960423 31.515456999999998 24.991646
18.796619 31.885531999999998 23.419434999999996
22.563494 31.488494 16.613493999999996
22.910422999999998 31.515456999999998 19.041646
24.746619 31.885531999999998 17.469434999999997
16.613493999999996 16.613493999999996 16.613493999999996
16.613493999999996 16.613493999999996 22.563494
16.613493999999996 16.613493999999996 28.513493999999998
16.613493999999996 22.563494 16.613493999999996
16.613493999999996 22.563494 22.563494
16.613493999999996 22.563494 28.513493999999998
16.613493999999996 28.513493999999998 16.613493999999996
16.613493999999996 28.513493999999998 22.563494
16.613493999999996 28.513493999999998 28.513493999999998
22.563494 16.613493999999996 16.613493999999996
22.563494 16.613493999999996 22.563494
22.563494 16.613493999999996 28.513493999999998
22.563494 22.563494 16.613493999999996
22.563494 22.563494 22.563494
22.563494 22.563494 28.513493999999998
22.563494 28.513493999999998 16.613493999999996
22.563494 28.513493999999998 22.563494
22.563494 28.513493999999998 28.513493999999998
28.513493999999998 16.613493999999996 16.613493999999996
28.513493999999998 16.613493999999996 22.563494
28.513493999999998 16.613493999999996 28.513493999999998
28.513493999999998 22.563494 16.613493999999996
28.513493999999998 22.563494 22.563494
28.513493999999998 22.563494 28.513493999999998
28.513493999999998 28.513493999999998 16.613493999999996
28.513493999999998 28.513493999999998 22.563494
28.513493999999998 28.513493999999998 28.513493999999998
23.306041999999998 15.477116999999998 32.06693
29.256041999999997 21.427117 32.06693
15.870945999999998 15.477116999999998 13.060057999999998
15.870945999999998 21.427117 13.060057999999998
13.060057999999998 21.427117 29.256041999999997
13.060057999999998 15.477116999999998 23.306041999999998
32.06693 15.477116999999998 15.870945999999998
32.06693 15.477116999999998 27.770946
29.256041999999997 13.060057999999998 27.377117
29.256041999999997 13.060057999999998 15.477116999999998
17.356042 32.06693 23.699870999999998
23.306041999999998 32.06693 17.749871
