3_train/253_cspbbr3_MA-PhS_4_0.20\253_cspbbr3_MA-PhS_4_0.20.xyz
1.0
50.045282 0 0
0 50.045282 0
0 0 50.045282
Br C Cs H N Pb S 
216 161 95 222 17 64 24 
Cartesian
16.097641 16.097641 13.122641
13.122641 16.097641 16.097641
16.097641 16.097641 19.072640999999997
16.097641 13.122641 22.047641
16.097641 16.097641 25.022641
16.097641 13.122641 27.997641
13.122641 16.097641 27.997641
16.097641 16.097641 30.972641000000003
13.122641 16.097641 33.947641
16.097641 16.097641 36.922641
16.097641 22.047641 13.122641
16.097641 19.072640999999997 16.097641
13.122641 22.047641 16.097641
16.097641 22.047641 19.072640999999997
16.097641 19.072640999999997 22.047641
13.122641 22.047641 22.047641
16.097641 22.047641 25.022641
16.097641 19.072640999999997 27.997641
13.122641 22.047641 27.997641
16.097641 22.047641 30.972641000000003
16.097641 19.072640999999997 33.947641
16.097641 22.047641 36.922641
16.097641 27.997641 13.122641
16.097641 25.022641 16.097641
13.122641 27.997641 16.097641
16.097641 27.997641 19.072640999999997
16.097641 25.022641 22.047641
13.122641 27.997641 22.047641
16.097641 27.997641 25.022641
16.097641 25.022641 27.997641
16.097641 27.997641 30.972641000000003
16.097641 25.022641 33.947641
16.097641 33.947641 13.122641
16.097641 30.972641000000003 16.097641
13.122641 33.947641 16.097641
16.097641 33.947641 19.072640999999997
16.097641 30.972641000000003 22.047641
13.122641 33.947641 22.047641
16.097641 33.947641 25.022641
16.097641 30.972641000000003 27.997641
13.122641 33.947641 27.997641
16.097641 33.947641 30.972641000000003
16.097641 30.972641000000003 33.947641
13.122641 33.947641 33.947641
16.097641 33.947641 36.922641
16.097641 36.922641 16.097641
16.097641 36.922641 22.047641
16.097641 36.922641 27.997641
22.047641 16.097641 13.122641
22.047641 13.122641 16.097641
19.072640999999997 16.097641 16.097641
22.047641 16.097641 19.072640999999997
19.072640999999997 16.097641 22.047641
22.047641 16.097641 25.022641
22.047641 13.122641 27.997641
19.072640999999997 16.097641 27.997641
22.047641 16.097641 30.972641000000003
22.047641 13.122641 33.947641
19.072640999999997 16.097641 33.947641
22.047641 16.097641 36.922641
22.047641 22.047641 13.122641
22.047641 19.072640999999997 16.097641
19.072640999999997 22.047641 16.097641
22.047641 22.047641 19.072640999999997
22.047641 19.072640999999997 22.047641
19.072640999999997 22.047641 22.047641
22.047641 22.047641 25.022641
22.047641 19.072640999999997 27.997641
19.072640999999997 22.047641 27.997641
22.047641 22.047641 30.972641000000003
22.047641 19.072640999999997 33.947641
19.072640999999997 22.047641 33.947641
22.047641 22.047641 36.922641
22.047641 27.997641 13.122641
22.047641 25.022641 16.097641
19.072640999999997 27.997641 16.097641
22.047641 27.997641 19.072640999999997
22.047641 25.022641 22.047641
19.072640999999997 27.997641 22.047641
22.047641 27.997641 25.022641
22.047641 25.022641 27.997641
19.072640999999997 27.997641 27.997641
22.047641 27.997641 30.972641000000003
22.047641 25.022641 33.947641
19.072640999999997 27.997641 33.947641
22.047641 27.997641 36.922641
22.047641 33.947641 13.122641
22.047641 30.972641000000003 16.097641
19.072640999999997 33.947641 16.097641
22.047641 33.947641 19.072640999999997
22.047641 30.972641000000003 22.047641
19.072640999999997 33.947641 22.047641
22.047641 33.947641 25.022641
22.047641 30.972641000000003 27.997641
19.072640999999997 33.947641 27.997641
22.047641 33.947641 30.972641000000003
22.047641 30.972641000000003 33.947641
19.072640999999997 33.947641 33.947641
22.047641 36.922641 16.097641
22.047641 36.922641 22.047641
22.047641 36.922641 27.997641
22.047641 36.922641 33.947641
27.997641 16.097641 13.122641
27.997641 13.122641 16.097641
25.022641 16.097641 16.097641
27.997641 16.097641 19.072640999999997
27.997641 13.122641 22.047641
25.022641 16.097641 22.047641
27.997641 16.097641 25.022641
27.997641 13.122641 27.997641
25.022641 16.097641 27.997641
27.997641 16.097641 30.972641000000003
27.997641 13.122641 33.947641
25.022641 16.097641 33.947641
27.997641 22.047641 13.122641
27.997641 19.072640999999997 16.097641
25.022641 22.047641 16.097641
27.997641 22.047641 19.072640999999997
27.997641 19.072640999999997 22.047641
25.022641 22.047641 22.047641
27.997641 22.047641 25.022641
27.997641 19.072640999999997 27.997641
25.022641 22.047641 27.997641
27.997641 22.047641 30.972641000000003
27.997641 19.072640999999997 33.947641
25.022641 22.047641 33.947641
27.997641 22.047641 36.922641
27.997641 25.022641 16.097641
25.022641 27.997641 16.097641
27.997641 27.997641 19.072640999999997
27.997641 25.022641 22.047641
25.022641 27.997641 22.047641
27.997641 27.997641 25.022641
27.997641 25.022641 27.997641
25.022641 27.997641 27.997641
27.997641 27.997641 30.972641000000003
27.997641 25.022641 33.947641
25.022641 27.997641 33.947641
27.997641 27.997641 36.922641
27.997641 30.972641000000003 16.097641
25.022641 33.947641 16.097641
27.997641 33.947641 19.072640999999997
27.997641 30.972641000000003 22.047641
25.022641 33.947641 22.047641
27.997641 33.947641 25.022641
27.997641 30.972641000000003 27.997641
25.022641 33.947641 27.997641
27.997641 33.947641 30.972641000000003
27.997641 30.972641000000003 33.947641
25.022641 33.947641 33.947641
27.997641 33.947641 36.922641
27.997641 36.922641 22.047641
27.997641 36.922641 27.997641
27.997641 36.922641 33.947641
33.947641 13.122641 16.097641
30.972641000000003 16.097641 16.097641
33.947641 16.097641 19.072640999999997
30.972641000000003 16.097641 22.047641
33.947641 16.097641 25.022641
33.947641 13.122641 27.997641
30.972641000000003 16.097641 27.997641
33.947641 16.097641 30.972641000000003
33.947641 13.122641 33.947641
30.972641000000003 16.097641 33.947641
33.947641 22.047641 13.122641
33.947641 19.072640999999997 16.097641
30.972641000000003 22.047641 16.097641
33.947641 22.047641 19.072640999999997
33.947641 19.072640999999997 22.047641
30.972641000000003 22.047641 22.047641
33.947641 22.047641 25.022641
33.947641 19.072640999999997 27.997641
30.972641000000003 22.047641 27.997641
33.947641 22.047641 30.972641000000003
33.947641 19.072640999999997 33.947641
30.972641000000003 22.047641 33.947641
33.947641 22.047641 36.922641
33.947641 25.022641 16.097641
30.972641000000003 27.997641 16.097641
33.947641 27.997641 19.072640999999997
33.947641 25.022641 22.047641
30.972641000000003 27.997641 22.047641
33.947641 27.997641 25.022641
33.947641 25.022641 27.997641
30.972641000000003 27.997641 27.997641
33.947641 27.997641 30.972641000000003
33.947641 25.022641 33.947641
30.972641000000003 27.997641 33.947641
33.947641 27.997641 36.922641
33.947641 33.947641 13.122641
33.947641 30.972641000000003 16.097641
30.972641000000003 33.947641 16.097641
33.947641 33.947641 19.072640999999997
33.947641 30.972641000000003 22.047641
30.972641000000003 33.947641 22.047641
33.947641 33.947641 25.022641
33.947641 30.972641000000003 27.997641
30.972641000000003 33.947641 27.997641
33.947641 33.947641 30.972641000000003
33.947641 30.972641000000003 33.947641
30.972641000000003 33.947641 33.947641
33.947641 33.947641 36.922641
33.947641 36.922641 16.097641
33.947641 36.922641 33.947641
36.922641 16.097641 16.097641
36.922641 16.097641 22.047641
36.922641 16.097641 27.997641
36.922641 16.097641 33.947641
36.922641 22.047641 16.097641
36.922641 22.047641 22.047641
36.922641 22.047641 27.997641
36.922641 27.997641 22.047641
36.922641 27.997641 27.997641
36.922641 27.997641 33.947641
36.922641 33.947641 16.097641
36.922641 33.947641 22.047641
28.492207999999998 17.208126 40.754179
28.487371000000003 17.216766 39.366141
27.997641 16.097641 38.634892
27.520578999999998 14.980084 40.754672
28.011414000000002 16.092072 41.453875
27.510903 14.977456 39.366608
14.907898 28.247211 40.754179
14.90047 28.240662 39.366141
16.097641 27.997641 38.634892
17.29061 27.766672999999997 40.754672
16.100184 28.012278000000002 41.453875
17.295218 27.757768 39.366608
21.001506 34.566815 40.754179
20.992367 34.563005 39.366141
22.047641 33.947641 38.634892
23.102815999999997 33.345041 40.754672
22.054758999999997 33.960681 41.453875
23.104312999999998 33.335127 39.366608
33.62691 14.925077 40.754179
33.633 14.917269 39.366141
33.947641 16.097641 38.634892
34.249998 17.274544 40.754672
33.933183 16.10106 41.453875
34.259164 17.278608 39.366608
33.824207 29.206995999999997 9.291103
33.831497999999996 29.213695 10.679141
33.947641 27.997641 11.41039
34.052237 26.787029000000004 9.29061
33.932818 27.996647000000003 8.591407
34.06061 26.781513000000004 10.678674
29.134686000000002 28.427644 9.291103
29.143034 28.422319 10.679141
27.997641 27.997641 11.41039
26.854540999999998 27.585520000000002 9.29061
27.992872 28.011711 8.591407
26.851360999999997 27.576011 10.678674
34.980857 15.457142 9.291103
34.981713 15.447277 10.679141
33.947641 16.097641 11.41039
32.924929 16.753828 9.29061
33.955903 16.109988 8.591407
32.915448 16.750563 10.678674
29.210760999999998 33.869443 9.291103
29.216163 33.861145 10.679141
27.997641 33.947641 11.41039
26.786396000000003 34.044624999999996 9.29061
27.999112000000004 33.962425 8.591407
26.779570999999997 34.037279 10.678674
9.291103 27.106168000000004 27.171173000000003
10.679141 27.096429 27.172962
11.41039 27.997641 27.997641
9.29061 28.901456000000003 28.809823
8.591407 28.007356 27.986402
10.678674 28.900821999999998 28.819829
9.291103 29.144091000000003 33.543382
10.679141 29.147041 33.533929
11.41039 27.997641 33.947641
9.29061 26.858089 34.369474
8.591407 28.003066000000004 33.961472
10.678674 26.849529000000004 34.364254
9.291103 21.661832000000004 32.794851
10.679141 21.652428 32.79175
11.41039 22.047641 33.947641
9.29061 22.451132 35.093815
8.591407 22.061557 33.942439
10.678674 22.445776000000002 35.102291
9.291103 14.901015 21.833492
10.679141 14.893785 21.840258
11.41039 16.097641 22.047641
9.29061 17.296939000000002 22.243101000000003
8.591407 16.099747999999998 22.032935000000002
10.678674 17.301809 22.251865000000002
40.754179 35.159577 27.902848
39.366141 35.166102 27.910294999999998
38.634892 33.947641 27.997641
40.754672 32.734894 28.073572
41.453875 33.946998 27.982798000000003
39.366608 32.729181 28.081812
40.754179 28.623973 17.139505999999997
39.366141 28.620226000000002 17.148671999999998
38.634892 27.997641 16.097641
40.754672 27.387821000000002 15.046622
41.453875 28.010632 16.090434000000002
39.366608 27.377896999999997 15.045193
40.754179 22.675333000000002 32.906595
39.366141 22.685187 32.905618
38.634892 22.047641 33.947641
40.754672 21.404133 34.978378
41.453875 22.035193 33.939532
39.366608 21.407514 34.987817
40.754179 35.160835 33.870601
39.366141 35.16725 33.878144
38.634892 33.947641 33.947641
40.754672 32.733912 34.005809
41.453875 33.947216 33.932791
39.366608 32.72808 34.013964
15.108902 9.291103 16.804867
15.099466999999999 10.679141 16.801861000000002
16.097641 11.41039 16.097641
17.096819 9.29061 15.406146
16.105859000000002 8.591407 16.110018
17.097453 10.678674 15.396139
33.024332 9.291103 21.256897000000002
33.024993 10.679141 21.247018
33.947641 11.41039 22.047641
34.858174 9.29061 22.852285000000002
33.937591 8.591407 22.058582
34.868041 10.678674 22.850506000000003
17.010447 9.291103 33.144797
17.020136 10.679141 33.146841
16.097641 11.41039 33.947641
15.172870999999999 9.29061 34.73588
16.088223 8.591407 33.936151
15.173243 10.678674 34.7459
22.868045000000002 9.291103 22.944698000000002
22.866189 10.679141 22.954424000000003
22.047641 11.41039 22.047641
21.241607000000002 9.29061 21.138339000000002
22.058946 8.591407 22.038002
21.231596 10.678674 21.138906
16.214407 40.754179 35.157658
16.222873 39.366141 35.162793
16.097641 38.634892 33.947641
15.962158 40.754672 32.740096
16.082912 41.453875 33.949581
15.969282999999999 39.366608 32.733041
29.213126000000003 40.754179 16.078417
29.218925 39.366141 16.070391
27.997641 38.634892 16.097641
26.783116 40.754672 16.13572
27.998392000000003 41.453875 16.112478
26.776656000000003 39.366608 16.128052
34.315602 40.754179 29.156252000000002
34.324957 39.366141 29.159497
33.947641 38.634892 27.997641
33.561898 40.754672 26.845371999999998
33.933646 41.453875 28.002628
33.567384 39.366608 26.836980000000004
32.783485 40.754179 22.397663
32.780096 39.366141 22.406966000000004
33.947641 38.634892 22.047641
35.10573 40.754672 21.679741
33.942871 41.453875 22.033571000000002
35.114037 39.366608 21.685357000000003
38.398302 30.972641000000003 25.022641
12.079191 37.966091000000006 30.972641000000003
11.64698 25.022641 19.072640999999997
37.966091000000006 37.966091000000006 30.972641000000003
25.022641 12.079191 12.079191
37.966091000000006 19.072640999999997 37.966091000000006
25.022641 11.64698 30.972641000000003
37.966091000000006 25.022641 37.966091000000006
25.022641 38.398302 30.972641000000003
19.072640999999997 11.64698 25.022641
37.966091000000006 30.972641000000003 37.966091000000006
38.398302 19.072640999999997 30.972641000000003
25.022641 19.072640999999997 38.398302
37.966091000000006 19.072640999999997 12.079191
30.972641000000003 30.972641000000003 11.64698
25.022641 30.972641000000003 11.64698
12.079191 25.022641 12.079191
13.122641 13.122641 19.072640999999997
13.122641 13.122641 25.022641
13.122641 13.122641 30.972641000000003
13.122641 19.072640999999997 13.122641
13.122641 19.072640999999997 19.072640999999997
13.122641 19.072640999999997 25.022641
13.122641 19.072640999999997 30.972641000000003
13.122641 19.072640999999997 36.922641
13.122641 25.022641 25.022641
13.122641 25.022641 30.972641000000003
13.122641 25.022641 36.922641
13.122641 30.972641000000003 13.122641
13.122641 30.972641000000003 19.072640999999997
13.122641 30.972641000000003 25.022641
13.122641 30.972641000000003 30.972641000000003
13.122641 30.972641000000003 36.922641
13.122641 36.922641 19.072640999999997
13.122641 36.922641 25.022641
19.072640999999997 13.122641 13.122641
19.072640999999997 13.122641 19.072640999999997
19.072640999999997 13.122641 30.972641000000003
19.072640999999997 13.122641 36.922641
19.072640999999997 19.072640999999997 13.122641
19.072640999999997 19.072640999999997 19.072640999999997
19.072640999999997 19.072640999999997 25.022641
19.072640999999997 19.072640999999997 30.972641000000003
19.072640999999997 19.072640999999997 36.922641
19.072640999999997 25.022641 13.122641
19.072640999999997 25.022641 19.072640999999997
19.072640999999997 25.022641 25.022641
19.072640999999997 25.022641 30.972641000000003
19.072640999999997 25.022641 36.922641
19.072640999999997 30.972641000000003 13.122641
19.072640999999997 30.972641000000003 19.072640999999997
19.072640999999997 30.972641000000003 25.022641
19.072640999999997 30.972641000000003 30.972641000000003
19.072640999999997 30.972641000000003 36.922641
19.072640999999997 36.922641 13.122641
19.072640999999997 36.922641 19.072640999999997
19.072640999999997 36.922641 25.022641
19.072640999999997 36.922641 30.972641000000003
19.072640999999997 36.922641 36.922641
25.022641 13.122641 25.022641
25.022641 19.072640999999997 13.122641
25.022641 19.072640999999997 19.072640999999997
25.022641 19.072640999999997 25.022641
25.022641 19.072640999999997 30.972641000000003
25.022641 25.022641 13.122641
25.022641 25.022641 19.072640999999997
25.022641 25.022641 25.022641
25.022641 25.022641 30.972641000000003
25.022641 25.022641 36.922641
25.022641 30.972641000000003 19.072640999999997
25.022641 30.972641000000003 25.022641
25.022641 30.972641000000003 30.972641000000003
25.022641 30.972641000000003 36.922641
25.022641 36.922641 13.122641
25.022641 36.922641 19.072640999999997
25.022641 36.922641 25.022641
25.022641 36.922641 36.922641
30.972641000000003 13.122641 13.122641
30.972641000000003 13.122641 19.072640999999997
30.972641000000003 13.122641 25.022641
30.972641000000003 13.122641 30.972641000000003
30.972641000000003 19.072640999999997 13.122641
30.972641000000003 19.072640999999997 19.072640999999997
30.972641000000003 19.072640999999997 25.022641
30.972641000000003 19.072640999999997 30.972641000000003
30.972641000000003 19.072640999999997 36.922641
30.972641000000003 25.022641 13.122641
30.972641000000003 25.022641 19.072640999999997
30.972641000000003 25.022641 25.022641
30.972641000000003 25.022641 30.972641000000003
30.972641000000003 25.022641 36.922641
30.972641000000003 30.972641000000003 19.072640999999997
30.972641000000003 30.972641000000003 25.022641
30.972641000000003 30.972641000000003 30.972641000000003
30.972641000000003 30.972641000000003 36.922641
30.972641000000003 36.922641 13.122641
30.972641000000003 36.922641 25.022641
30.972641000000003 36.922641 30.972641000000003
30.972641000000003 36.922641 36.922641
36.922641 13.122641 19.072640999999997
36.922641 13.122641 25.022641
36.922641 13.122641 30.972641000000003
36.922641 19.072640999999997 19.072640999999997
36.922641 19.072640999999997 25.022641
36.922641 25.022641 19.072640999999997
36.922641 25.022641 25.022641
36.922641 25.022641 30.972641000000003
36.922641 30.972641000000003 13.122641
36.922641 30.972641000000003 19.072640999999997
36.922641 30.972641000000003 30.972641000000003
36.922641 36.922641 19.072640999999997
36.922641 36.922641 25.022641
27.145439000000003 14.11416 41.303637
28.019191 16.08917 42.545282
28.871902 18.072297 41.302735
28.858538000000003 18.07894 38.809070000000006
27.131588 14.118720999999999 38.809825000000004
18.216124 27.582340000000002 41.303637
16.101383 28.020491 42.545282
13.983139 28.436366 41.302735
13.97946 28.421902000000003 38.809070000000006
18.214582999999998 27.567839 38.809825000000004
23.919772000000002 32.872667 41.303637
22.058537 33.968072 42.545282
20.186816999999998 35.043512 41.302735
20.178677999999998 35.031000999999996 38.809070000000006
23.913646 32.859433 38.809825000000004
34.489706 18.187284 41.303637
33.925057 16.102750999999998 42.545282
33.382435 14.013380999999999 41.302735
33.396651 14.008837999999999 38.809070000000006
34.504088 18.184873 38.809825000000004
34.138503 25.847289000000004 8.741645
33.924524 27.996316 7.5
33.733067 30.146490999999997 8.742547
33.747838 30.148632999999997 11.236212
34.153085 25.847300000000004 11.235457
25.968510000000002 27.260708 8.741645
27.990420999999998 28.019641 7.5
30.019229000000003 28.757103999999998 8.742547
30.025094000000003 28.743378999999997 11.236212
25.972268 27.246617999999998 11.235457
32.127949 17.259177 8.741645
33.960703 16.116759000000002 7.5
35.780618 14.955802 8.742547
35.773298 14.942796 11.236212
32.119057 17.247619999999998 11.235457
25.845325000000003 34.114907 8.741645
28.000156000000004 33.970659 7.5
30.152396000000003 33.804009 8.742547
30.152067000000002 33.789088 11.236212
25.842925 34.100523 11.235457
8.741645 29.599992 29.444332000000003
7.5 28.012613 27.979978000000003
8.742547 26.410761 26.532919
11.236212 26.40016 26.543425
11.235457 29.591206 29.45597
8.741645 25.971346000000004 34.692336
7.5 28.006304 33.969114
8.742547 30.032693000000002 33.225032999999996
11.236212 30.028329999999997 33.21076
11.235457 25.965136 34.679142
8.741645 22.759722000000004 35.985625999999996
7.5 22.069250000000004 33.939324
8.742547 21.357785 31.901254
11.236212 21.343443999999998 31.905388000000002
11.235457 22.746430000000004 35.991624
8.741645 18.227516 22.399884
7.5 16.100703 22.02469
8.742547 13.971048999999999 21.671866
11.236212 13.967801 21.686433
11.235457 18.226405999999997 22.414425
41.303637 31.793376000000002 28.137584000000004
42.545282 33.946863 27.974499
41.302735 36.100966 27.833956999999998
38.809070000000006 36.102758 27.848774
38.809825000000004 31.793042 28.152163
41.303637 26.909857000000002 14.232923999999999
42.545282 28.017996000000004 16.086605
41.302735 29.106244000000004 17.950908
38.809070000000006 29.093789 17.959131999999997
38.809825000000004 26.896665 14.239139999999999
41.303637 20.908662999999997 35.781536
42.545282 22.028363 33.934816
41.302735 23.166759 32.100704
38.809070000000006 23.179855000000003 32.107863
38.809825000000004 20.920329000000002 35.790286
41.303637 31.791558000000002 34.05603
42.545282 33.947202 33.92449
41.302735 36.103131 33.8155
38.809070000000006 36.104706 33.830342
38.809825000000004 31.791010999999997 34.070602
17.869916 8.741645 14.864967
16.110262 7.5 16.117054
14.338435 8.742547 17.350156
14.329247 11.236212 17.338395
17.86267 11.235457 14.852312
35.568651 8.741645 23.473394
33.931813 7.5 22.064541
32.310494 8.742547 20.639325999999997
32.319714 11.236212 20.627589999999998
35.579204 11.235457 23.46333
14.457961 8.741645 35.351881999999996
16.083137 7.5 33.929592
17.722327 8.742547 32.524969
17.732649000000002 11.236212 32.535749
14.46644 11.235457 35.363746
20.611849999999997 8.741645 20.435516
22.065405 7.5 22.032789
23.501569000000003 8.742547 23.644416999999997
23.490991 11.236212 23.654946000000002
20.600152 11.235457 20.444224
15.861963 41.303637 31.801738
16.074714999999998 42.545282 33.950887
16.309775000000002 41.302735 36.096734
16.324678 38.809070000000006 36.09593
15.876263 38.809825000000004 31.798882
25.839743 41.303637 16.160242
27.999036000000004 42.545282 16.120753999999998
30.156827999999997 41.302735 16.058764
30.157223000000002 38.809070000000006 16.043844999999997
25.838045 38.809825000000004 16.145758999999998
33.267117 41.303637 25.948902000000004
33.925906 42.545282 28.005623999999997
34.605814 41.302735 30.054437
34.620217 38.809070000000006 30.050525
33.280499999999996 38.809825000000004 25.943111000000002
36.006645999999996 41.303637 21.398840999999997
33.939995 42.545282 22.025785
31.880924999999998 41.302735 22.673966999999998
31.884614 38.809070000000006 22.688429
36.01223 38.809825000000004 21.412312
38.732223000000005 30.066935 25.532367999999998
38.732223000000005 30.984057 23.983413
38.732223000000005 31.866929999999996 25.552142000000003
36.547899 31.807344 24.552874000000003
36.547899 30.962119 25.980399
36.547899 30.148459000000003 24.53465
11.135356999999999 37.494492 31.25264
12.368396 38.727531 31.699413999999997
12.025468 38.384603 29.965868999999998
14.039859 37.309894 30.714592000000003
12.903483999999999 36.173519 30.302844
13.219528 36.489563 31.900487
11.313058999999999 24.116934999999998 18.562914
11.313058999999999 25.034056999999997 20.111869
11.313058999999999 25.91693 18.54314
13.497383 25.857343999999998 19.542408000000002
13.497383 25.012119 18.114883
13.497383 24.198459 19.560632
38.400198 38.004219000000006 31.973503
38.716114000000005 37.688303000000005 30.229723
37.490313 38.914104 30.714697
36.47519 36.840127 30.050241
36.18404 37.131276 31.657317999999997
37.313745 36.001572 31.210364
24.512914000000002 12.483504 11.202643
26.061869 11.835001 11.851146
24.493140000000004 11.210715 12.475431
25.492407999999998 12.797398999999999 13.977848
24.064883000000002 13.395064 13.380184
25.510632 13.970407999999999 12.804839
37.841777 18.166935000000002 38.56264
38.937054 19.084057 37.467363
37.827795 19.966929999999998 38.576622
36.989834 19.907344000000002 36.325483
35.980421 19.062119000000003 37.334895
37.00272 18.248458999999997 36.312597
24.512914000000002 11.313058999999999 30.066935
26.061869 11.313058999999999 30.984057
24.493140000000004 11.313058999999999 31.866929999999996
25.492407999999998 13.497383 31.807344
24.064883000000002 13.497383 30.962119
25.510632 13.497383 30.148459000000003
37.841777 24.116934999999998 38.56264
38.937054 25.034056999999997 37.467363
37.827795 25.91693 38.576622
36.989834 25.857343999999998 36.325483
35.980421 25.012119 37.334895
37.00272 24.198459 36.312597
24.512914000000002 38.732223000000005 31.878346999999998
26.061869 38.732223000000005 30.961225
24.493140000000004 38.732223000000005 30.078352000000002
25.492407999999998 36.547899 30.137938
24.064883000000002 36.547899 30.983162999999998
25.510632 36.547899 31.796822999999996
18.562914 11.313058999999999 24.116934999999998
20.111869 11.313058999999999 25.034056999999997
18.54314 11.313058999999999 25.91693
19.542408000000002 13.497383 25.857343999999998
18.114883 13.497383 25.012119
19.560632 13.497383 24.198459
37.841777 30.066935 38.56264
38.937054 30.984057 37.467363
37.827795 31.866929999999996 38.576622
36.989834 31.807344 36.325483
35.980421 30.962119 37.334895
37.00272 30.148459000000003 36.312597
38.732223000000005 18.166935000000002 31.482368
38.732223000000005 19.084057 29.933413
38.732223000000005 19.966929999999998 31.502142
36.547899 19.907344000000002 30.502874
36.547899 19.062119000000003 31.930399
36.547899 18.248458999999997 30.484650000000002
24.512914000000002 18.166935000000002 38.732223000000005
26.061869 19.084057 38.732223000000005
24.493140000000004 19.966929999999998 38.732223000000005
25.492407999999998 19.907344000000002 36.547899
24.064883000000002 19.062119000000003 36.547899
25.510632 18.248458999999997 36.547899
38.56264 18.166935000000002 12.203505
37.467363 19.084057 11.108228
38.576622 19.966929999999998 12.217487
36.325483 19.907344000000002 13.055448
37.334895 19.062119000000003 14.064861
36.312597 18.248458999999997 13.042562
31.482368 30.066935 11.313058999999999
29.933413 30.984057 11.313058999999999
31.502142 31.866929999999996 11.313058999999999
30.502874 31.807344 13.497383
31.930399 30.962119 13.497383
30.484650000000002 30.148459000000003 13.497383
25.532367999999998 30.066935 11.313058999999999
23.983413 30.984057 11.313058999999999
25.552142000000003 31.866929999999996 11.313058999999999
24.552874000000003 31.807344 13.497383
25.980399 30.962119 13.497383
24.53465 30.148459000000003 13.497383
12.203505 24.116934999999998 11.482642
11.108228 25.034056999999997 12.577919
12.217487 25.91693 11.46866
13.055448 25.857343999999998 13.719799
14.064861 25.012119 12.710387
13.042562 24.198459 13.732685
36.922641 30.972641000000003 25.022641
13.122641 36.922641 30.972641000000003
13.122641 25.022641 19.072640999999997
36.922641 36.922641 30.972641000000003
25.022641 13.122641 13.122641
36.922641 19.072640999999997 36.922641
25.022641 13.122641 30.972641000000003
36.922641 25.022641 36.922641
25.022641 36.922641 30.972641000000003
19.072640999999997 13.122641 25.022641
36.922641 30.972641000000003 36.922641
36.922641 19.072640999999997 30.972641000000003
25.022641 19.072640999999997 36.922641
36.922641 19.072640999999997 13.122641
30.972641000000003 30.972641000000003 13.122641
25.022641 30.972641000000003 13.122641
13.122641 25.022641 13.122641
16.097641 16.097641 16.097641
16.097641 16.097641 22.047641
16.097641 16.097641 27.997641
16.097641 16.097641 33.947641
16.097641 22.047641 16.097641
16.097641 22.047641 22.047641
16.097641 22.047641 27.997641
16.097641 22.047641 33.947641
16.097641 27.997641 16.097641
16.097641 27.997641 22.047641
16.097641 27.997641 27.997641
16.097641 27.997641 33.947641
16.097641 33.947641 16.097641
16.097641 33.947641 22.047641
16.097641 33.947641 27.997641
16.097641 33.947641 33.947641
22.047641 16.097641 16.097641
22.047641 16.097641 22.047641
22.047641 16.097641 27.997641
22.047641 16.097641 33.947641
22.047641 22.047641 16.097641
22.047641 22.047641 22.047641
22.047641 22.047641 27.997641
22.047641 22.047641 33.947641
22.047641 27.997641 16.097641
22.047641 27.997641 22.047641
22.047641 27.997641 27.997641
22.047641 27.997641 33.947641
22.047641 33.947641 16.097641
22.047641 33.947641 22.047641
22.047641 33.947641 27.997641
22.047641 33.947641 33.947641
27.997641 16.097641 16.097641
27.997641 16.097641 22.047641
27.997641 16.097641 27.997641
27.997641 16.097641 33.947641
27.997641 22.047641 16.097641
27.997641 22.047641 22.047641
27.997641 22.047641 27.997641
27.997641 22.047641 33.947641
27.997641 27.997641 16.097641
27.997641 27.997641 22.047641
27.997641 27.997641 27.997641
27.997641 27.997641 33.947641
27.997641 33.947641 16.097641
27.997641 33.947641 22.047641
27.997641 33.947641 27.997641
27.997641 33.947641 33.947641
33.947641 16.097641 16.097641
33.947641 16.097641 22.047641
33.947641 16.097641 27.997641
33.947641 16.097641 33.947641
33.947641 22.047641 16.097641
33.947641 22.047641 22.047641
33.947641 22.047641 27.997641
33.947641 22.047641 33.947641
33.947641 27.997641 16.097641
33.947641 27.997641 22.047641
33.947641 27.997641 27.997641
33.947641 27.997641 33.947641
33.947641 33.947641 16.097641
33.947641 33.947641 22.047641
33.947641 33.947641 27.997641
33.947641 33.947641 33.947641
27.997641 16.097641 36.922641
16.097641 27.997641 36.922641
22.047641 33.947641 36.922641
33.947641 16.097641 36.922641
33.947641 27.997641 13.122641
27.997641 27.997641 13.122641
33.947641 16.097641 13.122641
27.997641 33.947641 13.122641
13.122641 27.997641 27.997641
13.122641 27.997641 33.947641
13.122641 22.047641 33.947641
13.122641 16.097641 22.047641
36.922641 33.947641 27.997641
36.922641 27.997641 16.097641
36.922641 22.047641 33.947641
36.922641 33.947641 33.947641
16.097641 13.122641 16.097641
33.947641 13.122641 22.047641
16.097641 13.122641 33.947641
22.047641 13.122641 22.047641
16.097641 36.922641 33.947641
27.997641 36.922641 16.097641
33.947641 36.922641 27.997641
33.947641 36.922641 22.047641
