1_train/46_cspbbr3_methylammonium_3_0.60\46_cspbbr3_methylammonium_3_0.60.xyz
1.0
41.833521 0 0
0 41.833521 0
0 0 41.833521
Br C Cs H N Pb 
108 28 26 168 28 27 
Cartesian
14.790373499999998 21.040873499999996 23.9148085
26.680026499999997 14.894230499999999 23.942013499999998
12.011629499999998 15.162928499999998 21.052331499999998
23.7398345 14.922280499999998 20.817320499999997
26.8157835 11.851605499999998 21.0712975
26.9339995 14.820428499999998 17.8098115
23.6263535 14.871939499999998 15.055947499999998
26.7210835 12.119406499999998 14.802625499999998
26.999408499999998 14.743387499999997 12.105281499999998
14.944354499999998 14.866924499999998 24.052817499999996
20.780846499999996 29.907151499999998 26.7386695
20.7903605 29.996284499999998 20.749086499999997
20.785704499999998 29.935602499999998 14.716737499999997
29.697258499999997 14.861765499999997 14.927952499999998
21.2000375 26.9117325 29.8069815
29.8858845 14.904707499999997 21.087520499999997
17.8309535 27.067997499999997 27.009914499999997
20.7329315 23.8957125 26.8287835
20.745800499999998 26.845633499999998 23.7704515
14.835292499999998 11.853963499999997 26.9289635
29.997333499999996 14.873173499999998 26.7750195
17.8251355 26.9466155 20.785655499999997
21.0202965 23.814744499999996 20.7114495
26.716854499999997 12.092188499999999 26.877382499999996
23.7649235 14.905823499999999 27.102883499999997
27.042882499999997 29.9134145 26.8165995
21.081525499999998 26.8462425 18.0398695
27.0618105 26.9878115 23.8614545
14.845387499999998 14.863474499999999 11.860799499999999
24.120254499999998 26.7993095 21.064443499999996
26.8900035 23.958124499999997 20.7502975
26.724599499999997 26.7706235 18.0401085
15.176912499999998 12.139929499999997 14.907825499999998
27.005109499999996 26.8511325 29.982137499999997
23.732932499999997 26.949524499999995 14.745715499999998
26.819321499999997 23.727993499999997 14.795475499999998
27.032445499999998 26.962821499999997 12.120875499999999
11.884182499999998 14.859639499999998 14.865881499999999
26.688928499999996 29.8627765 15.125529499999999
26.691010499999997 21.1458375 29.894992499999997
23.771375499999998 20.7742275 26.747376499999998
27.0047645 17.9220665 27.048289499999996
26.671395499999996 20.884023499999998 24.088902499999996
24.1216565 20.888794499999996 21.0469615
26.9914705 17.7587025 21.0048875
26.9583615 20.782467499999996 18.071411499999996
14.981800499999999 15.225928499999998 17.9649665
26.961130499999996 29.6545475 20.781612499999998
24.021578499999997 20.812518499999996 15.130913499999998
26.854586499999996 18.1898095 14.987131499999998
26.986022499999997 20.985271499999996 12.160033499999997
15.195348499999998 12.058731499999999 20.816987499999996
26.8121165 15.032965499999998 29.671234499999997
12.207341499999998 20.8824515 20.8662115
11.866530499999998 14.971212499999998 26.651982499999995
18.1011685 27.0255095 14.804664499999998
17.7861445 15.139494499999998 14.926290499999999
20.8498795 11.817451499999999 14.793195499999998
20.691596499999996 15.049363499999998 11.933046499999998
11.984371499999998 20.742150499999997 14.833344499999999
29.6455265 26.8590455 14.961138499999997
14.905789499999997 29.644961499999997 26.664812499999996
14.863545499999997 29.7320115 21.0593735
14.986222499999998 30.045466499999996 14.948050499999997
15.050435499999999 26.886394499999998 29.6596935
11.984767499999998 27.076643499999996 26.7157955
15.027314499999997 23.785391499999996 26.726541499999996
20.767728499999997 14.952536499999997 17.823187499999996
15.0417885 26.9970365 24.1090455
15.061122499999998 24.058775499999996 21.102483499999998
15.077308499999997 27.0503105 18.053990499999998
14.788025499999998 20.7847735 18.0750265
11.786249499999998 26.935546499999997 14.951401499999998
14.905849499999999 23.978013499999996 15.124059499999998
14.751473499999998 26.7204415 11.938081499999997
14.743224499999998 17.8413135 21.022282499999996
15.052979499999998 20.8041335 29.957047499999998
29.899758499999997 26.961839499999996 21.0765255
12.006601499999999 21.1050415 26.7288455
15.143627499999997 18.0040275 26.7550405
11.757083499999998 26.908519499999997 20.9148735
21.0718015 11.982858499999997 20.823955499999997
14.922097499999998 18.137657499999996 14.854220499999998
15.120367499999999 21.069249499999998 11.909329499999998
20.775861499999998 23.730462499999998 15.138476499999998
20.8314205 26.8489725 11.802048499999998
15.104194499999998 15.021972499999999 29.983254499999997
21.0153215 20.7794545 29.7549215
29.937105499999998 20.9859565 15.104930499999998
17.7398915 20.758090499999998 26.8274445
20.774216499999998 17.8690145 27.018243499999997
21.112298499999998 20.802392499999996 23.7057315
27.064258499999998 23.947314499999997 27.0120735
29.717505499999998 20.783080499999997 21.0435345
18.1448155 21.0968055 20.954893499999997
20.648690499999997 17.8575035 20.8963975
17.884265499999998 14.850904499999999 21.062869499999998
20.6627565 20.805632499999998 17.9916715
29.745416499999997 26.703477499999998 26.799876499999996
29.8929445 20.6916305 27.054303499999996
18.049131499999998 21.068513499999998 15.032730499999998
20.9005825 17.773487499999998 15.060842499999998
21.0059585 20.731899499999997 11.851107499999998
21.137074499999997 15.157392499999998 29.7712035
17.9107675 14.845667499999998 26.996491499999998
20.950266499999998 12.066532499999997 26.695922499999998
21.064635499999998 14.916763499999998 23.982038499999998
23.929322499999998 26.920892499999997 27.043395499999995
30.9509245 10.991440499999998 23.9503165
17.8465635 10.946631499999999 30.8553215
30.953089499999997 11.016891499999998 17.934322499999997
23.837906499999995 10.554618499999998 23.9520195
23.9414905 10.583172499999998 17.900701499999997
11.021427499999998 30.9050655 23.962436499999995
18.032855499999997 10.475918499999999 23.9157625
31.285500499999998 17.885065499999996 23.9486815
17.884198499999997 31.385298499999998 17.993804499999996
30.965127499999998 23.940046499999998 10.962124499999998
11.013249499999999 30.850098499999998 17.9406775
31.2569165 17.9780935 17.915062499999998
31.3238395 23.8742485 23.9716795
11.019829499999998 10.983319499999999 18.0130645
30.970345499999997 23.829046499999997 30.871374499999998
30.8765175 30.9446855 23.973938499999996
10.432940499999997 17.993970499999996 23.8694705
17.990903499999998 23.8299365 10.557731499999997
23.839358499999996 10.891992499999997 30.919113499999998
10.564195499999999 23.863814499999997 23.940896499999997
23.936789499999996 11.003074499999999 11.012073499999998
18.025228499999997 10.526448499999997 17.8964115
10.577387499999999 18.011449499999998 17.9821685
10.550916499999998 23.9643485 17.946459499999996
23.928321499999996 31.295242499999997 23.8256065
17.8793455 31.394888499999997 23.8910435
10.992758499999997 10.917610499999999 23.970847499999998
23.869865499999996 17.8764015 31.349592499999996
29.587860499999998 24.2614655 17.9293165
23.5763405 30.110023499999997 17.7833245
30.027955499999997 17.686545499999998 30.222391499999997
23.7867245 24.223615499999998 30.110255499999997
29.4961855 17.564839499999998 12.162793499999998
24.195426499999996 29.5648305 29.7346355
23.591603499999998 29.611848499999997 11.852527499999997
24.2078985 24.397616499999998 17.815865499999997
23.8823895 23.455332499999997 23.509973499999997
12.032946499999998 17.8505465 29.4702435
11.711229499999998 24.118359499999997 30.0857735
18.1452845 12.309955499999997 12.105132499999998
17.511038499999998 17.702329499999998 11.712611499999998
18.1681875 18.165605499999998 18.1693665
18.001822499999996 17.653581499999998 23.624607499999996
18.011500499999997 18.316636499999998 29.861651499999997
17.455110499999996 24.1211105 17.942282499999997
12.322331499999999 17.641197499999997 11.807061499999998
17.5901085 23.762372499999998 29.468327499999997
17.682401499999997 30.160160499999996 12.158757499999998
17.6164475 29.474859499999997 29.7786275
24.016099499999996 17.756309499999997 12.306008499999997
23.875899499999996 17.460326499999997 17.951063499999997
23.5930265 17.464239499999998 24.1255575
23.456501499999998 23.5373485 11.833715499999998
18.1194325 23.6032285 23.534597499999997
17.0592495 29.490934499999998 18.272369499999996
24.8672745 18.226918499999996 31.6706565
23.1691595 18.6376465 31.627180499999998
18.625727499999996 29.483343499999997 18.5699105
18.912010499999997 31.685718499999997 17.591322499999997
23.654160499999996 16.897135499999997 31.6525255
18.167817499999998 29.465061499999997 17.0098085
23.7326055 10.184863499999999 22.830719499999997
17.1892775 31.641653499999997 17.236889499999997
17.7393935 31.680351499999997 18.9357065
23.069537499999996 10.201198499999999 24.553005499999998
17.9548435 10.170193499999998 18.965461499999996
24.567134499999998 17.275671499999998 29.426733499999997
24.095398499999998 18.8656315 29.462659499999997
18.775118499999998 12.341732499999997 18.4682915
24.0512405 12.397394499999997 24.868398499999998
24.6074415 12.333852499999997 23.296448499999997
17.9162945 12.346573499999998 16.984530499999998
17.1376225 12.365386499999998 18.431040499999998
17.0145235 10.189662499999997 17.392653499999998
24.846797499999997 10.207508499999998 24.271291499999997
23.021950499999996 12.336906499999998 23.5735215
18.866100499999998 10.184548499999998 17.4621505
22.945555499999998 17.7059955 29.4825745
29.4754355 17.013521499999996 18.107000499999998
31.7169325 23.3831615 11.341204499999998
24.773565499999997 12.393500499999998 17.6692215
23.675624499999998 12.374509499999998 18.916327499999998
23.207745499999998 12.387222499999998 17.317334499999998
30.383200499999997 9.986990499999997 24.1653625
31.281867499999997 10.863301499999999 22.852828499999998
31.656481499999998 11.216530499999998 24.639715499999998
30.207268499999998 12.931151499999999 23.613507499999997
29.3984475 12.111241499999998 24.799333499999996
29.0541965 11.774976499999998 23.251160499999997
23.4488885 10.038138499999999 11.357081499999998
23.313497499999997 11.279545499999998 10.130073499999998
24.895717499999996 10.797824499999997 10.622567499999999
24.2602685 12.851046499999999 11.662164499999998
24.4632595 11.735515499999998 12.765911499999998
22.932574499999998 12.152100499999998 12.316973499999998
24.8985465 31.616134499999998 24.144321499999997
23.5812945 31.634393499999998 22.9006755
23.1982935 31.650255499999997 24.641355499999996
22.949139499999998 29.4916745 23.6791245
24.668859499999996 10.201484499999998 18.606488499999998
24.0882145 10.200200499999998 16.9408145
22.865329499999998 10.187395499999997 18.257377499999997
29.4898405 18.526098499999996 24.679919499999997
30.4466045 23.417720499999998 10.077824499999998
29.537663499999997 22.9412295 12.275328499999999
28.9841715 24.393448499999998 11.648795499999999
30.158446499999997 24.3932795 12.834509499999998
30.683390499999998 24.7421565 31.546155499999998
30.815869499999998 22.926998499999996 31.378351499999997
31.8337965 24.009890499999997 30.368463499999997
30.019035499999998 23.106469499999996 29.159338499999997
29.8456135 24.804076499999997 29.288361499999997
31.1265145 24.9276445 10.696478499999998
28.8724425 23.7939905 30.245495499999997
31.6216595 18.948689499999997 17.7050615
31.674842499999997 17.596694499999998 18.917193499999996
29.440264499999998 18.572213499999997 18.653007499999998
29.447404499999998 18.1989885 17.0419925
31.6340135 18.981705499999997 23.797845499999998
31.688933499999997 17.545421499999996 24.826306499999998
31.662891499999997 17.2910655 23.083588499999998
29.465136499999996 16.960651499999997 24.019408499999997
29.4818915 18.356056499999998 23.0174265
31.639245499999998 17.2082825 17.177013499999997
12.206169499999998 12.310362499999998 24.831776499999997
12.337075499999997 18.0896865 22.9232095
11.712724499999998 12.812141499999997 23.3953335
17.0001875 10.382222499999997 30.746072499999997
18.850710499999998 10.354673499999999 30.7533885
18.008681499999998 11.457065499999999 31.871840499999998
18.7701045 12.570160499999998 29.874899499999998
17.150038499999997 12.635349499999998 29.9568025
17.9245235 11.556569499999998 28.919958499999996
10.090108499999998 30.490146499999998 23.278847499999998
10.667464499999998 31.034114499999998 24.917530499999998
11.384477499999997 31.793435499999998 23.4144315
24.1772955 29.462162499999998 24.832328499999996
12.783597499999997 30.1413345 24.423841499999998
11.665558499999998 28.994299499999997 24.2926505
16.9544115 10.197680499999999 24.301621499999996
18.061150499999997 10.158881499999998 22.8391065
18.7590455 10.176832499999998 24.547996499999996
18.8099045 12.361261499999998 23.5485655
17.8153385 12.391037499999998 24.8735365
17.190433499999997 12.355285499999997 23.3431675
10.076613499999999 30.482325499999998 17.365881499999997
10.671920499999999 31.053143499999997 18.9872645
12.327886499999998 29.613904499999997 22.9584075
11.337653499999998 31.7781165 17.436210499999998
12.329015499999999 18.7188125 24.4684565
10.192208499999998 17.832641499999998 24.9435085
10.148408499999999 17.3228175 17.0908305
10.206374499999999 17.518873499999998 18.924235499999998
10.154867499999998 18.9405115 17.797171499999997
12.381925499999998 18.492571499999997 18.699080499999997
12.397758499999998 18.3055785 17.0390175
12.394612499999997 17.0194975 18.0483695
10.206870499999997 22.874936499999997 17.948412499999996
10.160723499999998 24.4240115 18.880857499999998
10.172349499999997 24.450034499999997 17.0398285
12.390480499999999 17.0587965 24.285262499999998
12.377877499999999 24.8817775 17.9248695
12.377925499999998 23.391326499999998 18.7960215
16.985411499999998 31.682449499999997 23.509358499999998
18.0839835 31.622151499999998 24.950909499999998
18.738178499999997 31.6889005 23.223698499999998
18.799186499999998 29.454996499999996 24.2493815
17.8087505 29.4310485 22.933198499999996
17.2275255 29.465520499999997 24.4801365
10.182064499999997 18.8625685 23.4761535
10.169773499999998 17.1415305 23.244756499999998
12.367248499999999 23.384007499999996 17.1074225
12.849933499999999 30.1671895 18.489192499999998
12.265036499999997 29.6169275 16.9688785
11.659982499999998 28.996387499999997 18.4030755
18.843732499999998 23.345102499999996 10.182374499999998
17.0439235 23.407028499999996 10.209348499999997
17.9045775 22.9067115 12.344293499999997
17.140309499999997 24.426699499999998 12.335771499999998
18.789858499999998 24.3514165 12.400261499999997
31.8299915 11.392639499999998 17.521907499999998
31.0150935 10.644854499999997 18.9905835
30.5381905 10.099831499999999 17.339495499999998
28.920086499999996 11.632168499999999 18.3444565
17.977112499999997 24.897676499999996 10.186033499999997
29.652703499999998 12.322655499999998 16.9644755
24.345387499999998 10.024653499999998 30.445077499999996
24.446291499999997 11.323836499999999 31.768168499999998
22.8655245 10.775246499999998 31.124225499999998
23.4304945 12.838357499999997 30.1891665
23.395410499999997 11.718617499999999 29.0285765
24.824411499999997 12.188224499999999 29.526233499999996
11.322774499999998 10.116858499999998 24.4458135
10.020121499999998 11.372521499999998 24.374837499999998
10.768281499999999 10.688603499999997 22.8444415
30.0833235 12.780955499999997 18.5315855
12.509772499999999 12.034200499999997 18.868714499999996
12.686222499999998 11.788010499999999 17.202339499999997
11.604732499999997 12.954295499999999 17.7536575
31.6318785 24.749548499999996 23.267781499999998
31.661748499999998 23.995516499999997 24.9438765
31.693374499999997 22.930215499999996 23.481422499999997
29.464211499999998 23.130818499999997 24.512342499999995
29.497013499999998 23.760901499999996 22.969119499999998
29.456615499999998 24.8082525 24.2379525
31.2028945 31.0735465 24.910461499999997
31.7528525 30.485866499999997 23.302896499999996
30.4672985 31.754751499999998 23.4337235
29.551820499999998 29.6386875 22.907802499999995
29.024899499999997 30.102454499999997 24.4153405
30.169087499999996 28.936251499999997 24.3287865
10.205066499999997 24.7616235 23.379546499999996
10.226107499999998 22.9878115 23.3928965
10.192159499999999 23.941121499999998 24.9087595
12.348330499999998 23.1107425 24.3822165
12.410718499999998 24.7367115 24.343650499999995
12.373020499999997 23.8993525 22.9164905
11.428790499999998 9.959914499999998 18.120729499999996
10.210167499999997 11.220069499999997 18.713862499999998
10.478538499999997 10.913891499999998 16.9462405
12.821011499999997 11.689967499999998 23.448735499999998
24.584853499999998 29.483848499999997 23.2324925
23.856336499999998 17.990505499999998 29.907967499999998
29.908854499999997 17.8677665 23.870499499999998
11.982126499999998 23.924881499999998 17.879408499999997
23.955910499999998 29.8764105 23.8516415
11.963401499999998 29.9205315 17.977222499999996
12.071161499999999 12.023523499999998 23.9398025
29.8864895 17.8925925 17.893581499999996
29.869818499999997 23.984616499999998 23.8760895
12.060985499999997 11.975292499999998 17.9048995
17.9863085 12.045362499999998 17.9142995
29.8370665 23.9715495 29.781380499999997
11.916472499999998 17.975464499999998 17.899837499999997
29.802100499999998 29.770845499999997 23.8495335
29.846555499999997 23.8426555 12.044443499999998
17.997172499999998 29.783108499999997 18.0065915
17.9221415 23.904461499999996 12.086854499999998
17.9030435 12.071035499999999 23.919959499999997
17.924124499999998 29.9091915 23.848982499999998
17.9684235 11.983213499999998 29.932086499999997
29.905575499999998 11.949991499999998 17.9017435
12.061870499999998 17.873938499999998 23.8667205
29.8469505 11.925567499999998 23.937287499999996
23.8840675 11.906187499999998 17.9402975
11.949860499999998 23.910144499999998 23.813596499999996
12.006757499999997 29.7875405 23.942105499999997
23.8431475 11.935414499999998 23.945835499999998
23.9766645 12.009682499999998 12.023434499999999
23.927411499999998 11.953831499999998 29.8974345
14.800929499999999 14.695381499999998 15.066937499999998
14.867374499999999 26.896868499999997 20.6228835
14.810840499999998 26.873051499999995 27.0688945
20.837633499999995 14.646719499999998 14.965632499999998
20.9191255 15.047288499999997 21.168912499999998
20.611495499999997 14.908729499999998 27.0401545
21.0911205 20.7748565 14.952502499999998
21.1141085 20.7209055 20.8620685
20.7195625 26.5806515 15.024551499999998
21.094525499999996 26.7678685 21.116986499999996
20.750517499999997 27.094781499999996 26.7873155
26.922447499999997 15.023409499999998 14.749426499999998
27.0751735 15.084834499999998 20.7693755
26.868204499999997 15.076215499999998 26.557698499999997
26.686195499999997 20.949519499999997 14.673915499999998
26.813875499999998 21.1317825 20.7689065
26.6837685 20.8669965 27.004181499999998
27.0298125 27.017261499999996 14.714308499999998
27.037023499999997 26.6786715 20.806461499999997
26.668079499999997 26.996368499999996 26.6661765
15.086930499999998 27.012381499999996 15.087772499999998
15.105758499999999 20.7340375 26.9946225
21.1378365 20.961733499999998 26.879392499999998
15.193492499999998 20.9961785 14.836370499999997
15.105519499999998 14.7530215 26.8311045
14.713371499999997 14.935885499999998 21.175715499999995
14.721171499999997 20.9069905 21.0438385
