1_train/49_cspbbr3_methylammonium_3_0.60\49_cspbbr3_methylammonium_3_0.60.xyz
1.0
41.910578 0 0
0 41.910578 0
0 0 41.910578
Br C Cs H N Pb 
108 28 26 168 28 27 
Cartesian
26.91338 15.165576 30.016083
29.810057 20.968532999999997 14.801084
23.87904 14.879732 27.037113
26.87165 12.177227 27.051757
27.068134 15.152879 23.742195
12.038065 14.899781 20.694709
23.816905000000002 14.80862 21.074614999999998
26.750986 11.916762 21.184617
27.069846000000002 15.235721999999999 17.905807
15.113301 12.238653 21.112694
15.207667 21.156516 23.984721
27.047253 12.214891999999999 14.889915
26.728918 15.148282 12.023161
15.201518 14.850767 23.921144
20.798230999999998 29.796785 26.767031
20.863015 29.772887 20.764438000000002
20.894851 30.078797 14.922602999999999
21.091282 26.764286000000002 29.920554
29.681176 21.045132 20.768535
17.948882 26.781895000000002 27.1148
20.992887 23.796981 26.663332999999998
20.925023 26.6618 23.893263
15.020161 11.895294 27.024637000000002
23.840275000000002 15.111995 14.791492
26.995909 21.134949000000002 12.213651
23.79093 21.052903 14.868387
29.811452 20.797328 26.967795
27.014776 26.922089 29.724819
26.848184 29.709867 26.79534
23.852523 26.852346 26.669287999999998
27.027618 23.730349 26.752585
27.062648 26.969531 23.867426
14.910987 15.169497 11.84891
30.014183 14.866178 15.041516
24.031603 26.756353999999998 21.184396
26.875697 23.860379 20.712258000000002
26.991263 26.670995 17.816065000000002
14.946567 11.891896 14.855019
23.87013 26.688723 14.892859999999999
26.737645 23.777085 15.090976999999999
27.072369 27.002321 12.216183
12.136547 14.870751 15.194499
26.82001 20.820212 30.075295
29.805955 14.753791 20.817198
23.839964 20.943825999999998 27.141527
27.0466 17.763009 26.92428
26.70741 21.076795 24.070733999999998
24.017872 20.914337999999997 20.794179
27.079542999999997 17.892496 20.747488
26.72552 20.822473 18.12332
15.273392 15.108499 18.000348
29.717482 15.143882 26.788482
26.982184999999998 17.816843 15.004064
18.167572 26.716445 20.879622
20.981059 24.150571 20.844396999999997
21.071403 14.84302 17.76843
11.920961 21.050248 15.136515
17.883005 15.136778 15.13731
21.209671 12.115245 14.984233
20.999553000000002 14.929174 11.863467
30.120411 27.000339 26.934718
14.844762 29.848803 27.037769
14.825462 29.941401 20.817753999999997
14.801421999999999 29.990466 15.071822
15.210522 27.031215 30.047513
12.021993 27.151469000000002 26.917449
15.151045 24.084977 26.711508
20.802173999999997 27.048194 18.133834
14.802800999999999 27.031861 23.926864
11.805189 26.996432000000002 21.02551
15.123232 23.812414999999998 20.884032
14.967578 26.754078 17.816985
14.984299 18.20081 20.982065000000002
12.119488 26.700236 15.144947
15.197591 23.898144 15.202358
15.176672 26.971538 12.161821
11.832063 21.052232999999998 20.906525
15.077168 21.143749 30.080982
12.246175 20.783441999999997 26.954575000000002
15.001007999999999 17.746557 26.764553
15.046945 20.97319 18.197205999999998
21.019547 12.214774 21.159499
26.69738 30.012881 20.965318999999997
15.197905 17.918861 14.795112
11.902359 15.190071 26.852628
17.768296 26.926199999999998 15.09089
21.032765 24.083038 14.87342
20.821828999999997 26.999988 12.252119
14.891282 14.857194 29.884352
21.036084 20.86514 30.096385
17.84817 20.973139 26.728998999999998
21.065403999999997 18.084779 26.748761
20.743263000000002 20.843676 23.892388999999998
26.704778 29.972544 14.943365
18.108194 15.132904 21.045114
18.153797 20.863184 20.905824
29.845199 26.69828 14.802723
21.126954 20.981967 17.775553
29.843065 26.860615 20.70544
18.042821 20.795094000000002 14.785471
20.788666 17.767523 14.942149
21.102742 15.190928 24.026297
21.094891999999998 20.822284999999997 12.063752
15.102965 21.044719 12.163269
21.125425 18.107131 20.825332
21.11154 15.065343 30.022558
18.08727 14.947817 27.065577
20.769583 12.039382999999999 27.121454
18.017028 23.968793 10.64672
10.937759 11.019991 18.044526
10.945703 23.993728 30.88945
23.904450999999998 18.024498 10.490599
18.015703 31.326164 23.869148
23.934431 10.467246 23.891935999999998
23.861061 30.897387 10.963177
18.033205 10.489316 17.989037
30.865484 17.938925 30.964236
31.414196 23.89115 18.000483
23.873921 30.882047 30.991527
10.598926 23.976228 17.920777
31.408536 18.030462 23.996295999999997
10.989646 17.905388 11.025557
18.075952 18.020125 31.390825
23.886433 11.034769 11.022332
17.909418 30.926007 10.919858999999999
17.9497 30.955709 30.833163
17.993724 31.38163 17.879118
10.902196 30.937645 23.952295
11.036265 30.871017 17.907172
23.865829 23.995825 10.606595
10.598566 18.052637999999998 17.937136
17.991881 10.907506999999999 30.995205
30.939384 18.030321 11.043362
23.949006999999998 10.483515 18.059786
10.531365 24.001600999999997 23.936445
10.947395 10.935516999999999 23.879492
29.817782 23.497587 12.215054
29.879264 30.078298 17.632723
30.23707 23.569197 23.793260999999998
29.570581 12.311579 23.784386
30.152893 11.906666 18.201867
30.436338 24.147821 29.862531999999998
29.610244 29.824206 23.511633
23.551727 29.674454 24.066810999999998
18.239234 17.725163000000002 11.80621
11.801394 18.338485 24.173531
12.457303 17.774445 29.70693
12.214627 23.942045 11.685598
17.977346 12.037316 12.54349
18.123985 17.878681 17.491869
18.263154 18.237528 23.757975
18.140052999999998 23.794236 17.554767
18.158559999999998 24.228582 23.64149
24.022327999999998 30.034057999999998 17.59307
23.576959 11.805325 30.313527
24.22834 18.179489999999998 17.845401
23.847793 18.485967 23.969154
24.188472 17.691276000000002 29.783284
23.706066 24.201437000000002 18.127974
24.162730999999997 23.888926 23.387325
23.961999000000002 24.324107 30.054112
17.718981 24.071752 30.14049
30.62394 18.636913 31.730097
10.197515 22.958243 18.297072
12.432173 23.206343999999998 17.31482
18.787043999999998 12.413952 18.437321999999998
12.428317 23.731464 18.91421
12.419452 24.858509 17.734052
10.033439999999999 11.449425999999999 24.069301
10.991785 10.487741 22.925037
11.194911 10.264141 24.763113
10.21949 24.674526 18.664001
10.205722 24.146963 16.994686
17.947927 10.24529 19.034972
12.057732 12.546918999999999 24.862918
11.858934 12.737175 23.159471999999997
29.000965 17.681764 30.277646999999998
18.008596 12.439496 17.035624
29.735581 18.900709 29.467342
17.116194 12.38377 18.431508
30.131152 17.327939 29.065552
17.127445 10.215139 17.447553
31.841727 18.358876 30.457432
18.876016 10.196363999999999 17.487979
31.055248 16.938575 31.284662
12.999181 11.645577 23.806169999999998
29.484687 17.644189 24.81579
31.660191 24.951044 18.036359
11.619254 23.990779999999997 28.97229
12.614923 23.090213000000002 29.884209
12.688492 24.754628999999998 30.000765
24.003669 16.954727 10.177617999999999
22.957189 18.436417 10.22456
24.788439999999998 18.550256 10.189221
23.814294 18.945138 12.409058
24.762361000000002 17.557389 12.418158
23.175366999999998 17.451163 12.42459
10.243019 18.749406 17.277293999999998
10.190221 16.968723 17.630161
10.192681 18.163119 18.996341
12.425329 17.251157 18.570933999999998
12.378892 18.902697 18.303631
12.37341 17.819372 17.064102
10.252675 23.783642 24.971527
10.252891 24.87105 23.548919
10.219912 23.086399 23.248743
12.442655 24.070725 22.992065999999998
10.355632 23.102344 30.758112
10.432101 24.841345 30.852248
11.510371 23.814435 31.910362
24.377309 30.224237 12.886797999999999
31.718168 23.391477 18.866324
29.505887 24.357557 18.862753
29.487768 23.00603 17.967736
29.546571 24.435272 17.14872
23.74518 9.996513 11.490378
23.154477 11.229773 10.294958
24.907115 10.991147 10.45296
24.045781 12.952626 11.654937
24.67112 11.890903999999999 12.74509
31.70327 23.446659999999998 17.031542
23.020037 12.023276 12.550205
31.694653 18.648492 24.687712
31.717299 16.985739 24.129869
29.528055 17.374077 23.186451
29.522372 18.946315 23.775859
23.364098000000002 31.791688999999998 11.372
24.958004 31.22805 10.768585
23.490653 30.515623 10.057577
24.445945 29.043254 11.707765
22.947619 29.538111 12.261738
31.683131 18.331791 22.980653999999998
30.172417 17.410125 12.867694
17.370888 30.096046 29.088309
29.017199 17.531973 11.653519
22.99926 10.247625 24.332857
24.050955 10.216187999999999 22.881596
24.751031 10.25075 24.509805
24.818831 12.381694 23.547473999999998
23.858414 12.378277 24.910495
23.116052 12.430456 23.393224999999997
10.644417 10.875708 16.991255
11.448739 10.024588 18.335009
10.224294 11.329905 18.663354
12.405433 23.06855 24.254115000000002
12.390765 12.196742 18.920204000000002
12.82767 11.785544999999999 17.328013
18.955988 24.170365 10.213194999999999
17.728743 22.944131000000002 10.220793
17.253867 24.687844000000002 10.18869
17.074491000000002 23.701137 12.435595
18.270796 24.877374 12.409877999999999
18.616647 23.217135 12.413568999999999
24.247901000000002 30.486174 31.890649
24.657421 31.671312 30.609753
11.684777 12.949779 17.633499
22.93576 31.287196 31.003926
18.921735 29.759142 29.472374
18.619837 30.602546 31.750967
17.584265 10.052046 30.4717
19.023322 10.864986 31.229292
17.37081 11.363071999999999 31.793259
18.406995 12.927510999999999 30.244101
17.04897 12.261726 29.562952
18.521668000000002 11.749045 29.042089
24.045392 10.21149 16.916269
24.749804 10.203893 18.617490999999998
23.013201 10.228261 18.398768
17.66678 28.942438 30.253163999999998
23.785677 12.395377 18.923419
24.808937 12.366194 17.582705
24.698404999999998 23.297492000000002 10.225528
22.950965999999998 23.601886 10.193508999999999
24.09336 24.939992999999998 10.191654999999999
23.188288 24.571861000000002 12.375626
24.852644 24.27905 12.416427
23.795672 23.013121 12.415423
18.329272 31.885101 30.450655
16.955176 31.031821 31.244581
23.120144 12.426878 17.419774
23.626731 30.247155 28.989861
23.284027 29.10072 30.144652
24.848491 29.432036 29.74554
17.046630999999998 31.676397 18.354053
18.788992 31.721815 18.637596
17.850985 29.474507 18.949977
18.871362 29.487978 17.637321
17.197932 29.497408 17.372631
16.929575 31.723596999999998 23.811086
18.430697 31.717249 24.860806
18.587727 31.694336 23.04817
18.954467 29.493652 23.990292
18.147453 31.675940999999998 16.96066
17.604993 29.496332 23.043287
10.251559 30.676362 23.099194999999998
10.485042 30.953974 24.906831999999998
11.471085 31.855184 23.757035
12.71674 30.054528 24.688098
12.554355 29.820771999999998 23.051962
11.632517 28.974727 24.125176999999997
31.844609 18.466854 11.426356
31.131586 16.912989 10.720981
30.535854 18.579608 10.116814999999999
17.451117 29.522809 24.729958
18.933158 17.754754 29.532113
17.380154 17.253045999999998 29.499241
17.706440999999998 18.891057 29.468571
10.871668 16.956663 10.610135
10.065139 18.309981 11.487194
11.264028999999999 18.675733 10.206606
12.177793 18.900508 12.449393
12.920247 17.707262 11.6415
11.755404 17.319528 12.817033
18.892373 31.46968 11.037247
17.854083 30.432806 9.999784
17.115154 31.61065 11.173422
17.137065 29.31988 12.047981
18.080403999999998 30.308139999999998 12.998245
18.781678 29.225608 11.862773
10.821165 31.210471 16.916663
10.08407 30.466072 18.439702
11.365207999999999 31.741598 18.609801
12.196044 29.551119 18.932790999999998
12.886944 30.252012 17.577745999999998
11.763462 29.040262 17.393813
18.290757 17.016814 31.655961
18.690359 18.783749 31.661441
16.988582 18.184368 31.715927
29.645414 18.957165 12.37683
12.380856 24.694705 24.554405
12.051923 11.971892 23.862863
23.913707 12.126646 17.986403
24.001543 29.925089 29.897444
11.977234 23.881459 23.876088
12.079879 23.933929 17.92734
12.096038 29.909799 23.886131000000002
17.959524000000002 23.895335 11.950692
29.898797 18.033558 11.97538
12.102351 17.91411 12.026123
17.974477999999998 17.954105 29.808542
23.880717999999998 11.976132 12.003938999999999
29.946869 17.91573 29.905836
17.92417 12.074872 29.952245
17.937466999999998 29.87479 12.10766
29.943314 24.012004 17.999305
29.935681 17.919176999999998 23.912285999999998
18.047503 29.895656 17.961019999999998
23.910362 29.867006 12.120391999999999
12.090285999999999 29.937357 17.970332
12.019155 17.876659 17.960969
17.962149 12.073793 18.046861
11.964162 12.060887 17.994214
23.971785999999998 12.006128 23.86327
18.010976 29.922805 29.830851
23.937448 23.978344 11.961497
12.003137 23.869431000000002 29.817706
23.894952999999997 18.070726 12.060938
18.001969 29.967798 23.90369
15.175775 15.196892 14.947317
15.138187 27.012103999999997 21.144999000000002
15.240381 26.695525999999997 27.067216
20.890082 14.733711 14.795727
20.830896 14.744976 20.819751
21.193234999999998 14.921469 26.739704999999997
20.785469 20.753252 14.865084
21.149759 20.961025 20.798734
20.773311 27.088701 15.212797
21.206974 26.972944000000002 21.188681
20.70393 26.720688 26.994459
27.068805 14.817414 15.157359
27.000488999999998 15.134398 21.189118
27.142551 14.869647 27.101014
26.640891 21.054137 14.81158
27.013109 20.789434 20.798444999999997
26.63974 20.727284 26.823311
26.8157 26.729411 15.118618
27.075568 26.73486 20.854069
26.817643999999998 27.153023 26.874518
15.014501 27.137958 14.78364
14.985994999999999 21.230472000000002 26.738595999999998
20.940483 21.190554000000002 27.17297
15.071349999999999 21.232141000000002 14.888822
15.174419 21.160774 21.005664
14.734301 15.072934 20.930103
14.844323 14.922459 27.206412
