3_train/280_cspbbr3_MA-GSH_3_0.20\280_cspbbr3_MA-GSH_3_0.20.xyz
1.0
59.211526 0 0
0 59.211526 0
0 0 59.211526
Br C Cs H N O Pb S 
96 130 44 264 46 72 27 12 
Cartesian
23.655763 23.655763 20.680763
23.655763 20.680763 23.655763
23.655763 23.655763 26.630762999999998
23.655763 20.680763 29.605763
20.680763 23.655763 29.605763
23.655763 23.655763 32.580763
23.655763 20.680763 35.555763
20.680763 23.655763 35.555763
23.655763 23.655763 38.530763
23.655763 26.630762999999998 23.655763
20.680763 29.605763 23.655763
23.655763 29.605763 26.630762999999998
23.655763 26.630762999999998 29.605763
20.680763 29.605763 29.605763
23.655763 29.605763 32.580763
23.655763 26.630762999999998 35.555763
20.680763 29.605763 35.555763
23.655763 29.605763 38.530763
23.655763 35.555763 20.680763
23.655763 32.580763 23.655763
20.680763 35.555763 23.655763
23.655763 35.555763 26.630762999999998
23.655763 32.580763 29.605763
20.680763 35.555763 29.605763
23.655763 35.555763 32.580763
23.655763 32.580763 35.555763
23.655763 35.555763 38.530763
23.655763 38.530763 23.655763
23.655763 38.530763 29.605763
23.655763 38.530763 35.555763
29.605763 23.655763 20.680763
29.605763 20.680763 23.655763
26.630762999999998 23.655763 23.655763
29.605763 23.655763 26.630762999999998
29.605763 20.680763 29.605763
26.630762999999998 23.655763 29.605763
29.605763 23.655763 32.580763
29.605763 20.680763 35.555763
26.630762999999998 23.655763 35.555763
29.605763 29.605763 20.680763
29.605763 26.630762999999998 23.655763
26.630762999999998 29.605763 23.655763
29.605763 29.605763 26.630762999999998
29.605763 26.630762999999998 29.605763
26.630762999999998 29.605763 29.605763
29.605763 29.605763 32.580763
29.605763 26.630762999999998 35.555763
26.630762999999998 29.605763 35.555763
29.605763 29.605763 38.530763
29.605763 32.580763 23.655763
26.630762999999998 35.555763 23.655763
29.605763 35.555763 26.630762999999998
29.605763 32.580763 29.605763
26.630762999999998 35.555763 29.605763
29.605763 35.555763 32.580763
29.605763 32.580763 35.555763
26.630762999999998 35.555763 35.555763
29.605763 35.555763 38.530763
29.605763 38.530763 29.605763
29.605763 38.530763 35.555763
35.555763 23.655763 20.680763
32.580763 23.655763 23.655763
35.555763 23.655763 26.630762999999998
32.580763 23.655763 29.605763
35.555763 23.655763 32.580763
35.555763 20.680763 35.555763
32.580763 23.655763 35.555763
35.555763 23.655763 38.530763
35.555763 29.605763 20.680763
35.555763 26.630762999999998 23.655763
32.580763 29.605763 23.655763
35.555763 29.605763 26.630762999999998
35.555763 26.630762999999998 29.605763
32.580763 29.605763 29.605763
35.555763 29.605763 32.580763
35.555763 26.630762999999998 35.555763
32.580763 29.605763 35.555763
35.555763 35.555763 20.680763
35.555763 32.580763 23.655763
32.580763 35.555763 23.655763
35.555763 35.555763 26.630762999999998
35.555763 32.580763 29.605763
32.580763 35.555763 29.605763
35.555763 35.555763 32.580763
35.555763 32.580763 35.555763
32.580763 35.555763 35.555763
35.555763 35.555763 38.530763
35.555763 38.530763 29.605763
35.555763 38.530763 35.555763
38.530763 23.655763 23.655763
38.530763 23.655763 29.605763
38.530763 23.655763 35.555763
38.530763 29.605763 23.655763
38.530763 35.555763 23.655763
38.530763 35.555763 29.605763
38.530763 35.555763 35.555763
29.011237 22.353786999999997 40.491977
29.03587 22.696309 39.021249999999995
29.582563 23.438489999999998 42.595310999999995
30.260714 24.645474 43.262938
29.588361 25.990555999999998 42.882920999999996
31.015926999999998 25.110311 45.545006
30.900996999999997 24.724757999999998 47.010982999999996
31.010647 25.945895999999998 47.924645
30.856136999999997 25.573985 49.409456
31.335017999999998 26.747376 50.275962
34.961237 28.303787 40.491977
34.98587 28.646309 39.021249999999995
35.532562999999996 29.388489999999997 42.595310999999995
36.210713999999996 30.595474 43.262938
35.538360999999995 31.940556 42.882920999999996
36.965927 31.060311 45.545006
36.850997 30.674757999999997 47.010982999999996
36.960646999999994 31.895896 47.924645
36.806137 31.523985 49.409456
37.285017999999994 32.697376 50.275962
30.200288999999998 34.253787 18.719549
30.175655999999996 34.596309 20.190275999999997
29.628963 35.33849 16.616214999999997
28.950812 36.545474 15.948587999999999
29.623165 37.890556000000004 16.328605
28.195598999999998 37.010311 13.666519999999998
28.310529 36.624758 12.200543
28.200879 37.845895999999996 11.286881
28.355389 37.473985 9.802069999999999
27.876507999999998 38.647375999999994 8.935564
24.250289 28.303787 18.719549
24.225656 28.646309 20.190275999999997
23.678963 29.388489999999997 16.616214999999997
23.000812 30.595474 15.948587999999999
23.673164999999997 31.940556 16.328605
22.245599 31.060311 13.666519999999998
22.360529 30.674757999999997 12.200543
22.250878999999998 31.895896 11.286881
22.405389 31.523985 9.802069999999999
21.926508 32.697376 8.935564
18.719549 34.253787 34.961237
20.190275999999997 34.596309 34.98587
16.616214999999997 35.33849 35.532562999999996
15.948587999999999 36.545474 36.210713999999996
16.328605 37.890556000000004 35.538360999999995
13.666519999999998 37.010311 36.965927
12.200543 36.624758 36.850997
11.286881 37.845895999999996 36.960646999999994
9.802069999999999 37.473985 36.806137
8.935564 38.647375999999994 37.285017999999994
18.719549 22.353786999999997 23.061237
20.190275999999997 22.696309 23.08587
16.616214999999997 23.438489999999998 23.632562999999998
15.948587999999999 24.645474 24.310713999999997
16.328605 25.990555999999998 23.638361
13.666519999999998 25.110311 25.065927
12.200543 24.724757999999998 24.950997
11.286881 25.945895999999998 25.060647
9.802069999999999 25.573985 24.906137
8.935564 26.747376 25.385018
40.491977 28.303787 30.200288999999998
39.021249999999995 28.646309 30.175655999999996
42.595310999999995 29.388489999999997 29.628963
43.262938 30.595474 28.950812
42.882920999999996 31.940556 29.623165
45.545006 31.060311 28.195598999999998
47.010982999999996 30.674757999999997 28.310529
47.924645 31.895896 28.200879
49.409456 31.523985 28.355389
50.275962 32.697376 27.876507999999998
40.491977 28.303787 36.150289
39.021249999999995 28.646309 36.125656
42.595310999999995 29.388489999999997 35.578963
43.262938 30.595474 34.900812
42.882920999999996 31.940556 35.573165
45.545006 31.060311 34.145599
47.010982999999996 30.674757999999997 34.260529
47.924645 31.895896 34.150879
49.409456 31.523985 34.305389
50.275962 32.697376 33.826508
34.961237 18.719549 28.303787
34.98587 20.190275999999997 28.646309
35.532562999999996 16.616214999999997 29.388489999999997
36.210713999999996 15.948587999999999 30.595474
35.538360999999995 16.328605 31.940556
36.965927 13.666519999999998 31.060311
36.850997 12.200543 30.674757999999997
36.960646999999994 11.286881 31.895896
36.806137 9.802069999999999 31.523985
37.285017999999994 8.935564 32.697376
34.961237 18.719549 22.353786999999997
34.98587 20.190275999999997 22.696309
35.532562999999996 16.616214999999997 23.438489999999998
36.210713999999996 15.948587999999999 24.645474
35.538360999999995 16.328605 25.990555999999998
36.965927 13.666519999999998 25.110311
36.850997 12.200543 24.724757999999998
36.960646999999994 11.286881 25.945895999999998
36.806137 9.802069999999999 25.573985
37.285017999999994 8.935564 26.747376
29.011237 40.491977 24.957739
29.03587 39.021249999999995 24.615217
29.582563 42.595310999999995 23.873036
30.260714 43.262938 22.666052
29.588361 42.882920999999996 21.32097
31.015926999999998 45.545006 22.201214999999998
30.900996999999997 47.010982999999996 22.586768
31.010647 47.924645 21.36563
30.856136999999997 49.409456 21.737541
31.335017999999998 50.275962 20.564149999999998
34.961237 40.491977 24.957739
34.98587 39.021249999999995 24.615217
35.532562999999996 42.595310999999995 23.873036
36.210713999999996 43.262938 22.666052
35.538360999999995 42.882920999999996 21.32097
36.965927 45.545006 22.201214999999998
36.850997 47.010982999999996 22.586768
36.960646999999994 47.924645 21.36563
36.806137 49.409456 21.737541
37.285017999999994 50.275962 20.564149999999998
19.205102 32.580763 32.580763
26.630762999999998 26.630762999999998 19.205102
26.630762999999998 40.006423999999996 26.630762999999998
32.580763 19.637313 19.637313
32.580763 19.205102 26.630762999999998
32.580763 26.630762999999998 40.006423999999996
32.580763 32.580763 19.205102
32.580763 40.006423999999996 26.630762999999998
40.006423999999996 26.630762999999998 32.580763
39.574213 26.630762999999998 39.574213
20.680763 20.680763 26.630762999999998
20.680763 20.680763 32.580763
20.680763 26.630762999999998 20.680763
20.680763 26.630762999999998 26.630762999999998
20.680763 26.630762999999998 32.580763
20.680763 26.630762999999998 38.530763
20.680763 32.580763 26.630762999999998
20.680763 32.580763 38.530763
20.680763 38.530763 26.630762999999998
20.680763 38.530763 32.580763
26.630762999999998 20.680763 20.680763
26.630762999999998 20.680763 26.630762999999998
26.630762999999998 20.680763 32.580763
26.630762999999998 26.630762999999998 26.630762999999998
26.630762999999998 26.630762999999998 32.580763
26.630762999999998 26.630762999999998 38.530763
26.630762999999998 32.580763 20.680763
26.630762999999998 32.580763 26.630762999999998
26.630762999999998 32.580763 32.580763
26.630762999999998 32.580763 38.530763
26.630762999999998 38.530763 20.680763
26.630762999999998 38.530763 32.580763
26.630762999999998 38.530763 38.530763
32.580763 20.680763 32.580763
32.580763 20.680763 38.530763
32.580763 26.630762999999998 20.680763
32.580763 26.630762999999998 26.630762999999998
32.580763 26.630762999999998 32.580763
32.580763 32.580763 26.630762999999998
32.580763 32.580763 32.580763
32.580763 32.580763 38.530763
32.580763 38.530763 20.680763
32.580763 38.530763 32.580763
32.580763 38.530763 38.530763
38.530763 20.680763 26.630762999999998
38.530763 20.680763 32.580763
38.530763 26.630762999999998 20.680763
38.530763 26.630762999999998 26.630762999999998
38.530763 32.580763 20.680763
38.530763 32.580763 26.630762999999998
38.530763 32.580763 32.580763
38.530763 32.580763 38.530763
38.530763 38.530763 26.630762999999998
38.530763 38.530763 32.580763
29.487591 21.366160999999998 40.628311999999994
28.401127 22.053598 37.358365
27.967509 22.229118999999997 40.827109
30.097076 24.165763 40.726608
31.320273 24.702092 42.959418
28.492948 25.886492999999998 42.879654
29.86256 26.733044999999997 43.641883
31.303156 26.980393 41.576429
29.605763 23.655763 44.991256
31.733052 24.031746 47.230250999999996
29.967773 24.177259 47.210802
30.228493 26.68018 47.66191
31.976786999999998 26.443956999999997 47.766469
31.581559 24.768195 49.628052999999994
28.822178 25.788849 49.534782
29.430168 24.755219999999998 50.648134
30.830159 27.866516999999998 51.711526
35.437591 27.316161 40.628311999999994
34.351127 28.003598 37.358365
33.917508999999995 28.179119 40.827109
36.047076 30.115763 40.726608
37.270273 30.652092 42.959418
34.442948 31.836492999999997 42.879654
35.81256 32.683045 43.641883
37.253156000000004 32.930392999999995 41.576429
35.555763 29.605763 44.991256
37.683052 29.981746 47.230250999999996
35.917773 30.127259 47.210802
36.178493 32.630179999999996 47.66191
37.926787 32.393957 47.766469
37.531559 30.718195 49.628052999999994
34.772178 31.738849 49.534782
35.380168 30.705219999999997 50.648134
36.780159 33.816517 51.711526
29.723934999999997 33.266161 18.583213999999998
30.810398999999997 33.953598 21.853161
31.244017 34.129119 18.384417
29.114449999999998 36.065763 18.484918
27.891253 36.602092 16.252108
30.718578 37.786493 16.331871999999997
29.348965999999997 38.633044999999996 15.569643
27.908369999999998 38.880393 17.635097
29.605763 35.555763 14.22027
27.478474 35.931746 11.981274999999998
29.243752999999998 36.077259 12.000723999999998
28.983033 38.58018 11.549615999999999
27.234738999999998 38.343957 11.445056999999998
27.629967 36.668195 9.583473
30.389348 37.688849 9.676744
29.781357999999997 36.65522 8.563391999999999
28.381366999999997 39.766517 7.499999999999998
23.773934999999998 27.316161 18.583213999999998
24.860399 28.003598 21.853161
25.294017 28.179119 18.384417
23.16445 30.115763 18.484918
21.941253 30.652092 16.252108
24.768577999999998 31.836492999999997 16.331871999999997
23.398965999999998 32.683045 15.569643
21.95837 32.930392999999995 17.635097
23.655763 29.605763 14.22027
21.528474 29.981746 11.981274999999998
23.293753 30.127259 12.000723999999998
23.033033 32.630179999999996 11.549615999999999
21.284739 32.393957 11.445056999999998
21.679966999999998 30.718195 9.583473
24.439348 31.738849 9.676744
23.831357999999998 30.705219999999997 8.563391999999999
22.431366999999998 33.816517 7.499999999999998
18.583213999999998 33.266161 35.437591
21.853161 33.953598 34.351127
18.384417 34.129119 33.917508999999995
18.484918 36.065763 36.047076
16.252108 36.602092 37.270273
16.331871999999997 37.786493 34.442948
15.569643 38.633044999999996 35.81256
17.635097 38.880393 37.253156000000004
14.22027 35.555763 35.555763
11.981274999999998 35.931746 37.683052
12.000723999999998 36.077259 35.917773
11.549615999999999 38.58018 36.178493
11.445056999999998 38.343957 37.926787
9.583473 36.668195 37.531559
9.676744 37.688849 34.772178
8.563391999999999 36.65522 35.380168
7.499999999999998 39.766517 36.780159
18.583213999999998 21.366160999999998 23.537591
21.853161 22.053598 22.451127
18.384417 22.229118999999997 22.017508999999997
18.484918 24.165763 24.147076
16.252108 24.702092 25.370272999999997
16.331871999999997 25.886492999999998 22.542948
15.569643 26.733044999999997 23.91256
17.635097 26.980393 25.353156
14.22027 23.655763 23.655763
11.981274999999998 24.031746 25.783051999999998
12.000723999999998 24.177259 24.017773
11.549615999999999 26.68018 24.278492999999997
11.445056999999998 26.443956999999997 26.026787
9.583473 24.768195 25.631559
9.676744 25.788849 22.872177999999998
8.563391999999999 24.755219999999998 23.480168
7.499999999999998 27.866516999999998 24.880159
40.628311999999994 27.316161 29.723934999999997
37.358365 28.003598 30.810398999999997
40.827109 28.179119 31.244017
40.726608 30.115763 29.114449999999998
42.959418 30.652092 27.891253
42.879654 31.836492999999997 30.718578
43.641883 32.683045 29.348965999999997
41.576429 32.930392999999995 27.908369999999998
44.991256 29.605763 29.605763
47.230250999999996 29.981746 27.478474
47.210802 30.127259 29.243752999999998
47.66191 32.630179999999996 28.983033
47.766469 32.393957 27.234738999999998
49.628052999999994 30.718195 27.629967
49.534782 31.738849 30.389348
50.648134 30.705219999999997 29.781357999999997
51.711526 33.816517 28.381366999999997
40.628311999999994 27.316161 35.673935
37.358365 28.003598 36.760399
40.827109 28.179119 37.194017
40.726608 30.115763 35.06445
42.959418 30.652092 33.841252999999995
42.879654 31.836492999999997 36.668578
43.641883 32.683045 35.298966
41.576429 32.930392999999995 33.85837
44.991256 29.605763 35.555763
47.230250999999996 29.981746 33.428474
47.210802 30.127259 35.193753
47.66191 32.630179999999996 34.933032999999995
47.766469 32.393957 33.184739
49.628052999999994 30.718195 33.579966999999996
49.534782 31.738849 36.339348
50.648134 30.705219999999997 35.731358
51.711526 33.816517 34.331367
35.437591 18.583213999999998 27.316161
34.351127 21.853161 28.003598
33.917508999999995 18.384417 28.179119
36.047076 18.484918 30.115763
37.270273 16.252108 30.652092
34.442948 16.331871999999997 31.836492999999997
35.81256 15.569643 32.683045
37.253156000000004 17.635097 32.930392999999995
35.555763 14.22027 29.605763
37.683052 11.981274999999998 29.981746
35.917773 12.000723999999998 30.127259
36.178493 11.549615999999999 32.630179999999996
37.926787 11.445056999999998 32.393957
37.531559 9.583473 30.718195
34.772178 9.676744 31.738849
35.380168 8.563391999999999 30.705219999999997
36.780159 7.499999999999998 33.816517
35.437591 18.583213999999998 21.366160999999998
34.351127 21.853161 22.053598
33.917508999999995 18.384417 22.229118999999997
36.047076 18.484918 24.165763
37.270273 16.252108 24.702092
34.442948 16.331871999999997 25.886492999999998
35.81256 15.569643 26.733044999999997
37.253156000000004 17.635097 26.980393
35.555763 14.22027 23.655763
37.683052 11.981274999999998 24.031746
35.917773 12.000723999999998 24.177259
36.178493 11.549615999999999 26.68018
37.926787 11.445056999999998 26.443956999999997
37.531559 9.583473 24.768195
34.772178 9.676744 25.788849
35.380168 8.563391999999999 24.755219999999998
36.780159 7.499999999999998 27.866516999999998
29.487591 40.628311999999994 25.945365
28.401127 37.358365 25.257928
27.967509 40.827109 25.082407
30.097076 40.726608 23.145763
31.320273 42.959418 22.609434
28.492948 42.879654 21.425033
29.86256 43.641883 20.578481
31.303156 41.576429 20.331132999999998
29.605763 44.991256 23.655763
31.733052 47.230250999999996 23.27978
29.967773 47.210802 23.134267
30.228493 47.66191 20.631346
31.976786999999998 47.766469 20.867569
31.581559 49.628052999999994 22.543331
28.822178 49.534782 21.522676999999998
29.430168 50.648134 22.556306
30.830159 51.711526 19.445009
35.437591 40.628311999999994 25.945365
34.351127 37.358365 25.257928
33.917508999999995 40.827109 25.082407
36.047076 40.726608 23.145763
37.270273 42.959418 22.609434
34.442948 42.879654 21.425033
35.81256 43.641883 20.578481
37.253156000000004 41.576429 20.331132999999998
35.555763 44.991256 23.655763
37.683052 47.230250999999996 23.27978
35.917773 47.210802 23.134267
36.178493 47.66191 20.631346
37.926787 47.766469 20.867569
37.531559 49.628052999999994 22.543331
34.772178 49.534782 21.522676999999998
35.380168 50.648134 22.556306
36.780159 51.711526 19.445009
18.871181 31.579901 32.860762
18.871181 33.323681 33.307536
18.871181 32.838707 31.573991
21.055505 33.503163 32.322714
21.055505 31.896085999999997 31.910966
21.055505 32.34304 33.508609
26.350763999999998 25.629900999999997 18.871181
25.90399 27.373680999999998 18.871181
27.637535 26.888707 18.871181
26.888811999999998 27.553162999999998 21.055505
27.300559999999997 25.946086 21.055505
25.702917 26.39304 21.055505
26.910762 40.340345 27.631625
27.357536 40.340345 25.887845
25.623991 40.340345 26.372819
26.372714 38.156020999999996 25.708363
25.960966 38.156020999999996 27.31544
27.558608999999997 38.156020999999996 26.868485999999997
32.860762 20.108912 18.693479
33.307536 18.875873 19.926517999999998
31.573991 19.218801 19.58359
32.322714 20.293509999999998 21.597980999999997
31.910966 21.429885 20.461606
33.508609 21.113841 20.777649999999998
32.860762 18.871181 25.629900999999997
33.307536 18.871181 27.373680999999998
31.573991 18.871181 26.888707
32.322714 21.055505 27.553162999999998
31.910966 21.055505 25.946086
33.508609 21.055505 26.39304
32.860762 25.629900999999997 40.340345
33.307536 27.373680999999998 40.340345
31.573991 26.888707 40.340345
32.322714 27.553162999999998 38.156020999999996
31.910966 25.946086 38.156020999999996
33.508609 26.39304 38.156020999999996
32.300764 31.579901 18.871181
31.85399 33.323681 18.871181
33.587535 32.838707 18.871181
32.838812 33.503163 21.055505
33.25056 31.896085999999997 21.055505
31.652917 32.34304 21.055505
32.860762 40.340345 27.631625
33.307536 40.340345 25.887845
31.573991 40.340345 26.372819
32.322714 38.156020999999996 25.708363
31.910966 38.156020999999996 27.31544
33.508609 38.156020999999996 26.868485999999997
40.340345 25.629900999999997 32.300764
40.340345 27.373680999999998 31.85399
40.340345 26.888707 33.587535
38.156020999999996 27.553162999999998 32.838812
38.156020999999996 25.946086 33.25056
38.156020999999996 26.39304 31.652917
40.00832 25.629900999999997 39.612341
40.324236 27.373680999999998 39.296425
39.098434999999995 26.888707 40.522226
38.083312 27.553162999999998 38.448249000000004
37.792162 25.946086 38.739397999999994
38.921867 26.39304 37.609694
29.687475 23.381023 41.247004000000004
30.193841 24.436035999999998 44.691182
29.518844 25.051441999999998 49.673856
35.637474999999995 29.331023 41.247004000000004
36.143840999999995 30.386035999999997 44.691182
35.468844 31.001441999999997 49.673856
29.524051 35.281023 17.964522
29.017685 36.336036 14.520343999999998
29.692681999999998 36.951442 9.537669999999999
23.574050999999997 29.331023 17.964522
23.067684999999997 30.386035999999997 14.520343999999998
23.742682 31.001441999999997 9.537669999999999
17.964522 35.281023 35.637474999999995
14.520343999999998 36.336036 36.143840999999995
9.537669999999999 36.951442 35.468844
17.964522 23.381023 23.737475
14.520343999999998 24.436035999999998 24.243841
9.537669999999999 25.051441999999998 23.568844
41.247004000000004 29.331023 29.524051
44.691182 30.386035999999997 29.017685
49.673856 31.001441999999997 29.692681999999998
41.247004000000004 29.331023 35.474051
44.691182 30.386035999999997 34.967685
49.673856 31.001441999999997 35.642682
35.637474999999995 17.964522 29.331023
36.143840999999995 14.520343999999998 30.386035999999997
35.468844 9.537669999999999 31.001441999999997
35.637474999999995 17.964522 23.381023
36.143840999999995 14.520343999999998 24.436035999999998
35.468844 9.537669999999999 25.051441999999998
29.687475 41.247004000000004 23.930502999999998
30.193841 44.691182 22.87549
29.518844 49.673856 22.260084
35.637474999999995 41.247004000000004 23.930502999999998
36.143840999999995 44.691182 22.87549
35.468844 49.673856 22.260084
20.680763 32.580763 32.580763
26.630762999999998 26.630762999999998 20.680763
26.630762999999998 38.530763 26.630762999999998
32.580763 20.680763 20.680763
32.580763 20.680763 26.630762999999998
32.580763 26.630762999999998 38.530763
32.580763 32.580763 20.680763
32.580763 38.530763 26.630762999999998
38.530763 26.630762999999998 32.580763
38.530763 26.630762999999998 38.530763
28.336533 21.782770999999997 38.29948
29.605763 23.655763 38.530763
28.969222 22.587694999999997 43.258716
31.802799 25.979609 45.14004
30.414434999999997 27.129517 51.213982
32.424214 27.285680999999997 50.1734
34.286533 27.732771 38.29948
35.555763 29.605763 38.530763
34.919222 28.537695 43.258716
37.752798999999996 31.929609 45.14004
36.364435 33.079516999999996 51.213982
38.374213999999995 33.235681 50.1734
30.874992999999996 33.682771 20.912046
29.605763 35.555763 20.680763
30.242303999999997 34.487695 15.95281
27.408727 37.879609 14.071486
28.797090999999998 39.029517 7.9975439999999995
26.787312 39.185681 9.038125999999998
24.924993 27.732771 20.912046
23.655763 29.605763 20.680763
24.292303999999998 28.537695 15.95281
21.458727 31.929609 14.071486
22.847091 33.079516999999996 7.9975439999999995
20.837311999999997 33.235681 9.038125999999998
20.912046 33.682771 34.286533
20.680763 35.555763 35.555763
15.95281 34.487695 34.919222
14.071486 37.879609 37.752798999999996
7.9975439999999995 39.029517 36.364435
9.038125999999998 39.185681 38.374213999999995
20.912046 21.782770999999997 22.386533
20.680763 23.655763 23.655763
15.95281 22.587694999999997 23.019222
14.071486 25.979609 25.852798999999997
7.9975439999999995 27.129517 24.464434999999998
9.038125999999998 27.285680999999997 26.474214
38.29948 27.732771 30.874992999999996
38.530763 29.605763 29.605763
43.258716 28.537695 30.242303999999997
45.14004 31.929609 27.408727
51.213982 33.079516999999996 28.797090999999998
50.1734 33.235681 26.787312
38.29948 27.732771 36.824993
38.530763 29.605763 35.555763
43.258716 28.537695 36.192304
45.14004 31.929609 33.358727
51.213982 33.079516999999996 34.747091
50.1734 33.235681 32.737312
34.286533 20.912046 27.732771
35.555763 20.680763 29.605763
34.919222 15.95281 28.537695
37.752798999999996 14.071486 31.929609
36.364435 7.9975439999999995 33.079516999999996
38.374213999999995 9.038125999999998 33.235681
34.286533 20.912046 21.782770999999997
35.555763 20.680763 23.655763
34.919222 15.95281 22.587694999999997
37.752798999999996 14.071486 25.979609
36.364435 7.9975439999999995 27.129517
38.374213999999995 9.038125999999998 27.285680999999997
28.336533 38.29948 25.528754999999997
29.605763 38.530763 23.655763
28.969222 43.258716 24.723830999999997
31.802799 45.14004 21.331916999999997
30.414434999999997 51.213982 20.182009
32.424214 50.1734 20.025844999999997
34.286533 38.29948 25.528754999999997
35.555763 38.530763 23.655763
34.919222 43.258716 24.723830999999997
37.752798999999996 45.14004 21.331916999999997
36.364435 51.213982 20.182009
38.374213999999995 50.1734 20.025844999999997
23.655763 23.655763 23.655763
23.655763 23.655763 29.605763
23.655763 23.655763 35.555763
23.655763 29.605763 23.655763
23.655763 29.605763 29.605763
23.655763 29.605763 35.555763
23.655763 35.555763 23.655763
23.655763 35.555763 29.605763
23.655763 35.555763 35.555763
29.605763 23.655763 23.655763
29.605763 23.655763 29.605763
29.605763 23.655763 35.555763
29.605763 29.605763 23.655763
29.605763 29.605763 29.605763
29.605763 29.605763 35.555763
29.605763 35.555763 23.655763
29.605763 35.555763 29.605763
29.605763 35.555763 35.555763
35.555763 23.655763 23.655763
35.555763 23.655763 29.605763
35.555763 23.655763 35.555763
35.555763 29.605763 23.655763
35.555763 29.605763 29.605763
35.555763 29.605763 35.555763
35.555763 35.555763 23.655763
35.555763 35.555763 29.605763
35.555763 35.555763 35.555763
30.038041 26.639815 41.242698
35.988040999999996 32.589815 41.242698
29.173485 38.539815 17.968828
23.223484999999997 32.589815 17.968828
17.968828 38.539815 35.988040999999996
17.968828 26.639815 24.088040999999997
41.242698 32.589815 29.173485
41.242698 32.589815 35.123485
35.988040999999996 17.968828 32.589815
35.988040999999996 17.968828 26.639815
30.038041 41.242698 20.671711
35.988040999999996 41.242698 20.671711
