127_cspbbr3_3\127_cspbbr3_3.xyz
1.0
38.699389999999994 0 0
0 38.699389999999994 0
0 0 38.699389999999994
Br Cs Pb 
108 54 27 
Cartesian
13.443680999999998 16.530864 19.480617000000002
25.247236 13.301601999999997 10.676331999999999
25.262440999999995 22.107974 25.325787
22.523324000000002 25.176783 25.479019
19.560234 28.408966 25.265546
25.158994 25.466954 28.336169999999996
19.189453 28.406290999999996 19.198496
19.157876 28.266445999999995 13.188024999999998
13.240519999999998 19.283518 16.265083999999998
19.457780999999997 25.094484 28.176871
25.469018 28.240272999999995 13.246443999999999
16.267275999999995 25.240296 25.462778
19.237995999999995 25.177832000000002 22.21309
25.530001 10.364348999999999 13.386374999999997
16.489551 25.356659999999998 19.217405
19.246558 22.522711 19.401772
19.413722 25.56013 16.465359
25.094318 28.180865999999995 19.321208
16.291249 25.487477999999996 13.361256999999998
19.196295999999997 22.374274999999997 13.155766999999999
19.408166 25.036119999999997 10.406942999999998
13.191635999999997 13.473077999999997 22.527018999999996
25.363529999999997 28.191893999999998 25.462873000000002
19.202911999999998 19.217777999999996 28.248092
25.239764 25.307535 10.167641999999999
19.257486 22.201386 25.111865
22.200361 13.463375999999998 13.544142999999998
25.502572 25.194711999999996 22.281667
10.606897999999997 13.436843999999999 19.162684
10.328997999999999 13.310458999999998 13.196539999999997
22.170487 25.171832000000002 13.573684999999998
25.266368 19.475847 28.103727
22.160964999999997 19.461711 25.199489
25.478167999999997 16.376588999999996 25.423297999999996
25.199512 19.514576999999996 22.509017999999998
13.412822999999998 10.299971999999999 13.244215999999998
25.155509000000002 25.229017999999996 16.243319999999997
22.454458000000002 19.254545999999998 19.463977
25.184288000000002 16.438907999999998 19.194873
25.530481 19.397869999999998 16.422736999999998
25.140166 22.459033999999996 19.391325000000002
16.52073 19.263024 25.421813999999998
22.258584999999997 19.388219999999997 13.191908999999997
25.151255999999997 19.316845 10.681854999999999
13.316915999999997 13.164916999999997 16.287155999999996
22.159138999999996 25.417133999999997 19.221081999999996
25.144123999999998 13.268031999999998 28.438733999999997
22.367503999999997 13.609587999999999 25.495311
25.246079 10.270987999999997 25.524971
25.046687999999996 13.441923999999998 22.470146
13.247053999999999 10.553715999999998 19.542364999999997
13.511511999999998 13.537003999999998 10.548197999999998
22.253383999999997 13.249128999999998 19.491315999999998
25.078074 10.559933999999998 19.321013
25.21763 13.340084999999998 16.529806999999998
25.137881999999998 16.561042999999998 13.301497999999999
19.376516000000002 16.609330999999997 25.313997999999998
25.328079000000002 22.112716 13.257575999999998
13.545207999999997 10.541933999999998 25.451481
28.171616 19.507208999999996 19.416905
19.429719 19.430481999999998 22.125076
28.556872999999996 19.392829999999996 25.307457
13.603528999999998 28.090644999999995 19.280032
13.578959999999999 28.132717999999997 13.377750999999998
13.422661999999997 25.547989 28.348923999999997
10.325702999999997 25.153518 25.505049999999997
13.272121999999998 22.533147 25.169748
13.438321999999998 25.10702 22.496288
13.434261999999999 16.499851 13.226100999999998
28.274037999999997 25.298567 13.602494999999998
10.465077999999998 25.150447 19.487997
13.341649999999998 22.191581999999997 19.490552
13.542522999999997 25.3408 16.526506999999995
10.229360999999997 19.526063 13.340990999999997
10.480588999999998 25.170920000000002 13.530144999999997
13.547302999999998 22.230283999999997 13.281089999999997
13.186993999999999 25.406832 10.479945999999998
28.550058 25.320189999999997 19.433206
13.125225999999998 19.348971999999996 28.223676999999995
28.480382 25.159214 25.180718999999996
10.256676999999998 19.416964 25.283606
13.389185999999999 16.138492 25.122099999999996
13.365068999999998 19.234719 22.071303
10.516249999999998 19.576760999999998 19.412010000000002
13.569109999999998 19.222476999999998 10.426673999999998
19.539181 13.230807999999998 10.382250999999998
13.229633999999999 28.367672999999996 25.484409999999997
16.230007 13.412654999999999 13.514877999999998
19.187446 19.102764 10.464099999999998
13.128331999999999 13.308790999999998 28.192955999999995
28.113819999999997 13.534333999999998 19.441390999999996
19.44191 10.583507999999998 13.576350999999997
19.254689 13.360069999999999 28.079997
28.194936 13.512135999999998 25.159107
16.620419 13.428372999999999 25.458973
10.304345999999999 13.659798999999998 25.315354999999997
19.315610999999997 10.216975999999997 25.449028999999996
19.538531999999996 16.516976 13.264665999999998
19.248959 13.606727999999999 22.516455999999998
19.101923 16.39105 19.434455
28.067913999999995 19.270086 13.451261999999998
16.512999999999998 13.275475999999998 19.344186
16.534169 19.505169000000002 19.393194
19.489333000000002 10.638745999999998 19.256518999999997
19.314704 13.333810999999999 16.663598999999998
28.192847999999998 13.127500999999997 13.409378999999998
19.412003999999996 19.480057000000002 16.502088999999998
16.269816 19.488732 13.520317999999998
21.986098 22.573814999999996 16.771076
28.291379999999997 21.926319999999997 27.824787
28.214788 22.286389 21.851487
22.115023 27.953606 16.197108
28.612390999999995 22.622659999999996 16.067875
27.716997 10.575467999999997 22.167777
22.492902 22.559339 21.967639999999996
28.142539999999997 16.102059999999998 10.696598999999997
28.113676999999996 22.399146000000002 10.790528999999998
28.600266999999995 16.017558 28.454012999999996
21.999045000000002 28.30386 9.911159999999999
27.866318999999997 16.778470999999996 16.561279
22.172868 21.924965999999998 28.324031999999995
22.577486 27.866203 22.682819000000002
21.995799999999996 28.551038 28.338629999999995
16.131403 28.471862 10.736184999999997
22.058721 16.874319 28.284205
16.704195999999996 16.820146 10.185951999999999
16.063879 10.419925999999998 28.038506999999996
10.734129999999999 16.094311999999995 10.763645999999998
16.735678999999998 10.429827999999999 21.881779
16.33191 10.376995999999998 15.953104999999999
16.47696 10.094397999999998 10.285221999999997
10.015165999999999 28.206488999999998 22.272256999999996
10.445679999999998 28.333396999999998 15.784680999999997
10.025525999999997 22.158758999999996 27.863566
10.090000999999997 22.380271 21.961411999999996
10.095183999999998 22.373309999999996 16.528427
10.621362999999999 16.719983999999997 16.769897999999998
10.494497999999998 22.558158999999996 10.765221999999998
9.913000999999998 16.127682999999998 28.214976999999998
10.185900999999998 16.316572 21.938358
16.64118 16.213598999999995 16.640330999999996
16.608114 16.713673999999997 22.549619
16.316114999999996 16.459424999999996 27.897076
16.852739 22.545411 10.538142999999998
10.086570999999998 10.019529999999998 16.200378999999998
22.373832999999998 15.971958999999998 22.260874
22.080177 16.787374999999997 16.362738
22.74405 16.197503999999995 10.743662999999998
22.837127000000002 10.408864999999999 28.09207
22.377080999999997 10.727897999999998 22.102407999999997
22.091135 10.099491999999998 16.754478
22.504905 21.944043 10.185722999999998
10.266171999999997 10.121685999999999 22.496477
16.093469 28.583796 28.112164999999997
16.692042999999998 28.469274999999996 22.254007
16.210017 27.991445 16.108692999999995
16.141754 22.000146 28.0223
16.807800999999998 22.352483 22.417071
28.035477 28.037135 16.674487
16.449008999999997 21.939016000000002 16.477637
21.889676 10.055194999999998 10.471456999999997
27.921613999999998 28.173643 22.563896
13.500318999999998 13.565928999999999 13.622290999999999
13.264216999999999 25.47833 19.366602
13.465093999999999 25.253517000000002 25.066927
19.064242 13.529640999999998 13.508046999999998
19.354779999999998 13.654287999999998 19.191819000000002
19.450446 13.380749999999997 25.092024000000002
19.522441999999998 19.516511 13.249125999999999
19.115121000000002 19.561709 19.417943
19.215769 19.587032 25.137951
19.488852 25.227739 13.157988999999999
19.537563999999996 25.588639 25.367722999999998
25.345815 13.196898 13.291753999999997
25.418233999999998 13.264806999999998 19.183745000000002
25.222633000000002 13.576641999999998 25.428409000000002
25.558132 19.478184 13.276395999999998
25.177273 19.465686999999996 19.194153
25.487417 19.498024 25.456685
25.086931 25.222488999999996 13.668462999999997
25.151192 25.271817 19.172655999999996
25.212497 25.510038 25.512116
13.280524999999999 25.087094999999998 13.483916999999998
13.737606999999999 19.355016999999997 25.400962
19.415203999999996 25.071363999999996 19.343686999999996
13.411022999999998 19.506228 19.516481
13.192012999999998 19.292170999999996 13.166979999999997
13.478268999999997 13.634290999999997 19.325829999999996
13.310403999999998 13.567671999999998 25.517724
