3_train/187_cspbbr3_MA-PhP_4_0.20\187_cspbbr3_MA-PhP_4_0.20.xyz
1.0
50.165118 0 0
0 50.165118 0
0 0 50.165118
Br C Cs H N O P Pb 
216 163 93 258 19 72 24 64 
Cartesian
13.182559 16.157559 16.157559
16.157559 16.157559 19.132559
16.157559 13.182559 22.107559000000002
13.182559 16.157559 22.107559000000002
16.157559 16.157559 25.082558999999996
16.157559 13.182559 28.057558999999998
13.182559 16.157559 28.057558999999998
16.157559 16.157559 31.032559
16.157559 13.182559 34.007559
13.182559 16.157559 34.007559
16.157559 16.157559 36.982559
16.157559 22.107559000000002 13.182559
16.157559 19.132559 16.157559
13.182559 22.107559000000002 16.157559
16.157559 22.107559000000002 19.132559
16.157559 19.132559 22.107559000000002
16.157559 22.107559000000002 25.082558999999996
16.157559 19.132559 28.057558999999998
16.157559 22.107559000000002 31.032559
16.157559 19.132559 34.007559
13.182559 22.107559000000002 34.007559
16.157559 22.107559000000002 36.982559
16.157559 28.057558999999998 13.182559
16.157559 25.082558999999996 16.157559
13.182559 28.057558999999998 16.157559
16.157559 28.057558999999998 19.132559
16.157559 25.082558999999996 22.107559000000002
13.182559 28.057558999999998 22.107559000000002
16.157559 28.057558999999998 25.082558999999996
16.157559 25.082558999999996 28.057558999999998
13.182559 28.057558999999998 28.057558999999998
16.157559 28.057558999999998 31.032559
16.157559 25.082558999999996 34.007559
16.157559 28.057558999999998 36.982559
16.157559 34.007559 13.182559
16.157559 31.032559 16.157559
13.182559 34.007559 16.157559
16.157559 34.007559 19.132559
16.157559 31.032559 22.107559000000002
13.182559 34.007559 22.107559000000002
16.157559 34.007559 25.082558999999996
16.157559 31.032559 28.057558999999998
16.157559 34.007559 31.032559
16.157559 31.032559 34.007559
13.182559 34.007559 34.007559
16.157559 34.007559 36.982559
16.157559 36.982559 16.157559
16.157559 36.982559 22.107559000000002
16.157559 36.982559 28.057558999999998
22.107559000000002 16.157559 13.182559
22.107559000000002 13.182559 16.157559
19.132559 16.157559 16.157559
22.107559000000002 16.157559 19.132559
19.132559 16.157559 22.107559000000002
22.107559000000002 16.157559 25.082558999999996
22.107559000000002 13.182559 28.057558999999998
19.132559 16.157559 28.057558999999998
22.107559000000002 16.157559 31.032559
22.107559000000002 13.182559 34.007559
19.132559 16.157559 34.007559
22.107559000000002 19.132559 16.157559
19.132559 22.107559000000002 16.157559
22.107559000000002 22.107559000000002 19.132559
22.107559000000002 19.132559 22.107559000000002
19.132559 22.107559000000002 22.107559000000002
22.107559000000002 22.107559000000002 25.082558999999996
22.107559000000002 19.132559 28.057558999999998
19.132559 22.107559000000002 28.057558999999998
22.107559000000002 22.107559000000002 31.032559
22.107559000000002 19.132559 34.007559
19.132559 22.107559000000002 34.007559
22.107559000000002 28.057558999999998 13.182559
22.107559000000002 25.082558999999996 16.157559
19.132559 28.057558999999998 16.157559
22.107559000000002 28.057558999999998 19.132559
22.107559000000002 25.082558999999996 22.107559000000002
19.132559 28.057558999999998 22.107559000000002
22.107559000000002 28.057558999999998 25.082558999999996
22.107559000000002 25.082558999999996 28.057558999999998
19.132559 28.057558999999998 28.057558999999998
22.107559000000002 28.057558999999998 31.032559
22.107559000000002 25.082558999999996 34.007559
19.132559 28.057558999999998 34.007559
22.107559000000002 28.057558999999998 36.982559
22.107559000000002 34.007559 13.182559
22.107559000000002 31.032559 16.157559
19.132559 34.007559 16.157559
22.107559000000002 34.007559 19.132559
22.107559000000002 31.032559 22.107559000000002
19.132559 34.007559 22.107559000000002
22.107559000000002 34.007559 25.082558999999996
22.107559000000002 31.032559 28.057558999999998
19.132559 34.007559 28.057558999999998
22.107559000000002 34.007559 31.032559
22.107559000000002 31.032559 34.007559
19.132559 34.007559 34.007559
22.107559000000002 34.007559 36.982559
22.107559000000002 36.982559 16.157559
22.107559000000002 36.982559 22.107559000000002
22.107559000000002 36.982559 28.057558999999998
22.107559000000002 36.982559 34.007559
28.057558999999998 16.157559 13.182559
25.082558999999996 16.157559 16.157559
28.057558999999998 16.157559 19.132559
25.082558999999996 16.157559 22.107559000000002
28.057558999999998 16.157559 25.082558999999996
28.057558999999998 13.182559 28.057558999999998
25.082558999999996 16.157559 28.057558999999998
28.057558999999998 16.157559 31.032559
28.057558999999998 13.182559 34.007559
25.082558999999996 16.157559 34.007559
28.057558999999998 19.132559 16.157559
25.082558999999996 22.107559000000002 16.157559
28.057558999999998 22.107559000000002 19.132559
28.057558999999998 19.132559 22.107559000000002
25.082558999999996 22.107559000000002 22.107559000000002
28.057558999999998 22.107559000000002 25.082558999999996
28.057558999999998 19.132559 28.057558999999998
25.082558999999996 22.107559000000002 28.057558999999998
28.057558999999998 22.107559000000002 31.032559
28.057558999999998 19.132559 34.007559
25.082558999999996 22.107559000000002 34.007559
28.057558999999998 22.107559000000002 36.982559
28.057558999999998 25.082558999999996 16.157559
25.082558999999996 28.057558999999998 16.157559
28.057558999999998 28.057558999999998 19.132559
28.057558999999998 25.082558999999996 22.107559000000002
25.082558999999996 28.057558999999998 22.107559000000002
28.057558999999998 28.057558999999998 25.082558999999996
28.057558999999998 25.082558999999996 28.057558999999998
25.082558999999996 28.057558999999998 28.057558999999998
28.057558999999998 28.057558999999998 31.032559
28.057558999999998 25.082558999999996 34.007559
25.082558999999996 28.057558999999998 34.007559
28.057558999999998 28.057558999999998 36.982559
28.057558999999998 34.007559 13.182559
28.057558999999998 31.032559 16.157559
25.082558999999996 34.007559 16.157559
28.057558999999998 34.007559 19.132559
28.057558999999998 31.032559 22.107559000000002
25.082558999999996 34.007559 22.107559000000002
28.057558999999998 34.007559 25.082558999999996
28.057558999999998 31.032559 28.057558999999998
25.082558999999996 34.007559 28.057558999999998
28.057558999999998 34.007559 31.032559
28.057558999999998 31.032559 34.007559
25.082558999999996 34.007559 34.007559
28.057558999999998 34.007559 36.982559
28.057558999999998 36.982559 22.107559000000002
28.057558999999998 36.982559 34.007559
34.007559 16.157559 13.182559
34.007559 13.182559 16.157559
31.032559 16.157559 16.157559
34.007559 16.157559 19.132559
34.007559 13.182559 22.107559000000002
31.032559 16.157559 22.107559000000002
34.007559 16.157559 25.082558999999996
34.007559 13.182559 28.057558999999998
31.032559 16.157559 28.057558999999998
34.007559 16.157559 31.032559
34.007559 13.182559 34.007559
31.032559 16.157559 34.007559
34.007559 22.107559000000002 13.182559
34.007559 19.132559 16.157559
31.032559 22.107559000000002 16.157559
34.007559 22.107559000000002 19.132559
34.007559 19.132559 22.107559000000002
31.032559 22.107559000000002 22.107559000000002
34.007559 22.107559000000002 25.082558999999996
34.007559 19.132559 28.057558999999998
31.032559 22.107559000000002 28.057558999999998
34.007559 22.107559000000002 31.032559
34.007559 19.132559 34.007559
31.032559 22.107559000000002 34.007559
34.007559 22.107559000000002 36.982559
34.007559 28.057558999999998 13.182559
34.007559 25.082558999999996 16.157559
31.032559 28.057558999999998 16.157559
34.007559 28.057558999999998 19.132559
34.007559 25.082558999999996 22.107559000000002
31.032559 28.057558999999998 22.107559000000002
34.007559 28.057558999999998 25.082558999999996
34.007559 25.082558999999996 28.057558999999998
31.032559 28.057558999999998 28.057558999999998
34.007559 28.057558999999998 31.032559
34.007559 25.082558999999996 34.007559
31.032559 28.057558999999998 34.007559
34.007559 28.057558999999998 36.982559
34.007559 34.007559 13.182559
34.007559 31.032559 16.157559
31.032559 34.007559 16.157559
34.007559 34.007559 19.132559
34.007559 31.032559 22.107559000000002
31.032559 34.007559 22.107559000000002
34.007559 34.007559 25.082558999999996
34.007559 31.032559 28.057558999999998
31.032559 34.007559 28.057558999999998
34.007559 34.007559 31.032559
34.007559 31.032559 34.007559
31.032559 34.007559 34.007559
34.007559 34.007559 36.982559
34.007559 36.982559 16.157559
34.007559 36.982559 22.107559000000002
34.007559 36.982559 34.007559
36.982559 16.157559 16.157559
36.982559 16.157559 22.107559000000002
36.982559 16.157559 28.057558999999998
36.982559 16.157559 34.007559
36.982559 22.107559000000002 16.157559
36.982559 22.107559000000002 28.057558999999998
36.982559 22.107559000000002 34.007559
36.982559 28.057558999999998 16.157559
36.982559 28.057558999999998 28.057558999999998
36.982559 28.057558999999998 34.007559
36.982559 34.007559 16.157559
36.982559 34.007559 22.107559000000002
29.643233000000002 16.775683 40.850778
29.609436000000002 16.762603 39.459154999999996
29.057558999999998 15.657559 38.778397
28.612418999999996 14.574347999999999 40.903913
29.146592999999996 15.683497999999998 41.573578
28.56104 14.560552999999999 39.513081
35.593233 16.775683 40.850778
35.559436 16.762603 39.459154999999996
35.007559 15.657559 38.778397
34.562419 14.574347999999999 40.903913
35.096593 15.683497999999998 41.573578
34.51104 14.560552999999999 39.513081
23.693233 22.725682999999997 40.850778
23.659436 22.712603 39.459154999999996
23.107559000000002 21.607559000000002 38.778397
22.662419 20.524348 40.903913
23.196593 21.633498 41.573578
22.611039999999996 20.510553 39.513081
23.693233 16.775683 40.850778
23.659436 16.762603 39.459154999999996
23.107559000000002 15.657559 38.778397
22.662419 14.574347999999999 40.903913
23.196593 15.683497999999998 41.573578
22.611039999999996 14.560552999999999 39.513081
20.521884999999997 22.725682999999997 9.31434
20.555681999999997 22.712603 10.705963
21.107559000000002 21.607559000000002 11.386721
21.552698999999997 20.524348 9.261205
21.018524999999997 21.633498 8.591539999999998
21.604078 20.510553 10.652037
26.471885 28.675683 9.31434
26.505682 28.662602999999997 10.705963
27.057558999999998 27.557558999999998 11.386721
27.502699 26.474348 9.261205
26.968525 27.583498 8.591539999999998
27.554077999999997 26.460552999999997 10.652037
26.471885 22.725682999999997 9.31434
26.505682 22.712603 10.705963
27.057558999999998 21.607559000000002 11.386721
27.502699 20.524348 9.261205
26.968525 21.633498 8.591539999999998
27.554077999999997 20.510553 10.652037
14.571885 16.775683 9.31434
14.605682 16.762603 10.705963
15.157559 15.657559 11.386721
15.602699 14.574347999999999 9.261205
15.068525 15.683497999999998 8.591539999999998
15.654078 14.560552999999999 10.652037
9.31434 22.725682999999997 29.643233000000002
10.705963 22.712603 29.609436000000002
11.386721 21.607559000000002 29.057558999999998
9.261205 20.524348 28.612418999999996
8.591539999999998 21.633498 29.146592999999996
10.652037 20.510553 28.56104
9.31434 28.675683 35.593233
10.705963 28.662602999999997 35.559436
11.386721 27.557558999999998 35.007559
9.261205 26.474348 34.562419
8.591539999999998 27.583498 35.096593
10.652037 26.460552999999997 34.51104
9.31434 22.725682999999997 23.693233
10.705963 22.712603 23.659436
11.386721 21.607559000000002 23.107559000000002
9.261205 20.524348 22.662419
8.591539999999998 21.633498 23.196593
10.652037 20.510553 22.611039999999996
9.31434 34.625683 29.643233000000002
10.705963 34.612603 29.609436000000002
11.386721 33.507559 29.057558999999998
9.261205 32.424348 28.612418999999996
8.591539999999998 33.533498 29.146592999999996
10.652037 32.410553 28.56104
40.850778 34.625683 32.421884999999996
39.459154999999996 34.612603 32.455681999999996
38.778397 33.507559 33.007559
40.903913 32.424348 33.452699
41.573578 33.533498 32.918525
39.513081 32.410553 33.504078
40.850778 28.675683 20.521884999999997
39.459154999999996 28.662602999999997 20.555681999999997
38.778397 27.557558999999998 21.107559000000002
40.903913 26.474348 21.552698999999997
41.573578 27.583498 21.018524999999997
39.513081 26.460552999999997 21.604078
40.850778 22.725682999999997 20.521884999999997
39.459154999999996 22.712603 20.555681999999997
38.778397 21.607559000000002 21.107559000000002
40.903913 20.524348 21.552698999999997
41.573578 21.633498 21.018524999999997
39.513081 20.510553 21.604078
40.850778 34.625683 26.471885
39.459154999999996 34.612603 26.505682
38.778397 33.507559 27.057558999999998
40.903913 32.424348 27.502699
41.573578 33.533498 26.968525
39.513081 32.410553 27.554077999999997
29.643233000000002 9.31434 16.775683
29.609436000000002 10.705963 16.762603
29.057558999999998 11.386721 15.657559
28.612418999999996 9.261205 14.574347999999999
29.146592999999996 8.591539999999998 15.683497999999998
28.56104 10.652037 14.560552999999999
23.693233 9.31434 22.725682999999997
23.659436 10.705963 22.712603
23.107559000000002 11.386721 21.607559000000002
22.662419 9.261205 20.524348
23.196593 8.591539999999998 21.633498
22.611039999999996 10.652037 20.510553
29.643233000000002 9.31434 22.725682999999997
29.609436000000002 10.705963 22.712603
29.057558999999998 11.386721 21.607559000000002
28.612418999999996 9.261205 20.524348
29.146592999999996 8.591539999999998 21.633498
28.56104 10.652037 20.510553
17.743232999999996 9.31434 16.775683
17.709435999999997 10.705963 16.762603
17.157559 11.386721 15.657559
16.712418999999997 9.261205 14.574347999999999
17.246592999999997 8.591539999999998 15.683497999999998
16.66104 10.652037 14.560552999999999
29.643233000000002 40.850778 27.439434999999996
29.609436000000002 39.459154999999996 27.452515
29.057558999999998 38.778397 28.557558999999998
28.612418999999996 40.903913 29.640769999999996
29.146592999999996 41.573578 28.531619999999997
28.56104 39.513081 29.654564999999998
29.643233000000002 40.850778 15.539435
29.609436000000002 39.459154999999996 15.552515
29.057558999999998 38.778397 16.657559
28.612418999999996 40.903913 17.740769999999998
29.146592999999996 41.573578 16.631619999999998
28.56104 39.513081 17.754565
17.743232999999996 40.850778 33.389435
17.709435999999997 39.459154999999996 33.402515
17.157559 38.778397 34.507559
16.712418999999997 40.903913 35.59077
17.246592999999997 41.573578 34.48162
16.66104 39.513081 35.604565
35.593233 40.850778 27.439434999999996
35.559436 39.459154999999996 27.452515
35.007559 38.778397 28.557558999999998
34.562419 40.903913 29.640769999999996
35.096593 41.573578 28.531619999999997
34.51104 39.513081 29.654564999999998
11.706897999999999 19.132559 31.032559
12.139109 25.082558999999996 38.026009
11.706897999999999 31.032559 31.032559
19.132559 12.139109 12.139109
19.132559 19.132559 11.706897999999999
19.132559 38.026009 38.026009
25.082558999999996 11.706897999999999 19.132559
25.082558999999996 12.139109 38.026009
25.082558999999996 19.132559 11.706897999999999
25.082558999999996 19.132559 38.45822
25.082558999999996 25.082558999999996 11.706897999999999
31.032559 12.139109 12.139109
31.032559 11.706897999999999 19.132559
31.032559 12.139109 38.026009
31.032559 38.45822 19.132559
31.032559 38.45822 31.032559
38.45822 19.132559 19.132559
38.45822 31.032559 31.032559
38.026009 38.026009 31.032559
13.182559 13.182559 19.132559
13.182559 13.182559 25.082558999999996
13.182559 13.182559 31.032559
13.182559 19.132559 13.182559
13.182559 19.132559 19.132559
13.182559 19.132559 36.982559
13.182559 25.082558999999996 13.182559
13.182559 25.082558999999996 19.132559
13.182559 25.082558999999996 25.082558999999996
13.182559 25.082558999999996 31.032559
13.182559 31.032559 13.182559
13.182559 31.032559 19.132559
13.182559 31.032559 25.082558999999996
13.182559 31.032559 36.982559
13.182559 36.982559 19.132559
13.182559 36.982559 25.082558999999996
13.182559 36.982559 31.032559
19.132559 13.182559 19.132559
19.132559 13.182559 31.032559
19.132559 13.182559 36.982559
19.132559 19.132559 19.132559
19.132559 19.132559 25.082558999999996
19.132559 19.132559 31.032559
19.132559 19.132559 36.982559
19.132559 25.082558999999996 13.182559
19.132559 25.082558999999996 19.132559
19.132559 25.082558999999996 25.082558999999996
19.132559 25.082558999999996 31.032559
19.132559 25.082558999999996 36.982559
19.132559 31.032559 13.182559
19.132559 31.032559 19.132559
19.132559 31.032559 25.082558999999996
19.132559 31.032559 31.032559
19.132559 36.982559 13.182559
19.132559 36.982559 19.132559
19.132559 36.982559 25.082558999999996
19.132559 36.982559 31.032559
25.082558999999996 13.182559 13.182559
25.082558999999996 13.182559 25.082558999999996
25.082558999999996 13.182559 31.032559
25.082558999999996 19.132559 19.132559
25.082558999999996 19.132559 25.082558999999996
25.082558999999996 19.132559 31.032559
25.082558999999996 25.082558999999996 19.132559
25.082558999999996 25.082558999999996 25.082558999999996
25.082558999999996 25.082558999999996 31.032559
25.082558999999996 25.082558999999996 36.982559
25.082558999999996 31.032559 13.182559
25.082558999999996 31.032559 19.132559
25.082558999999996 31.032559 25.082558999999996
25.082558999999996 31.032559 31.032559
25.082558999999996 31.032559 36.982559
25.082558999999996 36.982559 13.182559
25.082558999999996 36.982559 19.132559
25.082558999999996 36.982559 25.082558999999996
25.082558999999996 36.982559 31.032559
25.082558999999996 36.982559 36.982559
31.032559 13.182559 25.082558999999996
31.032559 13.182559 31.032559
31.032559 19.132559 13.182559
31.032559 19.132559 19.132559
31.032559 19.132559 25.082558999999996
31.032559 19.132559 31.032559
31.032559 19.132559 36.982559
31.032559 25.082558999999996 13.182559
31.032559 25.082558999999996 19.132559
31.032559 25.082558999999996 25.082558999999996
31.032559 25.082558999999996 31.032559
31.032559 25.082558999999996 36.982559
31.032559 31.032559 13.182559
31.032559 31.032559 19.132559
31.032559 31.032559 25.082558999999996
31.032559 31.032559 31.032559
31.032559 31.032559 36.982559
31.032559 36.982559 13.182559
31.032559 36.982559 25.082558999999996
31.032559 36.982559 36.982559
36.982559 13.182559 19.132559
36.982559 13.182559 25.082558999999996
36.982559 13.182559 31.032559
36.982559 19.132559 13.182559
36.982559 19.132559 25.082558999999996
36.982559 19.132559 31.032559
36.982559 19.132559 36.982559
36.982559 25.082558999999996 13.182559
36.982559 25.082558999999996 25.082558999999996
36.982559 25.082558999999996 31.032559
36.982559 25.082558999999996 36.982559
36.982559 31.032559 13.182559
36.982559 31.032559 19.132559
36.982559 31.032559 36.982559
36.982559 36.982559 19.132559
36.982559 36.982559 25.082558999999996
28.236371999999996 13.722256 41.473431
29.178132999999995 15.695019 42.66511799999999
30.057577000000002 17.636668 41.378662
29.990774000000002 17.606909 38.882298
28.142454999999998 13.701412999999999 38.98576
26.917806999999996 15.353212999999998 36.630511999999996
34.186372 13.722256 41.473431
35.128133 15.695019 42.66511799999999
36.007577 17.636668 41.378662
35.940774 17.606909 38.882298
34.092455 13.701412999999999 38.98576
32.867807 15.353212999999998 36.630511999999996
22.286372 19.672255999999997 41.473431
23.228133 21.645018999999998 42.66511799999999
24.107577 23.586667999999996 41.378662
24.040774 23.556908999999997 38.882298
22.192454999999995 19.651412999999998 38.98576
20.967807 21.303213 36.630511999999996
22.286372 13.722256 41.473431
23.228133 15.695019 42.66511799999999
24.107577 17.636668 41.378662
24.040774 17.606909 38.882298
22.192454999999995 13.701412999999999 38.98576
20.967807 15.353212999999998 36.630511999999996
21.928745999999997 19.672255999999997 8.691686999999998
20.986984999999997 21.645018999999998 7.499999999999999
20.107540999999998 23.586667999999996 8.786456
20.174343999999998 23.556908999999997 11.28282
22.022663 19.651412999999998 11.179358
23.247310999999996 21.303213 13.534606
27.878746 25.622256 8.691686999999998
26.936985 27.595019 7.499999999999999
26.057541 29.536668 8.786456
26.124344 29.506909 11.28282
27.972662999999997 25.601413 11.179358
29.197311 27.253212999999995 13.534606
27.878746 19.672255999999997 8.691686999999998
26.936985 21.645018999999998 7.499999999999999
26.057541 23.586667999999996 8.786456
26.124344 23.556908999999997 11.28282
27.972662999999997 19.651412999999998 11.179358
29.197311 21.303213 13.534606
15.978746 13.722256 8.691686999999998
15.036985 15.695019 7.499999999999999
14.157541 17.636668 8.786456
14.224344 17.606909 11.28282
16.072663 13.701412999999999 11.179358
17.297311 15.353212999999998 13.534606
8.691686999999998 19.672255999999997 28.236371999999996
7.499999999999999 21.645018999999998 29.178132999999995
8.786456 23.586667999999996 30.057577000000002
11.28282 23.556908999999997 29.990774000000002
11.179358 19.651412999999998 28.142454999999998
13.534606 21.303213 26.917806999999996
8.691686999999998 25.622256 34.186372
7.499999999999999 27.595019 35.128133
8.786456 29.536668 36.007577
11.28282 29.506909 35.940774
11.179358 25.601413 34.092455
13.534606 27.253212999999995 32.867807
8.691686999999998 19.672255999999997 22.286372
7.499999999999999 21.645018999999998 23.228133
8.786456 23.586667999999996 24.107577
11.28282 23.556908999999997 24.040774
11.179358 19.651412999999998 22.192454999999995
13.534606 21.303213 20.967807
8.691686999999998 31.572256000000003 28.236371999999996
7.499999999999999 33.545018999999996 29.178132999999995
8.786456 35.486668 30.057577000000002
11.28282 35.456908999999996 29.990774000000002
11.179358 31.551412999999997 28.142454999999998
13.534606 33.203213 26.917806999999996
41.473431 31.572256000000003 33.828746
42.66511799999999 33.545018999999996 32.886985
41.378662 35.486668 32.007540999999996
38.882298 35.456908999999996 32.074343999999996
38.98576 31.551412999999997 33.922663
36.630511999999996 33.203213 35.147311
41.473431 25.622256 21.928745999999997
42.66511799999999 27.595019 20.986984999999997
41.378662 29.536668 20.107540999999998
38.882298 29.506909 20.174343999999998
38.98576 25.601413 22.022663
36.630511999999996 27.253212999999995 23.247310999999996
41.473431 19.672255999999997 21.928745999999997
42.66511799999999 21.645018999999998 20.986984999999997
41.378662 23.586667999999996 20.107540999999998
38.882298 23.556908999999997 20.174343999999998
38.98576 19.651412999999998 22.022663
36.630511999999996 21.303213 23.247310999999996
41.473431 31.572256000000003 27.878746
42.66511799999999 33.545018999999996 26.936985
41.378662 35.486668 26.057541
38.882298 35.456908999999996 26.124344
38.98576 31.551412999999997 27.972662999999997
36.630511999999996 33.203213 29.197311
28.236371999999996 8.691686999999998 13.722256
29.178132999999995 7.499999999999999 15.695019
30.057577000000002 8.786456 17.636668
29.990774000000002 11.28282 17.606909
28.142454999999998 11.179358 13.701412999999999
26.917806999999996 13.534606 15.353212999999998
22.286372 8.691686999999998 19.672255999999997
23.228133 7.499999999999999 21.645018999999998
24.107577 8.786456 23.586667999999996
24.040774 11.28282 23.556908999999997
22.192454999999995 11.179358 19.651412999999998
20.967807 13.534606 21.303213
28.236371999999996 8.691686999999998 19.672255999999997
29.178132999999995 7.499999999999999 21.645018999999998
30.057577000000002 8.786456 23.586667999999996
29.990774000000002 11.28282 23.556908999999997
28.142454999999998 11.179358 19.651412999999998
26.917806999999996 13.534606 21.303213
16.336371999999997 8.691686999999998 13.722256
17.278132999999997 7.499999999999999 15.695019
18.157577 8.786456 17.636668
18.090774 11.28282 17.606909
16.242455 11.179358 13.701412999999999
15.017807 13.534606 15.353212999999998
28.236371999999996 41.473431 30.492862000000002
29.178132999999995 42.66511799999999 28.520099000000002
30.057577000000002 41.378662 26.578449999999997
29.990774000000002 38.882298 26.608208999999995
28.142454999999998 38.98576 30.513705
26.917806999999996 36.630511999999996 28.861905
28.236371999999996 41.473431 18.592861999999997
29.178132999999995 42.66511799999999 16.620099
30.057577000000002 41.378662 14.67845
29.990774000000002 38.882298 14.708209
28.142454999999998 38.98576 18.613705
26.917806999999996 36.630511999999996 16.961905
16.336371999999997 41.473431 36.442862
17.278132999999997 42.66511799999999 34.470099
18.157577 41.378662 32.52845
18.090774 38.882298 32.558209
16.242455 38.98576 36.463705
15.017807 36.630511999999996 34.811905
34.186372 41.473431 30.492862000000002
35.128133 42.66511799999999 28.520099000000002
36.007577 41.378662 26.578449999999997
35.940774 38.882298 26.608208999999995
34.092455 38.98576 30.513705
32.867807 36.630511999999996 28.861905
11.372976999999999 18.739621 31.994704999999996
11.372976999999999 20.162270999999997 30.891779999999997
11.372976999999999 18.495784999999998 30.211191999999997
13.557300999999999 19.494692 30.14584
13.557300999999999 18.183571 31.162301999999997
13.557300999999999 19.719414 31.789535
11.487005 25.939318 37.846141
11.586329 24.144703 37.945464
12.635639999999999 25.163655999999996 38.994775
13.830917 24.292964999999995 37.100951
13.739379999999999 25.946892 37.009414
12.772329 25.007818999999998 36.042363
11.372976999999999 32.037468 30.767449
11.372976999999999 30.300513000000002 30.294837
11.372976999999999 30.759697000000003 32.03539
13.557300999999999 30.106429999999996 31.276885999999998
13.557300999999999 31.707217 31.712446999999997
13.557300999999999 31.28403 30.108344000000002
19.427909999999997 11.198402 12.607581
18.121941 12.074421 11.731562
19.847825999999998 12.436150999999999 11.369831999999999
18.860362000000002 14.096895 12.798188
20.06395 13.289551 13.605532
18.473365 12.956178999999999 13.938903999999999
18.164541 18.754317 11.372976999999999
19.289001 20.160007999999998 11.372976999999999
19.944135 18.483351999999996 11.372976999999999
20.024689000000002 19.481147999999997 13.557300999999999
18.988380999999997 18.185657 13.557300999999999
18.384607 19.730871999999998 13.557300999999999
18.62404 38.903037 37.621216
18.601866 37.630268 38.893985
20.171771 38.253074 38.271179
19.601213 36.12691 37.308243
19.621648 37.2999 36.135252
18.174816 36.725919 36.709234
24.092422999999997 11.372976999999999 18.816718
25.851154 11.372976999999999 18.432997
25.3041 11.372976999999999 20.147962999999997
25.995072999999998 13.557300999999999 19.42364
24.374218 13.557300999999999 19.777279
24.878386 13.557300999999999 18.196758
24.834288 12.616603999999999 38.975739
24.332701 11.394150999999999 37.753286
26.080688000000002 11.69822 38.057355
25.311366999999997 12.789871999999999 36.059907
25.773632 13.916492 37.186527
24.162678 13.63626 36.906295
25.260857 18.108677 11.372976999999999
24.106702 19.490088999999998 11.372976999999999
25.880117999999996 19.798910999999997 11.372976999999999
24.918239 20.076174 13.557300999999999
25.981913999999996 18.803057000000003 13.557300999999999
24.347524 18.518445999999997 13.557300999999999
25.597606 18.229868 38.792141
25.606789 20.029949000000002 38.792141
24.043281999999998 19.13786 38.792141
24.607887999999996 19.964484 36.607817
24.599426 18.30552 36.607817
26.040362000000002 19.127674 36.607817
25.782295999999995 25.850994999999998 11.372976999999999
25.398176 24.092351 11.372976999999999
24.067206 25.304330999999998 11.372976999999999
24.437678 24.374364999999997 13.557300999999999
24.791685 25.99514 13.557300999999999
26.018313999999997 24.878172999999997 13.557300999999999
31.777910999999996 11.390851 12.415132
30.032642000000003 11.702629 12.103354
31.287124 12.615493999999998 11.190487999999998
30.345639 13.919533 12.975549999999998
31.954088 13.632197 13.262887
30.79795 12.790894999999999 14.104187999999999
32.057266 11.372976999999999 19.306055
30.369954 11.372976999999999 19.933233
30.670457 11.372976999999999 18.158389
30.088184 13.557300999999999 18.972664
31.643219000000002 13.557300999999999 18.394654
31.366273999999997 13.557300999999999 20.030358999999997
31.871733999999996 12.33653 38.695665
30.081998 12.200109999999999 38.559245
31.143946 11.172335 37.53147
30.259172 13.047989999999999 36.318025
31.908600999999997 13.173715999999999 36.443751
30.929904 14.120918999999999 37.390952999999996
30.6072 38.792141 18.1843
30.424022 38.792141 19.97506
32.066455 38.792141 19.238317000000002
31.424571999999998 36.607817 20.006479
31.59339 36.607817 18.356105999999997
30.079715 36.607817 19.035092
30.644731 38.792141 30.068342
30.391436 38.792141 31.850535999999998
32.061509 38.792141 31.178798999999998
31.389983 36.607817 31.921186
31.623421 36.607817 30.278706999999997
30.084272999999996 36.607817 30.897784
38.792141 20.077723 19.564749999999997
38.792141 18.285688 19.735
38.792141 19.034266000000002 18.097927
36.607817 18.261491 18.734249
36.607817 19.913040000000002 18.577347
36.607817 19.223146 20.086081
38.792141 31.822265 31.708199
38.792141 30.052585 31.378644
38.792141 31.222828 30.010834000000003
36.607817 30.304761999999997 30.409885000000003
36.607817 31.935709000000003 30.713605
36.607817 30.857205999999998 31.974185999999996
37.664372 38.859881 31.637129
38.931225999999995 37.593028 31.462370999999997
38.190782 38.333471 29.998178000000003
37.26847 36.166683 30.475384
36.100931 37.334221 30.636443
36.783328 36.651824 31.98585