1_train/63_cspbbr3_methylammonium_4_0.30\63_cspbbr3_methylammonium_4_0.30.xyz
1.0
47.794096 0 0
0 47.794096 0
0 0 47.794096
Br C Cs H N Pb 
240 26 86 156 26 64 
Cartesian
26.740389 20.785299000000002 35.640293
30.024445 32.991076 26.981661000000003
12.152231 26.790768 27.106105999999997
12.003007000000002 21.078254 14.831814000000001
26.895891 20.700409 29.649639
29.951769 26.816228000000002 33.03862
11.803752000000001 14.841756000000002 14.921791
23.647329 20.932071999999998 26.839264999999997
24.042294 20.763904000000004 32.689534
26.921289 17.98918 33.066424
23.952084 26.664147 14.768208000000001
27.061518999999997 24.063630000000003 15.004680000000002
32.779714 29.765092000000003 27.073076
15.128765000000001 17.968109 14.845907000000002
26.656672 26.696944000000002 17.88142
26.788670000000003 23.761308 21.147416999999997
23.829545000000003 27.038527000000002 21.008345
32.995477 32.767993000000004 24.095198000000003
14.826764 20.704282 12.057074000000002
26.901408000000004 26.956467000000004 23.726627999999998
26.890326 23.860557 27.066277
23.739026000000003 26.815534 26.800843999999998
14.834683000000002 14.782394000000002 35.754895999999995
27.026671999999998 27.031776 12.117911000000001
26.704053000000002 18.148125 26.853802
14.861686 20.775547000000003 18.001725999999998
26.698483000000003 27.030405000000002 29.676828999999998
26.975510999999997 11.873352 14.886696000000002
23.666780000000003 15.058872000000001 14.972239000000002
15.040422000000001 21.058396000000002 23.741540999999998
27.00725 14.956412000000002 17.757212000000003
26.672289 12.042863 20.785634
24.069392999999998 14.909761000000001 21.153205999999997
15.037444 23.839167000000003 27.037973
26.677075000000002 14.972112000000001 23.902535
27.094906 12.04507 26.910691999999997
23.976697 15.098857 26.746553
29.92727 33.000086 32.748592
35.936706 32.887211 32.653061
26.695192 20.919416 24.00663
27.002487000000002 15.088488000000002 29.701294000000004
23.719495000000002 15.109482000000002 32.671202
27.041401 14.843169000000001 35.951564999999995
32.925246 29.962822000000003 32.653431000000005
12.061694000000001 21.125614 20.88134
27.008228000000003 21.178347000000002 12.018514000000001
26.622270999999998 17.938451 14.899927000000002
23.827837000000002 20.933965999999998 15.201831
32.680162 32.812099 30.014362
14.763391 17.971712000000004 21.002797
26.720803000000004 20.807532000000002 18.00325
27.063136999999998 17.771394 20.818882000000002
24.015731000000002 21.031849 20.734720000000003
26.746347 11.858352000000002 32.633713
26.855193 23.705816 32.645382
26.989500999999997 26.745835999999997 35.716302
32.662656 20.720188999999998 35.771373000000004
32.907878000000004 32.561897 12.027368000000001
14.812027000000002 14.756150000000002 24.024755
32.827984 15.174744000000002 17.729273
32.734047000000004 11.853766000000002 20.726520999999998
29.862801000000005 15.193597000000002 20.925673000000003
32.666191 14.787746 23.979278
33.034722 11.815640000000002 26.92675
29.931302000000002 15.176911000000002 26.776513
29.839559 20.722336 33.023967
32.913303 14.880146000000002 29.685557000000003
32.956958 11.988853 32.680658
29.868975 14.788366000000002 32.77736
29.817321 14.772809 14.812326
32.908953000000004 15.247812000000001 35.759702999999995
33.025436 20.957708000000004 12.060060000000002
32.804568 18.11623 14.884573000000001
29.965250000000005 21.118617999999998 15.092841000000002
14.817522000000002 12.139619000000001 20.943224
15.139500000000002 14.947312000000002 17.809863
33.016124 20.7549 18.072374000000003
32.987021 18.015224000000003 20.867714999999997
29.758947 21.026029 20.756099
32.996499 17.808166 32.638558
32.69536 20.781286 24.053988000000004
32.919200000000004 18.023674 26.695016000000003
30.048877000000005 21.080349 26.752996000000003
11.843980000000002 14.843295000000001 21.000284999999998
32.776925 12.264035000000002 14.991229000000002
32.923781 14.785165000000001 12.135199000000002
14.993552000000001 11.741857000000001 26.901296000000002
26.780202000000003 14.801683000000002 12.202809000000002
29.839176000000002 32.951941 20.770485
12.146381000000002 15.052776000000001 32.687529
26.707289000000003 32.739992 12.040572000000001
26.756140000000002 29.640120000000003 14.987318000000002
24.042281000000003 32.699319 14.966862
32.834276 30.092716000000003 20.971833000000004
15.070176000000002 11.966608 32.99121
26.867296000000003 32.884664 18.125401000000004
27.066547999999997 29.933975000000004 21.073503000000002
23.863813 32.650897 21.069338000000002
32.756154 32.983022 18.004525
15.115241000000001 14.848811000000001 29.973853
26.781295999999998 32.864924 24.094982
27.032131999999997 29.845569000000005 26.725488
23.776373999999997 32.679988 26.930546999999997
12.224150000000002 15.034233000000002 26.946424
26.793732 32.817438 29.657432
26.938899 29.724617000000002 32.942497
23.840089 32.623803 32.686486
26.724235 32.732762 35.852688
26.941696999999998 35.543198999999994 14.967527000000002
29.629677 32.713197 15.046065
26.993481000000003 35.662727 21.060222000000003
32.63839 29.645885 15.055426
26.715873000000002 35.612775 26.983226000000002
26.947425000000003 36.038574000000004 32.852609
24.116086000000003 26.989950999999998 32.898604
15.049421 17.770613 27.007748
32.81158 27.026331 11.784623000000002
32.908903 26.981462 35.650366
15.118888000000002 35.699783000000004 27.005775
29.697973000000005 26.718516 21.073787000000003
15.110001000000002 35.930143 32.862948
35.642542999999996 21.044653000000004 32.67502
14.954234000000001 26.704977999999997 17.705668000000003
20.990811 14.864817 12.147472
20.943187 11.831384000000002 14.824369
17.79685 15.072298000000002 14.865041000000002
32.922848 23.787713000000004 20.815221
21.064023 14.771194000000001 18.009950000000003
21.078256000000003 11.895518000000001 21.098896000000003
18.123119000000003 14.865752000000002 21.068617000000003
32.845278 26.927424000000002 18.161752999999997
20.713273 14.760886000000001 23.887468
21.002527 11.895789 27.024084000000002
18.058894000000002 14.710978 26.87648
35.61878 20.847158 26.830907000000003
12.005870000000002 27.05059 15.068675
20.891348 14.740988000000002 29.912758000000004
20.783043 12.213463 32.825995
17.862646 14.801892 32.72663
35.770208000000004 21.056955000000002 20.702303999999998
21.122411999999997 14.955845000000002 35.95957
14.976703000000002 23.681176999999998 15.082080000000001
21.049995000000003 21.061366 11.975018
20.808441000000002 18.098865000000004 15.016603000000002
17.931906 21.037834000000004 15.204652000000001
35.745844 27.106643 15.018355000000001
35.864555 20.759776000000002 15.122263000000002
14.706045000000001 35.764092 20.952229000000003
14.932398000000001 35.644299 15.108505000000001
32.95967 23.878034 26.691274999999997
14.853800000000001 27.062783000000003 23.910854999999998
15.146567000000001 26.752634999999998 29.695911000000002
15.061984 23.779992 32.952426
12.247835000000002 26.987048 32.931489
14.899009000000001 27.040762 35.745686
32.909035 26.763047 24.120786000000003
14.897879000000001 32.616035000000004 12.172981000000002
15.046830000000002 29.928789000000002 15.15309
12.246609000000001 32.743324 14.904215
35.911885 27.076394999999998 32.861471
35.988031 32.972781000000005 15.141923
15.251490000000002 32.874269 17.930266000000003
15.191297 29.841511000000004 20.811678
11.949489000000002 32.807589 20.693727000000003
35.554218999999996 26.952032000000003 26.761921
11.964220000000001 26.708318 20.803176999999998
14.824840000000002 32.894374 23.713709
15.117058000000002 30.036777999999998 26.701631
11.895047000000002 32.654969 26.842518
14.873209000000001 15.174595000000002 12.160208
14.848855000000002 23.734535 20.735853
14.983884000000002 33.077801 29.778296000000005
14.785417 29.944904 32.81248
12.108740000000001 32.982925 32.811781
35.702436999999996 26.866605999999997 21.186282
15.198516000000001 32.643175 35.715467
32.862024 27.018597999999997 29.990976000000003
32.683218000000004 32.971247 35.890578999999995
14.909438000000002 26.686135999999998 11.948858000000001
20.816929000000002 17.844493 20.706876
21.133352000000002 26.694229 35.761484
29.910766000000002 26.904435999999997 15.225040000000002
14.904466000000001 20.786051999999998 29.946762
20.781998 32.999021 12.084402
20.738571 30.070323000000002 14.980080000000001
17.805467 32.655734 15.030023000000002
32.760059 35.706829 27.05596
20.793878999999997 32.878087 17.833696000000003
20.823829000000003 29.729519000000003 20.699187000000002
17.808487 32.61107 20.853794
30.037496000000004 27.004708 26.972482999999997
35.987080999999996 32.659037 26.875193000000003
20.755000000000003 32.73149 24.02962
20.735233 29.794272 26.798673
18.079377 32.869092 27.008966
33.054768 35.947015 20.947699999999998
12.167828000000002 20.806544000000002 26.994551
20.829084 32.587872000000004 29.748751
21.031889999999997 29.953496 32.724163000000004
17.831087000000004 32.881995 33.056049
32.697198 23.909633 15.127107
21.066069 32.653132 35.967519
20.721180000000004 36.009915 15.01279
21.086139000000003 35.941992 20.846069
32.55246 35.793057999999995 14.975243
21.134949 35.897330000000004 27.042216000000003
20.839672 35.708104999999996 32.659572000000004
17.855768 27.048415 32.953445
20.918211999999997 23.812751 32.644175000000004
21.087994000000002 26.927560999999997 29.643472000000003
14.933962000000001 17.839013 32.980718
18.005522 21.105549000000003 21.081246999999998
15.128824000000002 12.110396000000001 14.823085
21.082154000000003 20.789518 23.718484000000004
20.968076000000003 17.905525000000004 26.655863000000004
17.802637000000004 21.028122000000003 27.014400000000002
35.960286 15.138252000000001 32.936791
35.658955999999996 32.764941 20.789473
20.692804000000002 20.972751000000002 29.717031
21.077818999999998 17.818929000000004 32.615882
18.078340000000004 20.830555000000004 32.959345
35.606574 14.799145000000001 26.935586999999998
20.771135 21.111772000000002 35.819408
14.781768000000001 20.898218 35.779883
20.874574000000003 20.934773999999997 18.210287
20.743610000000004 27.109071999999998 12.028642000000001
18.049039 27.041972 14.910425000000002
36.001266 14.994011000000002 20.910361
32.995582 23.956086 32.634221000000004
20.759951 27.012315 17.937696000000003
20.847012999999997 24.057793000000004 21.080055
17.893079 27.136893999999998 21.017372
35.604891 15.038781000000002 14.795076000000002
11.769555 21.072011000000003 32.909144
21.016834000000003 26.947913 23.755422000000003
20.755462 23.823271 26.781412000000003
17.951505 27.058036 27.08466
33.008607 35.973422 32.676891000000005
21.133238 23.780869000000003 15.095555000000001
32.941312 21.042352 30.022304
29.862062 10.868369000000001 36.904104999999994
17.856496 23.838996 10.540633000000001
36.914438 11.002405000000001 17.99949
23.984397 10.560672000000002 17.97553
23.926762000000004 29.788434000000002 37.305443000000004
29.878801000000003 18.041223000000002 10.545956000000002
17.890133 23.966669000000003 37.217547
17.972285 10.590862000000001 23.927858
29.846042000000004 36.866251 36.752429
29.758768000000003 10.966078000000001 10.908830000000002
37.217248 23.834812 29.842563
17.957464 36.892835999999996 10.903718000000001
17.900718 37.212585999999995 29.910436000000004
23.822336 36.855225 36.839141
36.891854 11.008355000000002 29.780500000000004
10.980282 18.027576000000003 10.938399000000002
36.761863 36.877649 23.935958
23.796867 37.263023999999994 29.875543
29.875526 10.500429000000002 23.805597
23.952655 23.950431000000002 10.528492000000002
11.012705000000002 23.820603 36.824925
36.891208999999996 23.840850000000003 10.899722
37.31489 29.842889 29.93555
23.934189000000003 10.994631000000002 36.922265
36.870911 10.908195000000001 23.825193
10.948139000000001 10.974004 29.770664000000004
29.528253 23.809562 35.479012000000004
30.046930000000003 30.264694 35.976921999999995
29.843220000000002 29.471563000000003 11.818559
35.950812 30.196306 12.079525000000002
36.007994000000004 24.451120000000003 35.918657
36.019875 24.127991 24.126208
35.501762 23.546857000000003 18.237218
35.64903 17.743841000000003 35.301607
35.547661999999995 18.366149 30.209526000000004
36.200476 29.889984 17.983906
36.086869 17.628625 11.875716
36.198967 29.491183 23.922632999999998
29.753809000000004 35.762539 29.252150999999998
30.131659 36.157588 17.950557000000003
29.465823999999998 35.468133 11.817478000000001
30.283667 29.933943 29.698593000000002
35.449328 29.700543000000003 35.591918
30.197226999999998 29.662754 23.852283999999997
29.670896 29.552381000000004 17.761181
36.047179 36.172522 18.286782000000002
35.525128 36.09754 29.498769000000003
30.238872 35.994122 24.287042999999997
30.088715999999998 18.28694 23.805583
29.336438 24.029035 24.136088
17.942097000000004 23.502042000000003 29.520603
17.872827 23.584960000000002 24.263708
18.284233 24.207613000000002 18.051581
18.109312000000003 17.900235000000002 36.329457999999995
17.520279000000002 17.942082 29.927728000000002
17.478180000000002 18.018489000000002 23.798775
18.266157 17.585622 17.659753000000002
18.020983 12.315189000000002 35.576899000000004
17.95125 12.240069000000002 17.656584000000002
17.951684 12.356459000000001 11.6697
11.921025000000002 35.506611 30.181435
12.150332 36.112572 24.148650000000004
11.777861000000001 36.160867 17.891599
11.979912 29.428891 35.416379
11.695338000000001 29.953896 29.493320000000004
11.529118 29.641222 23.931293000000004
12.006823 29.620285000000003 18.303698000000004
11.925021000000001 30.208681 12.335329000000002
11.691656000000002 23.837518000000003 30.063208000000003
11.698893000000002 23.639124000000002 23.863869
11.642650000000001 23.592314000000002 18.283197
11.482588000000002 23.832306000000003 12.075027
11.611046000000002 18.011105999999998 35.462247999999995
12.280295 18.296458 29.594022000000002
11.716592000000002 17.847868 23.624696999999998
11.797932000000001 17.495806 17.687458
11.954317000000001 11.836908000000001 24.252619000000003
11.735585000000002 12.145641000000001 18.176769
29.96423 23.961821999999998 29.390587000000004
17.783586 29.952486999999998 11.508771000000001
18.009708000000003 30.264580000000002 18.230386000000003
18.310529000000002 11.810266 29.788181
17.944148 30.266841 29.567628
30.113871000000003 24.206592 17.540811
29.641441999999998 24.106330999999997 12.280032000000002
29.419629999999998 18.030557 35.532944
29.571266 18.179610000000004 29.574128
18.089593999999998 29.580297 24.103813000000002
30.074562999999998 11.835496000000001 17.606593000000004
24.303378000000002 36.116474000000004 24.113813999999998
23.864877 35.48928 17.626434000000003
23.514105 36.093015 12.011940000000001
23.501585 29.790511000000002 30.260414000000004
24.176479 29.355305 24.032604
23.839585999999997 29.649302 18.349263999999998
24.203712000000003 29.824357 11.486399
23.682063 23.574258 36.108722
29.757058999999998 18.352002 18.341627000000003
24.150285000000004 23.729072000000002 23.617857
24.131722000000003 23.453282 29.720069000000002
18.354486 29.669333 35.423885
18.406119000000004 35.792673 23.984631999999998
18.135753 35.601343 36.157424
24.185952 12.363459 23.707734000000002
23.444626 11.666623000000001 29.912343
24.099764999999998 11.634487000000002 11.626723000000002
23.499657 18.089633 17.570017
24.310892000000003 18.125244000000002 23.729067999999998
23.912149999999997 18.095758000000004 29.397962
24.001510000000003 18.306325 35.472232999999996
24.331009 23.889550999999997 18.146630000000002
24.270356999999997 18.409005999999998 12.120584000000001
23.140729999999998 36.575176 37.525670999999996
23.678445000000004 37.815701999999995 36.331697
17.114809 37.645948 29.258889000000003
17.073023 35.446412 30.269127000000005
24.843268000000002 36.843965000000004 37.332606
12.311034000000001 12.242886 28.907239000000004
18.730363000000004 35.441567 30.379078
18.873908999999998 37.588549 29.390056
17.807426 37.603964999999995 30.881307
18.068544000000003 35.452001 28.889820999999998
36.138393 12.820963 23.416648000000002
18.111721000000003 34.885960000000004 11.627101000000001
10.079257000000002 24.493830000000003 36.450905
12.291816 24.879686999999997 35.562525
11.655445000000002 23.476343999999997 34.965551999999995
12.824275000000002 23.400534999999998 36.064530999999995
37.630739999999996 23.647575000000003 30.890169
37.635414000000004 23.101824 29.151554000000004
37.648252 24.900184000000003 29.551617999999998
12.831552000000002 11.676353 30.376258
35.389989 24.098440000000004 28.918927000000004
35.413329 23.010027 30.110701
11.629764000000002 12.879737 30.225024000000005
18.920851 36.840226 10.470503
17.151169000000003 36.635497 10.219762000000001
22.966528000000004 35.724236999999995 35.300149
17.067806 35.794461 12.474468000000002
18.685664000000003 35.980889 12.661632
35.393529 24.589058 30.513516000000003
17.80007 37.78968 11.404403000000002
35.240043 11.948241000000001 28.977476000000003
24.589872999999997 35.975901 35.065397
37.059829 37.055153 22.827725
36.399743 37.712651 24.412360999999997
34.969249 36.11788 23.380021
35.509009999999996 35.517845 24.875777
36.127686000000004 34.968942 23.395628000000002
24.903956 37.631575 29.570383
23.145180000000003 37.621199 29.110404000000003
37.706395 36.481569 24.428880999999997
23.596688 37.624874999999996 30.86907
24.548312000000003 35.425171999999996 30.495471000000002
24.174607 35.463491999999995 28.924407000000002
30.657218999999998 12.40426 24.466742000000004
29.783981000000004 10.213642000000002 24.929554000000003
28.978521 10.196149000000002 23.271763
30.825887 10.208516000000001 23.445894000000003
29.945746 12.375173000000002 22.905793000000003
22.942031999999998 35.42489 30.053484000000005
12.725986 18.578647000000004 11.766403000000002
11.615302000000002 18.229195000000004 12.952460000000002
12.404244000000002 17.022012000000004 12.076299
11.356011 10.065526000000002 29.383841000000004
37.402423 10.984264000000001 30.780298000000002
36.34239 10.024194000000001 29.763519000000002
37.473907000000004 11.140664000000001 28.992829
36.215004 12.907263000000002 29.972837
35.110921999999995 11.845372000000001 30.639494
10.139574000000001 11.302841 29.256514000000003
30.440144000000004 10.104939000000002 11.311024000000002
28.831095000000005 10.650667 10.764907000000001
30.302346 11.348698 10.093255000000001
29.332638000000003 12.806722 11.715188000000001
30.821818 12.261673000000002 12.240424
29.41064 11.690511 12.881323000000002
10.669988000000002 10.795908 30.906783000000004
10.568657000000002 18.974214000000003 10.897321000000002
11.394013000000001 17.625715 10.009931000000002
10.211181000000002 17.21131 11.233580000000002
24.076172999999997 34.886427000000005 36.169911
11.376134000000002 24.399858000000002 37.732386999999996
30.589243000000003 36.574421 37.574444
29.622535 34.872443999999994 36.218810999999995
37.120352000000004 10.726601 22.840702
17.27766 24.7354 10.205611000000001
18.980916999999998 24.049934 10.219626000000002
17.510982 22.940714999999997 10.205527000000002
18.551707 23.122266000000003 12.389661000000002
17.006717000000002 23.792971 12.396928
18.334367 24.815980000000003 12.370432000000001
23.032466999999997 10.197831 17.360734
24.822905 10.159202 17.506700000000002
23.775976 10.224668000000001 18.996268
24.673597 12.412426000000002 18.529356
23.019199999999998 12.392303000000002 18.363576000000002
24.026183000000003 12.337304000000001 16.98334
24.893648 30.066765000000004 37.599941
23.207962000000002 30.600552999999998 37.632689
23.523911 28.870494 37.605404
22.979821 29.648659000000002 35.418057
29.141873000000004 12.725049000000002 36.004731
24.51867 29.106022000000003 35.388489
30.739591000000004 12.448656000000001 35.728761
30.552367000000004 10.212031000000001 36.543623000000004
35.492616 12.258874 24.875473
37.577838 24.693745999999997 11.161464
37.31396 22.897038000000002 10.926923
36.364467999999995 24.125667 10.009381000000001
35.103742000000004 23.149406 11.782352000000001
35.285293 24.823043 12.021257000000002
36.188964 23.736013999999997 12.904682000000001
36.398475999999995 10.086367000000001 24.421267
23.072347 24.570787000000003 10.214855000000002
24.887121999999998 24.282258 10.213496000000001
23.737249 22.879344000000003 10.225944000000002
24.634507 23.282733 12.336352000000002
23.020746000000003 23.517386000000002 12.397916
24.034454000000004 24.804997999999998 12.365565000000002
37.682693 11.368733 24.408209
30.081153 11.454994000000001 37.784079
28.873893000000002 10.525325 36.853646000000005
29.6214 11.608891000000002 34.838753000000004
24.193721000000004 30.726806000000003 35.404745
22.939956000000002 12.383391000000001 35.622937
37.571555 30.625334000000002 30.569755
17.850813000000002 10.179366000000002 22.899385000000002
17.081671 12.338323 23.452748999999997
18.738685000000004 12.399773000000001 23.338501
17.990629 12.384519000000001 24.831668999999998
23.293982999999997 10.144340000000001 36.470982
36.84509 10.513342000000002 18.904117
36.568531 10.249675000000002 17.190619
37.817783999999996 11.421141 17.755015
35.743807999999994 12.461793000000002 17.066258
35.985721 12.686992000000002 18.679335000000002
34.892053999999995 11.623811000000002 18.164915
23.494073 11.407464000000001 37.781618
28.895923000000003 36.855256000000004 37.289374
34.961208 11.646105 23.405633
30.012174 37.81829 36.360621
30.754144000000004 35.770508 35.281194
29.128233 35.954775 35.065292
17.057203 10.202166000000002 24.461568
18.880439000000003 10.186285000000002 24.385897999999997
24.913327000000002 10.606926000000001 37.004786
18.863746 24.110294000000003 35.395097
37.626292 28.856844000000002 30.126282000000003
37.598368 30.052546 28.799354
35.438098000000004 29.118828999999998 29.171669
35.419564 30.795181 29.588068
35.388393 29.631274000000005 30.766103
24.450730999999998 12.831296000000002 36.054342999999996
30.215369000000003 16.959729000000003 10.186576
28.80869 18.1085 10.175849000000001
10.676851000000001 22.869871000000003 36.986213
30.463005000000003 18.808094000000004 10.194897000000001
30.813828 17.794942 12.371410000000001
29.252723000000003 17.206277 12.351402000000002
24.310525 11.629121000000001 34.920970000000004
18.683270999999998 23.147416 37.613302
18.303205 24.872403 37.595997000000004
16.945990000000002 23.696894999999998 37.587579
17.277505 24.621898 35.43435
17.650803000000003 22.944226 35.410185
29.519310000000004 18.839551 12.368497000000001
28.979129 12.412359 24.311106000000002
23.846595999999998 11.931768000000002 17.936215000000004
35.833102000000004 12.035280000000002 23.978054
17.891948 12.054100000000002 23.883372
23.880614 29.764423999999998 35.816187
29.934447 11.986761000000001 12.053030000000001
29.894431000000004 11.999987 35.855671
18.02709 23.943206000000004 12.043263000000001
12.063759000000001 11.939004 29.870729000000004
35.757441 35.866783 23.882897
18.014478000000004 35.847541 11.938953000000001
35.798798999999995 12.022142 17.845802
17.947036000000004 23.971598999999998 35.811448
11.961517 17.969848 11.918469000000002
29.802203 17.981332000000002 12.045367
17.981861000000002 35.752392 29.92946
23.837108999999998 35.742053 29.804599000000003
23.823351000000002 12.011685000000002 35.860734
35.73178 29.893757 29.885863999999998
35.811222 23.829425999999998 12.022177000000001
23.871698000000002 35.877879 35.75028
29.841074 35.823833 35.727747
23.954985999999998 23.948430000000002 11.964967000000001
35.732597 23.856651 29.896929
11.963429000000001 23.845632000000002 35.756473
29.845132 12.053218000000001 23.945506
35.723084 12.038673000000001 29.788473000000003
15.186505000000002 15.145088000000001 15.090330000000002
27.088099999999997 15.125995000000001 32.901225000000004
27.023803 14.998718000000002 26.706678000000004
26.597012 14.963581000000001 21.030448
26.717283000000002 15.085176000000002 14.825431000000002
20.79632 33.007163 33.009637
20.894031 33.041354 26.742220000000003
21.129354 32.628017 20.830647
21.159255 32.760976 15.143606000000002
20.945991999999997 26.702739 33.007109
20.993841000000003 27.003287999999998 26.694679
20.813615 26.655217999999998 21.071837000000002
20.790008 26.820718 15.272211
21.047623 21.070934 33.074164
21.101692999999997 21.194133 26.984453000000002
21.20512 20.952727000000003 20.904635
21.179844000000003 21.0653 14.906418
20.795669000000004 15.131505 32.905118
20.657999000000004 15.179264000000002 26.785291
21.093525 15.030941 20.678818
21.077955000000003 15.114040000000001 15.260116000000002
14.834704 33.018183 32.567865000000005
14.712485000000001 32.954764000000004 27.000462
15.043471000000002 33.154965000000004 20.998598
27.063125 21.005889000000003 14.839418
15.169879000000002 32.858318000000004 14.702678
26.720388999999997 21.076454 20.870784
26.568934 20.854906 26.703245000000003
33.089973 26.732070999999998 26.777630000000002
32.554646 26.715072 21.027001
32.574584 26.711007000000002 15.178061000000001
32.632861 20.852004 33.012413
32.832401000000004 20.857613 27.128822
32.560956000000004 21.048405000000002 20.902782000000002
32.648133 33.018141 14.966560000000001
32.556818 20.884016000000003 14.841508000000001
32.976979 14.957067 32.611557000000005
32.977368 15.172125000000001 26.863408999999997
33.026642 15.149618000000002 21.094506000000003
32.924909 14.896206000000001 15.209484000000002
27.037838999999998 32.592821 32.780082
33.020047 32.989116 21.086682000000003
27.005929000000002 32.698885000000004 26.723131000000002
26.919134999999997 33.024836 21.105747
26.984983 32.593874 15.008807000000001
26.731776000000004 27.068977000000004 33.010257
32.875228 32.474406 26.883802000000003
27.007513000000003 27.013672999999997 27.019803000000003
26.675719 26.657789 21.139609
27.024312000000002 26.914203999999998 14.694529000000001
27.11513 20.768465 32.734787000000004
32.472106000000004 32.808214 32.888727
15.226801000000002 26.797891999999997 32.99542
32.917421000000004 27.141246000000002 32.708647
14.930649 15.231775 32.73149
14.876813 26.98981 15.228150000000001
15.143268 20.699696000000003 20.696092999999998
15.116144 20.781239 15.076613000000002
14.689181000000001 15.121731000000002 21.069146000000003
14.783807000000001 20.678818 32.973144
15.314650000000002 14.898222000000002 26.945779
14.825933000000001 26.915180999999997 26.714199999999998
14.862988000000001 20.996496 26.544674999999998
15.022955000000001 26.911454 20.588945000000002
