1_train/15_cspbbr3_methylammonium_3_0.30\15_cspbbr3_methylammonium_3_0.30.xyz
1.0
41.775369 0 0
0 41.775369 0
0 0 41.775369
Br C Cs H N Pb 
108 14 40 84 14 27 
Cartesian
30.0374825 26.8512325 26.9076085
23.8511585 14.742215499999999 14.916173499999998
26.9878635 12.101755499999998 14.803761499999998
26.944605499999998 14.880693499999998 11.784011499999998
12.074829499999998 15.096605499999999 20.7394875
24.060522499999998 26.7859455 26.998053499999997
20.963748499999998 29.945362499999998 26.674402499999996
21.0694195 29.8123115 20.7091465
26.6797145 27.027979499999997 29.883023499999997
21.022115499999998 29.9077055 14.776493499999997
21.100951499999997 26.7919065 29.744984499999997
17.8146605 27.0316855 26.7727525
20.881844499999996 23.6836365 26.695448499999998
20.732185499999996 26.7891065 23.9596025
26.715389499999997 29.9139365 14.839228499999997
17.839780499999996 26.9331285 20.741233499999996
20.6826035 24.014682499999996 20.8224105
20.981372499999996 26.6851575 17.9530575
26.9489925 29.605644499999997 20.8395635
17.830989499999998 26.924076499999998 15.093393499999998
20.989173499999996 23.7474035 14.836924499999999
20.677925499999997 26.973259499999998 12.022144499999998
14.719468499999998 15.020456499999998 23.8705545
14.818481499999997 12.103031499999998 21.1206525
26.6894325 14.810493499999998 17.812405499999997
24.017345499999998 14.810777499999999 20.9246545
27.0551085 29.6738155 26.791519499999996
23.8211095 26.9766765 15.105896499999998
26.9424235 23.902062499999996 15.186177499999998
26.9155725 26.662238499999997 11.765743499999997
14.969454499999998 14.783800499999998 11.790281499999999
26.742033499999998 23.7751125 21.055720499999996
26.7220695 21.020556499999998 29.8618675
23.750334499999997 26.784652499999996 20.700622499999998
23.8073575 21.0270975 26.957109499999998
26.589692499999998 17.8415765 26.9076445
26.897525499999997 20.9877655 24.066867499999997
15.089412499999998 12.018694499999999 14.757052499999999
23.675136499999997 21.0699485 20.905774499999996
27.025919499999997 17.8859355 20.756424499999998
26.712514499999997 20.747773499999997 18.0814195
11.773752499999999 14.911014499999999 15.141049499999998
23.7785515 21.039518499999996 15.094939499999999
26.630569499999996 18.0109085 15.109639499999998
26.722315499999997 20.716619499999997 11.955798499999998
26.803202499999998 26.959023499999997 23.716852499999998
26.9424945 15.044930499999998 29.710537499999997
26.550638499999998 23.9023365 26.8228155
23.853267499999998 14.734415499999997 26.681710499999998
26.7307265 12.081473499999998 26.7071535
26.6748145 14.921386499999999 23.6794375
14.676995499999999 14.809609499999999 17.9177945
26.9011545 11.689018499999998 20.936151499999998
11.872871499999999 21.0282595 20.7861035
20.7873895 20.834245499999998 29.9968875
29.658689499999998 14.787502499999999 26.8257005
20.893180499999996 12.190197499999998 14.838403499999998
20.971707499999997 15.118032499999998 12.144037499999998
14.928598499999998 18.091882499999997 14.811072499999998
18.147865499999998 20.969360499999997 26.882392499999998
14.833422499999998 29.7214645 26.6394055
29.650920499999998 20.7036215 14.781890499999998
14.909018499999998 29.862224499999996 20.691707499999996
29.724281499999996 26.7903755 20.737958499999998
15.032484499999999 29.6547585 14.897121499999997
14.930590499999997 26.846803499999996 30.042854499999997
29.808938499999996 20.6912465 20.7500775
12.061586499999999 27.066026499999996 26.8398935
15.029094499999998 23.679868499999998 27.0372225
15.000962499999998 26.933072499999998 23.693722499999996
12.169902499999997 20.856329499999998 14.841627499999998
29.996571499999998 20.661844499999997 26.818398499999997
14.841863499999999 20.7669665 29.6506965
11.948045499999997 26.843823499999996 20.706578499999996
14.889704499999999 23.6069475 21.0110615
14.811905499999998 26.9901795 18.071944499999997
29.8626075 26.545487499999997 14.944650499999998
14.741880499999999 21.0279445 17.9951835
12.169057499999997 26.6884055 15.081196499999997
18.004934499999997 15.004506499999998 14.713027499999999
14.802749499999997 23.862802499999997 14.794545499999998
11.796673499999999 20.8707015 26.636476499999997
20.7226125 14.814548499999997 17.7789355
20.769466499999997 17.8296845 26.7284725
21.1198935 21.011978499999998 23.934406499999998
14.806470499999998 11.838385499999998 26.909731499999996
29.832738499999998 14.7527555 15.092621499999998
17.836245499999997 20.717756499999997 20.7065095
20.9335865 17.9517255 20.622905499999998
20.7559245 20.8238515 18.1663735
12.138517499999999 14.917289499999999 26.9191975
26.7867645 26.9721395 17.766274499999998
17.999082499999997 20.6958995 14.861134499999999
20.8567675 17.7471635 15.091637499999997
21.027653499999996 20.684370499999996 12.007103499999998
14.729573499999997 17.8731695 21.0990865
14.844675499999997 15.166803499999999 29.7574065
21.035319499999996 14.792288499999998 29.652408499999996
29.7710665 14.760440499999998 20.828169499999998
15.082049499999998 20.9465315 23.6907595
18.009056499999996 14.853684499999998 26.985590499999997
20.7714905 11.827806499999998 26.941031499999998
20.8959705 14.756036499999999 23.6471295
17.7228505 14.937425499999998 20.768028499999996
20.832897499999998 11.817355499999998 20.7502565
14.900654499999998 17.968969499999996 26.562623499999997
14.844508499999998 20.774050499999998 12.147209499999999
14.704346499999998 26.955435499999997 11.960617499999998
17.9531295 17.974817499999997 10.536050499999998
23.947068499999997 31.2448125 17.9531505
31.2338785 17.9319535 23.910091499999997
17.922039499999997 30.780202499999998 10.985325499999998
30.945185499999997 17.853219499999998 30.8403015
17.954638499999998 31.3491085 23.8561735
30.8803995 30.7961675 23.7937045
30.868463499999997 18.008974499999997 10.944516499999999
23.8919605 31.337400499999998 23.806333499999997
10.861058499999999 17.9438085 10.979719499999998
23.862926499999997 10.421552499999999 17.862939499999996
10.402951499999999 17.8657355 17.948762499999997
23.811165499999998 10.571646499999998 23.8204295
17.839999499999998 10.447849499999998 23.863320499999997
24.170698499999997 29.969889499999997 29.5120805
29.480320499999998 24.0835515 12.327687499999998
30.206252499999998 30.035330499999997 17.861531499999998
29.4649425 17.8478465 18.266864499999997
30.182384499999998 11.960580499999999 24.212611499999998
24.1310415 24.044396499999998 29.5883565
24.116673499999997 30.069759499999996 11.780015499999998
29.9033895 23.3834925 29.5630295
23.560814499999996 24.2044355 24.0165795
30.184274499999997 12.258638499999998 17.701752499999998
24.1583675 23.545281499999998 17.552030499999997
23.573655499999997 23.953058499999997 12.195705499999999
11.768584499999998 11.617531499999998 17.722753499999996
12.442847499999997 11.863115499999997 23.6953145
11.960569499999998 18.3920535 29.7306745
11.722491499999999 23.482596499999996 12.294106499999998
12.352607499999998 23.6336415 18.260761499999997
12.165182499999998 23.511083499999998 23.488784499999998
12.272704499999998 23.628700499999997 29.7373655
11.364255499999999 29.877158499999997 17.942237499999997
11.507974499999998 29.815142499999997 23.5078665
17.696060499999998 12.275443499999998 11.875890499999999
17.616770499999998 12.297911499999998 17.865725499999996
17.9533985 12.302526499999999 29.659923499999998
17.595383499999997 17.597689499999998 17.6690205
12.445733499999998 18.1921535 23.809862499999998
17.425600499999998 18.251893499999998 29.9159005
18.240100499999997 17.576310499999998 23.485278499999996
24.218513499999997 17.986976499999997 29.9403935
23.7051745 18.2524065 24.0322845
23.4923745 17.6066765 11.634861499999998
24.304259499999997 11.747155499999998 30.054535499999997
23.618225499999998 12.281504499999999 11.899116499999998
23.8776325 18.103457499999998 17.4801255
17.793507499999997 29.632183499999996 18.353574499999997
17.644927499999998 23.670879499999998 30.0717455
18.258373499999998 23.6819855 23.838762499999998
18.004585499999997 24.2359375 17.7273465
17.478390499999996 24.213164499999998 11.737339499999997
18.2208705 29.3454555 29.725073499999997
29.630766499999996 16.963247499999998 29.4132425
29.7914055 16.9943255 12.431850499999998
29.9773975 18.620081499999998 12.632889499999997
31.830304499999997 17.726601499999997 11.431194499999998
30.8487165 18.877885499999998 10.404460499999999
30.588468499999998 17.109204499999997 10.175002499999998
12.365815499999998 18.6987645 18.466788499999996
17.878213499999998 16.980918499999998 12.366221499999998
18.7952995 18.341734499999998 12.329084499999999
17.133030499999997 18.4143755 12.323976499999999
17.9801795 18.9299085 10.1650985
17.008487499999998 17.4084255 10.183440499999998
18.818236499999998 17.3712225 10.175282499999998
22.9258085 10.141574499999997 24.311594499999998
23.924869499999996 10.128671499999998 22.841197499999996
30.1717065 28.8702495 23.608927499999997
28.912383499999997 18.079482499999997 11.567661499999998
12.310907499999999 17.049369499999997 18.2950245
12.353557499999997 18.0622135 16.9798545
11.303780499999998 18.409923499999998 10.025223499999997
24.3477975 12.312711499999999 18.7732615
23.3390015 10.175407499999999 18.821571499999997
24.9239045 10.134829499999999 17.9279735
23.3506775 10.166976499999999 16.963661499999997
10.136190499999998 17.7935435 18.974085499999997
23.349851499999996 29.436734499999996 23.0939205
24.8053425 29.461992499999997 23.765554499999997
23.427469499999997 29.463298499999997 24.737011499999998
29.339020499999997 29.7047195 24.757720499999998
24.464616499999998 31.639548499999997 24.741070499999996
24.342100499999997 31.5968655 22.948672499999997
10.124475499999999 18.8856535 17.4799595
10.135454499999998 17.0657195 17.2479595
12.841611499999999 17.449585499999998 11.658722499999998
12.253727499999998 18.8920455 12.202666499999998
11.663691499999999 17.4675625 12.835419499999999
10.0549355 18.4078375 11.286389499999999
10.697146499999999 16.8562265 10.712043499999998
22.804307499999997 31.643450499999997 23.9554145
29.0647305 30.005843499999997 23.2075735
30.394169499999997 31.7678095 24.1414005
31.3186215 30.876740499999997 22.8935355
31.6086635 17.803624499999998 24.913078499999997
31.664799499999997 18.880435499999997 23.4760185
22.910406499999997 12.300439499999998 17.897837499999998
30.9832735 18.960537499999997 31.221956499999997
24.4688265 29.425610499999998 17.196561499999998
24.1709225 29.441546499999998 18.8668095
22.950440499999996 29.4254705 17.683544499999996
23.146518499999996 31.648265499999997 18.6916515
31.6283675 17.0588505 23.2174645
23.577961499999997 31.617526499999997 16.890064499999998
30.5235675 17.248306499999998 31.618318499999997
28.8880445 18.197622499999998 30.1853865
17.0170575 12.341989499999999 24.2561395
18.731000499999997 12.319919499999997 24.4329985
18.017435499999998 12.363851499999997 22.9124595
18.8313635 10.169592499999998 23.436312499999996
17.0214505 10.165066499999998 23.260066499999997
17.8470475 10.134259499999999 24.8788785
24.891198499999998 31.615826499999997 18.170743499999997
30.066691499999997 18.508735499999997 29.0055555
29.470583499999996 17.052943499999998 24.211543499999998
29.423360499999998 18.707213499999998 24.471139499999996
31.587051499999998 30.589618499999997 24.634220499999998
24.711626499999998 10.156281499999999 24.425676499999998
24.7457735 12.360351499999998 23.420239499999997
18.875058499999998 29.463451499999998 24.0890545
17.240187499999998 29.4342825 24.517834499999996
17.630708499999997 29.470072499999997 22.922258499999998
16.863679499999996 31.602872499999997 23.621912499999997
18.649333499999997 31.597401499999997 23.146143499999997
29.464273499999997 18.048871499999997 22.901555499999997
18.1736585 31.637548499999998 24.827086499999997
23.019615499999997 12.305629499999998 23.3632515
16.935567499999998 29.5951845 12.244328499999998
18.380766499999996 28.981647499999998 11.599714499999997
18.4341805 30.109782499999998 12.780186499999997
18.974922499999998 31.061314499999998 10.632529499999999
17.4199785 31.7720405 11.354031499999998
17.381420499999997 30.435128499999998 10.067053499999998
31.762022499999997 17.5396355 30.410500499999998
23.825600499999997 12.319607499999998 24.794016499999998
24.3898475 12.323495499999998 17.107760499999998
29.7846315 17.9332525 11.895415499999999
17.9322965 17.889362499999997 11.892014499999998
29.870727499999997 29.8754575 23.8662395
12.022772499999999 17.9040775 12.026658499999998
17.8562145 29.847554499999998 23.9000955
23.838745499999998 29.8773785 23.9301285
17.8373165 29.7793045 11.979515499999998
23.847850499999996 11.908033499999998 17.9643095
23.8994075 29.8360405 17.8311665
17.9853615 11.953633499999999 23.8997445
29.887927499999996 17.956508499999998 23.8062985
29.851262499999997 17.8368385 29.763457499999998
11.959443499999999 17.886636499999998 17.826389499999998
23.8132865 12.014440499999997 23.8257375
15.020341499999997 15.002891499999999 15.264050499999998
14.815972499999997 27.0501045 20.875557499999996
14.998976499999998 26.683870499999998 26.9928775
20.720774499999997 14.796658499999998 15.099299499999997
21.0363415 15.133227499999998 20.970467499999998
20.849310499999998 14.715808499999998 27.0304005
21.041026499999997 20.7048435 14.825550499999999
21.019241499999996 20.754139499999997 20.702573499999996
21.1012395 20.8389495 26.7517075
20.7538375 26.620624499999998 14.922115499999999
20.576417499999998 26.9802735 20.801823499999998
20.9248925 27.091572499999998 26.859968499999997
27.0837315 15.146990499999998 14.9599275
26.980040499999998 15.177643499999999 20.6840875
26.802649499999998 15.155203499999999 26.582900499999997
26.872020499999998 20.659151499999997 14.843005499999999
26.6893135 26.8999465 27.020336499999996
26.9768455 20.772624499999996 21.0232925
26.9649915 21.0185255 26.9687905
26.645905499999998 26.6840545 14.902492499999997
14.594289499999999 26.848314499999997 15.060308499999998
14.8005705 20.708004499999998 26.9915575
26.8646525 26.635311499999997 21.1469925
14.955944499999998 14.922626499999998 26.550530499999997
14.731954499999999 14.799493499999999 21.0447605
14.759110499999998 20.8439345 15.243672499999999
15.125419499999998 20.7962685 20.9954525
