151_cspbbr3_5\151_cspbbr3_5.xyz
1.0
50.697001 0 0
0 50.697001 0
0 0 50.697001
Br Cs Pb 
450 200 125 
Cartesian
13.247664499999997 31.3853705 40.047338499999995
31.152975499999997 10.301124499999998 37.0836275
31.333364500000002 13.549993499999998 34.4818675
37.0698035 31.314662499999997 34.051863499999996
28.477270499999996 13.535789499999998 31.4971655
34.2800955 31.124643499999998 37.1388295
31.249016499999996 10.614168499999998 31.4622625
10.438463499999997 19.5893115 37.4350585
31.401542499999998 13.567444499999999 28.219387499999996
13.549349499999998 19.311848499999996 34.1099995
31.4728455 13.388141499999998 16.5142375
37.149283499999996 28.4605295 37.4187955
28.1573535 13.237725499999998 25.372018499999996
31.3641475 10.582573499999999 19.6674165
28.2938355 13.581037499999999 37.123878500000004
31.423627499999995 10.562372499999999 25.139602500000002
28.4943935 13.518595499999998 19.503111499999996
31.1995485 13.577363499999999 22.285591500000002
13.422950499999999 16.6379405 37.1944445
13.4923855 13.344179499999997 16.203061499999997
28.0934855 19.4497615 13.488215499999997
34.1435565 31.1898195 31.481601499999996
31.5098365 22.378136499999997 13.345390499999999
31.2911005 25.438843499999997 10.647512499999998
37.183848499999996 31.5123015 22.2540975
37.212314500000005 28.155863499999995 25.4765675
31.4838325 19.546102499999996 40.1289765
34.1104245 31.283241499999995 25.2484635
28.211358499999996 19.271868499999997 37.4584055
31.1143755 16.273874499999998 37.2123305
31.470364499999995 19.358979499999997 34.1345805
28.1992475 19.5049335 31.3762325
31.123282499999995 16.3100635 31.093610499999997
31.420387499999997 19.6112015 28.443428499999996
13.487317499999998 19.3047385 28.0611405
13.233197499999998 10.585728499999998 19.485414499999997
28.064578499999996 19.5281485 25.4052115
31.1451195 16.628468499999997 25.4854645
31.178441499999998 19.5464165 22.2403725
13.617954499999998 16.442555499999997 31.473806499999995
37.1345505 31.4859645 28.129782499999997
28.5660045 19.402866500000002 19.322351499999996
31.2067975 16.602680499999998 19.330549499999996
31.4624285 19.5809985 16.3480925
10.581936499999998 19.644118499999998 31.279076499999995
37.4099895 28.251597499999995 31.479144499999997
28.292823499999997 13.499860499999999 13.713247499999998
31.2316565 16.2777635 13.345090499999998
31.155190499999996 19.429593499999996 10.320088499999999
31.2050055 13.549594499999998 40.3667135
31.5370675 10.518910499999999 13.617690499999998
13.251269499999998 25.316998499999997 16.4711595
37.106463500000004 31.3006465 40.0935765
10.349416499999998 13.558951499999997 13.346701499999998
25.2352445 31.4464745 40.3363565
37.4129545 37.4491165 22.3854605
22.3579535 31.4840885 37.1866605
25.524342499999996 28.4310945 37.3729145
25.313629499999998 31.1052325 34.4563435
37.069025499999995 34.430642500000005 25.409940499999998
34.237041500000004 37.1099815 25.5846965
22.576671499999996 31.301930499999997 31.1459465
25.3805745 28.1850345 31.5074325
25.1675665 31.4163105 28.202236499999998
10.478552499999997 25.1767075 13.323867499999999
22.1089865 31.217271499999995 25.3338155
25.4186895 28.4930705 25.505759499999996
25.502148499999997 31.2269175 22.2729085
13.568719499999998 10.401421499999998 13.617842499999998
37.0999755 37.0586785 28.4203475
22.471379499999998 31.143697500000002 19.481950499999996
25.483517499999998 28.2085235 19.2426625
25.223136500000003 31.233973499999998 16.5993245
37.1037865 34.4231985 31.493497499999997
22.5481055 31.450148499999997 13.632061499999999
25.505528499999997 28.2024075 13.3584135
25.258886500000003 31.3055155 10.714226499999999
25.466573500000003 25.4145155 40.0614675
34.2440595 37.405069499999996 31.494457499999996
22.1968515 25.1849215 37.0964325
13.238878499999998 22.5741145 13.432172499999998
31.1109335 13.413839499999998 10.299114499999998
25.2887195 37.3413815 10.628849499999998
22.333130499999996 37.3273375 13.239585499999999
25.455580499999996 40.0094705 37.3721485
28.4667325 25.166033499999998 13.289936499999998
25.1503515 40.3871095 31.3127925
25.2901435 40.4255005 25.1866695
36.9890705 37.1865545 10.470864499999998
25.3804395 40.0361535 19.363828499999997
37.4706025 34.4065795 13.305388499999998
25.326429499999996 40.0780055 13.305072499999998
34.205115500000005 37.0283355 13.5818845
25.230644499999997 37.4029225 40.3636985
22.212959499999997 37.1681575 37.4306615
25.464198500000002 34.1391365 37.329792499999996
25.250412499999996 37.094629499999996 34.048103499999996
13.414638499999999 19.2448635 40.3446905
22.3763305 37.3702885 31.4702775
25.3755435 34.3892035 31.5518115
25.160652499999998 37.3413285 28.1339835
37.4646235 37.269859499999995 16.552600499999997
37.235757500000005 34.1669565 19.675262500000002
22.558831499999997 37.1988045 25.4966475
25.1957655 34.0906515 25.327436499999997
25.543139500000002 37.2939485 22.319855500000003
34.4162175 37.275279499999996 19.5544005
22.192325500000003 37.1587965 19.6181895
25.170896499999998 34.209393500000004 19.1883925
25.4961775 37.0813025 16.4033905
13.429399499999999 25.1148435 10.451274499999998
25.3644495 34.4267545 13.3452805
10.370628499999999 13.388858499999998 19.5484985
13.428382499999998 16.582688499999996 25.224864500000002
31.1334145 25.219469500000002 16.374064499999996
37.3707255 13.663310499999998 28.379966500000002
13.490883499999999 10.600926499999998 37.3922765
34.1960055 13.718312499999998 25.3397565
37.298218500000004 10.267746499999998 25.4308975
37.3341105 13.416564499999998 22.5340075
10.543975499999998 13.628488499999998 37.3809575
10.465412499999998 13.195452499999998 25.269448499999996
34.315301500000004 13.231341499999997 19.550521500000002
37.3571925 10.234444499999999 19.5309685
37.4991905 13.401239499999997 16.4332815
13.497357499999998 13.263555499999999 40.3232305
37.502883499999996 25.252720500000002 22.3629035
34.3802175 13.476837499999998 13.601360499999998
37.0518585 10.373678499999999 13.476709499999998
37.2945025 13.509281499999998 10.233347499999999
37.0389215 22.387204499999996 25.1350415
34.1513055 25.462658499999996 25.4761005
31.1762205 40.1970295 37.389294500000005
13.684086499999998 10.320747499999998 25.289666500000003
31.040940499999998 40.2751935 31.204086499999995
37.086813500000005 25.282331499999998 28.1455845
31.077740499999997 40.197824499999996 25.324833499999997
37.243868500000005 22.5579915 31.396693499999998
31.1282255 40.144026499999995 19.3421145
34.279281499999996 25.221470500000002 31.436499499999996
31.1899795 40.1967135 13.259654499999998
31.4565525 37.0935085 40.2038485
37.3970425 10.321984499999997 31.190526499999997
13.608218499999998 13.330706499999998 22.2982365
34.3857335 13.351450499999999 31.1116145
13.301566499999998 13.327187499999999 34.1849115
34.3384545 19.588195499999998 37.0359015
37.0935205 16.620445499999995 37.2973505
37.205507499999996 19.6124255 34.3468565
13.299751499999998 13.479779499999998 28.188652499999996
37.0428475 25.265778499999996 10.363720499999998
34.4020255 19.2589855 31.2934335
37.2243595 16.148939499999997 31.215790499999997
37.3455395 19.5540685 28.447961499999998
13.308502499999998 10.368244499999998 31.446574499999997
37.3967855 22.4935465 13.296188499999998
34.097907500000005 19.1593175 25.307351499999996
37.370493499999995 16.4903105 25.5201615
36.997930499999995 19.425749500000002 22.4002775
10.375943499999998 13.627619499999998 31.268251499999998
34.139951499999995 25.4560345 13.3808125
34.165169500000005 19.272287499999997 19.542165499999996
37.4445695 16.603762500000002 19.376464499999997
37.3169325 19.3981895 16.2319345
34.1440815 19.5051195 13.362807499999999
37.4368725 16.4623105 13.646994499999998
37.3859675 19.2624245 10.678183499999998
37.3681415 25.1635305 16.597891499999996
37.3521845 13.293634499999998 40.3686915
37.3370195 22.2021885 19.2547645
34.4575855 13.368154499999997 37.4264905
37.3797585 10.6075615 37.156287500000005
37.1790445 13.652293499999999 34.3289025
34.1299485 25.1673665 19.2471975
10.498678499999999 19.5642905 25.4962875
28.165158499999997 37.3784555 37.2333475
31.4740205 37.4511525 34.3192405
31.162364499999995 31.395455499999997 22.451463500000003
13.638682499999998 16.457401499999996 19.491932499999997
34.260656499999996 31.1449845 13.333167499999998
28.5211805 31.1253095 19.4287645
31.530289499999995 28.436617499999997 19.340666499999998
31.073100499999995 31.3689805 16.305274499999996
10.667337499999999 19.6004935 19.4168345
28.2567605 31.2123555 13.202514499999998
31.0865485 28.323046499999997 13.6132105
31.301547499999998 31.5479665 10.609577499999999
37.2922905 31.442749499999998 16.613431499999997
31.2936525 25.4773315 40.074751500000005
28.245645499999995 25.494029499999996 37.0900035
31.097871499999997 22.4287615 37.2260495
31.415203499999997 25.484463499999997 34.2441225
37.5394185 28.3432745 19.4611375
28.1847115 25.5147135 31.451831499999997
31.4494865 22.2394245 31.1609275
31.3116615 25.2448805 28.1489215
13.418227499999999 19.572942499999996 22.4627015
34.2005605 31.1244855 19.288669499999997
28.4307115 25.4771755 25.5035015
31.329657499999996 22.3113015 25.518449500000003
31.3457115 25.203145499999998 22.2397865
25.1578095 22.2880095 37.420683499999996
28.514159499999998 25.349329499999996 19.5086765
31.1781365 22.239242499999996 19.6261515
31.4078085 28.2005695 25.464029500000002
31.156195499999995 34.3840855 37.4303135
28.4812235 31.495520499999998 25.4626885
13.290596499999998 19.200382499999996 16.3034065
37.391189499999996 25.1445195 34.3020865
28.1580425 37.354755499999996 31.1697495
31.3524605 34.0680565 31.230061499999998
31.240748499999995 37.444897499999996 28.139354499999996
13.430924499999998 19.226001500000002 10.419807499999997
37.2245805 22.535489499999997 37.051351499999996
28.1719225 37.4079585 25.1978655
31.423730499999998 34.3708655 25.1833495
31.1866195 37.4108515 22.593039499999996
13.602554499999998 16.298032499999998 13.305024499999998
34.3974295 25.220015500000002 37.0484935
28.2196055 37.0465305 19.520405500000003
31.287474500000002 34.0066805 19.5270455
31.5183745 37.1750295 16.419569499999998
10.458803499999998 19.667472500000002 13.394504499999998
28.3340465 37.4329905 13.677931499999998
31.363992499999995 34.2485315 13.254685499999999
31.4215425 37.0208045 10.338128499999998
37.3735885 25.5083415 40.200235500000005
31.286038499999997 31.1335495 40.414677499999996
28.205718499999996 31.321051499999996 37.0936665
31.220589499999996 28.2166755 37.386964500000005
31.1286665 31.146660499999996 34.2067495
37.1221885 31.362680499999996 10.346131499999998
28.4163445 31.151450499999996 31.155401499999996
31.4809645 28.4621955 31.3569205
31.3781205 31.105675499999997 28.4344885
37.2538355 28.4202565 13.273496499999998
25.333558500000002 25.599877499999998 34.1956065
37.3943345 19.599934499999996 40.238572500000004
19.490261500000003 31.1686785 22.228292500000002
10.5622175 31.1449865 13.351108499999999
13.654404499999998 37.1086105 40.1922235
16.501793499999998 31.136509499999995 13.547291499999998
19.4264065 28.387589499999997 13.212451499999998
19.548855500000002 31.180355499999997 10.321411499999998
40.3100155 25.515764499999996 19.192353499999996
13.230050499999999 40.0483335 13.503231499999998
19.639945499999996 25.359888499999997 40.2965405
40.422073499999996 25.288307500000002 25.4026135
16.368697499999996 25.479597499999997 37.4572585
19.607271499999996 22.2844185 37.2144785
19.3022785 25.4683335 34.416075500000005
13.594794499999997 40.3793475 19.2731255
40.1052545 37.468532499999995 25.2598535
16.3513035 25.222874499999996 31.1601425
19.413500499999998 22.267664500000002 31.5124875
19.4870995 25.220493499999996 28.457826499999996
13.337442499999998 31.430969499999996 16.2602095
40.0686805 25.241037499999997 31.3363535
16.378595499999996 25.444906500000002 25.1759195
19.3972925 22.535233499999997 25.229831499999996
19.302043499999996 25.123627499999998 22.515170499999996
13.2266155 28.457694499999995 19.352998499999998
19.2313945 31.3804855 16.2687455
13.420926499999998 40.406887499999996 25.379346499999997
19.4393805 28.5052965 19.1954165
40.2974655 25.3656795 13.622801499999998
19.436127499999998 13.3401205 16.156741499999995
40.0910645 19.574589500000002 25.296082499999997
16.3226925 37.2477435 13.663751499999998
19.389708499999998 34.1532865 13.299629499999998
19.5504245 37.2475805 10.218055499999998
13.278288499999999 37.1521965 34.2023255
40.2507145 19.233172500000002 31.4527615
19.218019499999997 31.4539215 40.2944825
40.380210500000004 19.584117499999998 37.286728499999995
16.264748499999996 31.441098499999995 37.1325875
19.447416499999996 28.1531545 37.160216500000004
19.4312995 31.509147499999997 34.142180499999995
13.315117499999998 34.1923285 37.002981500000004
16.2768545 31.5469515 31.263692499999998
19.398255499999998 28.134620499999997 31.343098499999996
19.376959499999998 31.473802499999998 28.2315665
13.641008499999998 31.266011499999998 10.667959499999998
10.284860499999999 37.095194500000005 37.4157985
16.5531345 31.2345105 25.2216005
19.445451499999997 28.2553025 25.0835985
40.0584375 37.316959499999996 31.1036675
13.648170499999997 22.4695545 19.5369825
13.645500499999999 28.221075499999998 13.622681499999999
16.6029635 31.123161499999995 19.5582645
19.296788499999998 37.2978275 16.655432499999996
16.655060499999998 25.341480499999996 19.5182595
19.550673500000002 25.365945500000002 16.3103695
16.3362495 19.397245499999997 13.262770499999998
19.3203745 16.500491499999995 13.609349499999999
19.4329375 19.184962499999997 10.380765499999999
40.260506500000005 37.4123855 13.643537499999999
40.0814995 31.121570499999997 31.4519605
19.6458085 13.455693499999999 10.498525499999998
19.3745945 13.2851615 39.9932875
16.271758499999997 13.575450499999999 37.1938595
19.2821645 10.356682499999998 37.3287835
19.277406499999998 13.644544499999999 34.126549499999996
19.2745265 10.596032499999998 13.503539499999999
16.5816875 13.543515499999998 31.3637265
19.4395515 10.332239499999998 31.467721499999996
19.4537695 13.359939499999998 28.4727065
13.341891499999997 31.414274499999998 28.5257675
16.591314499999996 13.632469499999997 13.433989499999997
40.3231715 31.150076499999997 37.1608125
16.4203215 13.583912499999999 25.539159499999997
19.4724875 10.199412499999998 25.4250915
19.3510925 13.368358499999998 22.1280255
13.394697499999998 28.535686499999997 31.2527605
16.4689775 13.624475499999997 19.249292499999996
19.143221499999996 10.4163945 19.5300085
40.039516500000005 31.136463499999998 25.2664745
19.3647725 22.218345499999998 19.300718500000002
10.289243499999998 31.366625499999998 25.3818985
19.486084499999997 16.6217635 19.468315499999996
10.548074499999998 31.4201915 19.5865875
40.2155035 25.424361499999996 37.0098445
16.502585500000002 25.1586765 13.521138499999998
19.2747655 22.4334075 13.618896499999998
19.209126499999996 25.4693665 10.550690499999998
13.272337499999997 40.1255295 31.4985395
19.329783499999998 19.5619425 40.2812995
40.0899685 37.4156885 19.245298499999997
40.1413425 31.4688395 13.298335499999999
16.257107499999996 19.272968499999998 37.2831015
19.4612335 16.4686685 37.0627905
19.5051725 19.337104500000002 34.133669499999996
13.278688499999998 40.0386205 37.1262695
16.5447925 19.2300855 31.467487499999997
19.536970500000002 16.520145499999998 31.4053265
19.238918499999997 19.584346500000002 28.200129499999996
13.266003499999998 31.1969595 22.325666499999997
40.1311845 31.4457345 19.2603735
16.223667499999998 19.2532165 25.3947625
19.3718055 16.617095499999998 25.275378500000002
19.2927245 19.557979500000002 22.591545500000002
13.513700499999999 28.2008795 25.486506499999997
16.3339395 19.3604045 19.204119499999997
19.4091175 19.6257175 16.552487499999998
19.490984499999996 34.4428615 19.229890499999996
13.6884635 25.462281499999996 40.2795885
40.043454499999996 19.395461499999996 19.2195525
25.2365705 16.512269500000002 31.050140499999998
25.200235499999998 19.3291885 28.525471500000002
10.216864499999998 25.403698499999997 25.3817545
37.4171165 40.3140145 13.455190499999999
22.4691925 19.5003065 25.2131615
25.301660499999997 16.627399499999996 25.546746499999998
25.275147500000003 19.2305565 22.2467775
10.446416499999998 31.134266499999995 37.4486875
37.329890500000005 40.0481775 19.447230499999996
22.2261035 19.2293315 19.505601499999997
25.612972499999998 16.3167075 19.317618500000002
25.5744545 19.3609395 16.524204499999996
13.268954499999998 37.3909405 16.376355499999995
22.4189005 19.3395875 13.2290725
25.3733505 16.378431499999998 13.248259499999998
25.4825575 19.5127545 10.361019499999998
13.372966499999999 25.1461325 28.303242499999996
37.3369065 40.1000055 25.2440165
25.4397095 13.522755499999999 40.4053585
13.581764499999998 34.1734035 19.329708500000002
10.348813499999999 37.3118645 19.536117499999996
22.544849499999998 13.533006499999997 37.3475665
16.4387805 37.4186205 19.200461499999996
22.2656255 19.215396499999997 31.4261185
10.399820499999999 37.4792355 13.482036499999998
13.418071499999998 22.5082515 25.224030499999998
25.508568500000003 19.3099955 34.1333355
22.2845965 25.2743515 31.053833499999996
25.5094395 22.319590499999997 31.3727455
25.509398499999996 25.4634475 28.222863499999995
10.611825499999998 25.228055499999996 19.2400795
13.612559499999998 13.388238499999998 10.282963499999997
22.487561499999998 25.2290285 25.244522500000002
25.288900499999997 22.482409499999996 25.1129825
25.3701505 25.5090795 22.250108499999996
37.3165195 37.3823735 34.1156035
37.065509500000005 34.3741365 37.443445499999996
22.4791885 25.562270499999997 19.2678595
25.2449425 13.562267499999999 34.0891055
25.3732215 22.090875499999996 19.3159275
34.1606785 37.130084499999995 37.4096435
22.167544499999998 25.456402499999996 13.628982499999998
25.219579500000002 22.4935445 13.520056499999997
25.3641395 25.3816415 10.704830499999998
13.634692499999998 37.449954500000004 10.444160499999999
13.494325499999999 25.219193499999996 22.513416499999998
13.270999499999999 34.4711885 13.444199499999998
25.217760499999997 19.2713575 40.2187325
37.343599499999996 37.507791499999996 40.2130825
22.2464365 19.1974905 37.0896365
25.514171499999996 16.591711499999995 37.4168665
25.181450499999997 25.183252500000002 16.573361499999997
13.671935499999998 22.2783625 31.1983835
25.3698585 10.325192499999998 37.0636995
37.0416185 40.2629425 31.485049499999995
19.441064499999996 40.3500205 31.1484655
40.3187105 13.543100499999998 25.2254025
19.2013945 40.129253500000004 25.332992499999996
13.584674499999998 37.383801500000004 28.417840499999997
19.482859499999996 40.1248775 19.610518499999998
40.125806499999996 13.643735499999998 31.3267465
19.6131545 40.110662500000004 13.392876499999998
13.377495499999998 34.0483695 31.2208975
19.486946500000002 37.169666500000005 40.4666425
40.034462500000004 13.554266499999999 37.3910465
16.5651905 37.093348500000005 37.356247499999995
19.2763675 34.0736235 37.3564365
19.209889500000003 37.3003315 34.153259500000004
10.564795499999999 37.3210205 31.079589499999997
13.565024499999998 22.204147499999998 37.3719745
16.3063275 37.1787635 31.0767885
19.3195895 34.1872695 31.5273805
19.521803499999997 37.325100500000005 28.1543335
10.354008499999999 25.3378965 37.0707805
40.176162500000004 19.5876435 13.336373499999999
16.656957499999997 37.248470499999996 25.490931500000002
19.265296499999998 34.4933835 25.2073865
19.528468500000002 37.0977015 22.4750715
19.341756500000002 40.4157875 37.1903245
40.1041355 13.691949499999998 19.3971935
13.488081499999998 31.1000115 34.4663235
13.419917499999999 37.0019475 22.2639615
22.433857500000002 13.592478499999999 31.0827045
25.560123499999996 10.465587499999998 31.132450499999997
25.3839745 13.626032499999999 28.315371499999998
10.681832499999999 25.223465499999996 31.3680905
13.269412499999998 28.1563485 37.3140115
22.530123500000002 13.417476499999998 25.243869500000002
25.2662125 10.487881499999999 25.5551685
25.158221499999996 13.415319499999999 22.432677499999997
37.3469575 40.3376735 37.0614805
40.0856115 37.0996275 37.2818905
13.409824499999997 34.0230095 25.384390500000002
10.701865499999998 31.2262755 31.3699375
22.4544735 13.400234499999998 13.212139499999997
22.1335975 13.481218499999999 19.396541499999998
25.316379499999996 10.211661499999998 19.331990499999996
25.4122975 13.215639499999998 16.334095499999997
13.433770499999998 25.1408985 34.1385055
40.4207795 13.513623499999998 13.448494499999999
10.587733499999999 37.348288499999995 25.1928385
25.4555005 13.265858499999998 10.651036499999998
25.2250375 10.721342499999999 13.553311499999998
10.653532499999999 10.220228499999997 28.584700499999997
40.4893335 33.916205500000004 10.1679135
40.5117475 34.2777825 39.9521505
40.504394500000004 34.496660500000004 28.5071315
40.2975735 40.502720499999995 16.703878500000002
39.9091465 34.2640605 22.745242499999996
34.309250500000005 22.0238675 16.8453625
40.5233915 33.8207625 16.4005545
40.483667499999996 34.3676155 33.9984715
34.498099499999995 21.993007499999997 22.186460500000003
34.2396885 34.0294155 34.776619499999995
34.4345785 22.6756625 28.551081499999995
33.9798835 27.8568135 34.4110785
40.5312625 10.382838499999998 34.0873565
40.668651499999996 10.724768499999998 28.3977285
40.0531025 10.870704499999999 22.793544499999996
40.5834635 10.696740499999999 16.0151405
34.0172115 28.087103499999998 39.8750295
34.3759165 40.4203825 39.7589395
33.9973895 34.0050645 10.822145499999998
40.544079499999995 16.8614185 10.222766499999999
34.0254915 39.9764675 34.1555405
10.458969499999998 10.954852499999998 16.1837685
34.0007555 39.906225500000005 28.1126965
33.766302499999995 39.948327500000005 22.557129500000002
34.0088005 39.9620475 16.5009345
33.9381575 34.3530595 22.065155499999996
34.5367175 40.582944499999996 10.400021499999998
34.4065375 34.2252535 40.6793675
34.1735155 33.8748755 28.2850515
34.4564795 34.0692965 16.071810499999998
40.5270745 27.928602499999997 40.2791645
40.1814855 16.9750575 16.468044499999998
39.8506785 16.006590499999998 28.5243155
40.1156215 28.5808885 33.918878500000005
34.7483125 22.4945625 34.3534795
39.8777905 27.892112499999996 28.178090499999996
40.1759635 28.083364500000002 22.925878499999996
40.1464395 28.540082499999997 15.987570499999999
34.0802775 22.6387705 40.6651375
34.2005705 28.6708415 10.846605499999999
40.5220135 28.0069845 10.0555525
34.1684705 27.9825395 28.086495499999998
40.5211775 22.805477500000002 39.9160785
34.0068475 28.635997499999995 16.426706499999998
40.700869499999996 22.501369500000003 28.154762499999997
10.742094499999999 10.641433499999998 22.705434500000003
40.2052985 22.821949500000002 22.1647205
40.6579225 22.455436499999998 16.546012499999996
34.4768075 27.9190685 22.7076845
40.5349245 22.4594565 10.077065499999998
39.8847255 16.887789499999997 40.3099695
40.7384395 22.183277500000003 34.5116065
10.563489499999998 28.298353499999997 39.784878500000005
28.3807895 10.228589499999998 21.944081499999996
34.1022955 16.711192499999996 40.569466500000004
22.526926500000002 10.821159499999998 10.067857499999999
16.044990499999997 40.5763125 40.439111499999996
16.7760965 39.7674475 34.3820335
16.737469499999996 40.368551499999995 28.751465499999995
15.953455499999999 40.077749499999996 22.4673655
16.0471535 39.925180499999996 16.4365395
22.6296325 10.6631475 15.956410499999999
16.1157635 40.0356005 10.808214499999998
16.7503575 34.629028500000004 34.2002325
16.224864499999995 34.3430185 28.7773525
10.753704499999998 22.338683500000002 39.9634285
16.2730635 34.374390500000004 22.8284915
16.134068499999998 34.5948895 16.268983499999997
10.086550499999998 28.1113255 10.276228499999998
16.1937425 34.6882815 40.5520745
16.154278499999997 34.6252095 10.348023499999998
22.6577355 10.209506499999998 21.9747305
22.7305585 10.442935499999999 28.0608925
22.285531499999998 22.456134499999997 27.974742499999998
10.205756499999998 22.6552625 22.200100499999998
22.6359785 21.881783499999997 22.163301499999996
22.5016325 22.801016499999996 16.1547105
22.9350765 22.5076345 10.496556499999999
22.683426499999996 16.5977525 39.884457499999996
10.184928499999998 22.853637499999998 34.4170365
22.1368705 16.5406155 34.5823965
10.041438499999998 22.5235135 28.419225499999996
21.991921499999997 16.7688365 22.5927615
22.257408499999997 16.5148675 16.068850499999996
21.948018499999996 16.388335499999997 10.308075499999998
22.7263315 10.240470499999999 40.576049499999996
22.420258500000003 9.981471499999998 33.9217405
22.675931499999997 16.441441499999996 28.679874499999997
16.0981315 28.452811499999996 39.8670125
16.9470765 28.522670499999997 34.0835015
16.2517595 28.293946499999997 27.8958905
16.4407565 10.992213499999998 28.1258025
16.114797499999998 10.225318499999998 22.367532499999996
16.118885499999998 10.134709499999998 16.1519155
10.943474499999999 28.495056499999997 34.077594500000004
16.701966499999997 10.391939499999998 10.738473499999998
10.249166499999998 39.8442815 34.210997500000005
16.3686335 10.660185499999999 34.6145425
10.129523499999998 40.4597385 28.2283385
10.312609499999999 39.829702499999996 16.856489500000002
10.170415499999999 33.960457500000004 39.8842205
10.184442499999998 34.0204755 34.003401499999995
10.429188499999999 34.7862905 28.414047499999995
10.170504499999998 34.0090705 22.075261499999996
10.748383499999997 33.9361725 16.5961865
10.120911499999998 39.8406535 22.1914825
16.4081445 16.782382499999997 10.937972499999999
10.104008499999999 28.497946499999998 28.5361775
16.2773965 16.2547645 16.7522595
16.0146085 28.599422499999996 22.5318945
16.8404375 28.4706755 16.0940345
10.775051499999998 28.099832499999998 16.1842915
16.1150375 28.362193499999997 10.147295499999998
16.762524499999998 22.375248499999998 40.6343995
16.0842945 22.1239845 34.7047455
15.985197499999998 21.997825499999998 28.218103499999998
16.043645499999997 22.7278905 22.197945499999996
15.847739499999998 22.2555585 16.4475495
10.192873499999997 28.250687499999998 22.018274499999997
16.9287135 22.2136255 10.181391499999998
16.1431495 16.669776499999998 40.3417355
16.627815499999997 16.7565185 34.5771905
16.147679499999995 16.421186499999997 28.590678499999996
16.821101499999997 16.111253499999997 22.234179499999996
22.648163500000003 22.7133695 34.6622005
34.2452605 22.6892735 10.262683499999998
22.689589499999997 22.300526499999997 39.8167865
22.452532499999997 28.7644255 22.548657499999997
28.728435499999996 40.3828635 10.082465499999998
28.814451499999997 34.5283545 39.9801275
28.0881745 34.5748515 34.251461500000005
28.1776325 34.7332275 28.0071535
28.302093499999998 34.2723485 22.906153500000002
28.044745499999998 33.994594500000005 16.3679055
28.469761499999997 40.1894365 16.7869375
10.782063499999998 16.6997255 16.4661235
28.595029499999995 28.0553125 40.183389500000004
28.8672295 28.125459499999998 34.138934500000005
28.238929499999998 28.1070505 27.873389500000002
28.0944935 28.687501499999996 22.1346615
28.578458499999996 28.6202075 16.4030155
10.624356499999998 16.116777499999998 22.7796015
27.949664499999997 34.1472165 10.316740499999998
28.680279499999997 28.6670825 10.492607499999998
28.5471705 40.031319499999995 22.1115985
28.6647295 40.5793075 34.0708385
34.3181745 16.0844485 34.6339635
34.1483485 16.8115325 28.6871845
34.353078499999995 16.2964675 22.8216745
10.739557499999998 10.230680499999998 33.9110655
34.5527235 16.0947795 16.1914965
33.9400585 16.189029499999997 10.244027499999998
28.799795499999995 39.9198515 28.2479285
34.2927465 10.753069499999999 40.4832505
34.4476255 10.944472499999998 28.476564499999995
34.161482500000005 10.006785499999998 22.3804515
34.0800605 10.207959499999998 16.663701500000002
10.603322499999999 16.138709499999997 10.717124499999999
34.6623395 10.617642499999999 10.048341499999998
28.395408499999995 40.1074725 39.7121145
34.4220395 10.266614499999998 33.9167985
27.9980165 22.062591499999996 34.5697285
28.297256499999996 22.7478295 28.4143275
28.3087265 22.051688499999997 22.6711795
22.726518499999997 40.423730500000005 16.072371499999996
22.1277755 40.2412355 10.085627499999998
22.4331265 33.8182805 40.436775499999996
22.468861500000003 33.9490865 34.4601605
10.547836499999999 21.888119500000002 10.794147499999998
22.950081499999996 34.3114055 28.454590499999995
22.2843605 39.8586045 22.2626505
22.3458465 34.8757095 22.4323645
22.7197805 34.636118499999995 10.550414499999999
22.1012815 28.5628235 40.3699255
39.8848545 40.063492499999995 22.5074215
22.0469345 28.724407499999998 34.2970775
22.005801499999997 28.782180499999996 28.172253499999997
10.079235499999998 22.2902645 16.191250499999995
22.2524315 34.6614795 16.2264055
22.6460055 40.4233675 34.0882125
22.151835499999997 40.5264385 40.181295500000004
28.662471499999995 10.298191499999998 10.026523499999998
28.4820085 22.5927905 16.8836405
10.660877499999998 16.703391500000002 28.6596015
28.083417499999996 22.122707499999997 10.302967499999998
28.802519499999995 16.799561499999996 40.1916025
28.042919499999996 16.842873499999996 33.9320345
28.2178635 16.0239305 28.218101499999996
28.513479499999995 16.0884425 22.747279499999998
28.889211500000002 16.562928499999998 16.5369625
10.694418499999998 16.0033045 34.6439605
28.0418565 16.1617465 10.659758499999999
28.714744499999995 10.7128825 40.1061845
28.111664499999996 10.832106499999998 34.6739065
28.469787499999995 10.657965499999998 27.8048455
27.9408935 10.604575499999997 16.040229499999995
10.951714499999998 16.7995005 40.2291505