3_train/213_cspbbr3_MA-TPC_3_0.60\213_cspbbr3_MA-TPC_3_0.60.xyz
1.0
42.374594 0 0
0 42.374594 0
0 0 42.374594
Br C Cs H N O Pb S 
72 208 26 276 28 72 27 36 
Cartesian
15.237297 15.237297 12.262297
12.262297 15.237297 15.237297
15.237297 15.237297 18.212297
15.237297 12.262297 21.187297
12.262297 15.237297 21.187297
15.237297 15.237297 24.162297
15.237297 12.262297 27.137297
12.262297 15.237297 27.137297
15.237297 15.237297 30.112297
15.237297 21.187297 12.262297
15.237297 18.212297 15.237297
15.237297 21.187297 18.212297
15.237297 18.212297 21.187297
15.237297 21.187297 24.162297
15.237297 18.212297 27.137297
15.237297 21.187297 30.112297
15.237297 24.162297 15.237297
15.237297 27.137297 18.212297
15.237297 24.162297 21.187297
15.237297 27.137297 24.162297
15.237297 24.162297 27.137297
15.237297 30.112297 15.237297
18.212297 15.237297 15.237297
21.187297 15.237297 18.212297
21.187297 12.262297 21.187297
18.212297 15.237297 21.187297
21.187297 15.237297 24.162297
18.212297 15.237297 27.137297
21.187297 18.212297 15.237297
18.212297 21.187297 15.237297
21.187297 21.187297 18.212297
21.187297 18.212297 21.187297
18.212297 21.187297 21.187297
21.187297 21.187297 24.162297
21.187297 18.212297 27.137297
18.212297 21.187297 27.137297
21.187297 21.187297 30.112297
21.187297 27.137297 12.262297
21.187297 24.162297 15.237297
18.212297 27.137297 15.237297
21.187297 27.137297 18.212297
21.187297 24.162297 21.187297
18.212297 27.137297 21.187297
21.187297 27.137297 24.162297
21.187297 24.162297 27.137297
18.212297 27.137297 27.137297
21.187297 30.112297 27.137297
24.162297 15.237297 15.237297
27.137297 15.237297 18.212297
24.162297 15.237297 21.187297
27.137297 15.237297 24.162297
24.162297 15.237297 27.137297
27.137297 18.212297 15.237297
24.162297 21.187297 15.237297
27.137297 21.187297 18.212297
27.137297 18.212297 21.187297
24.162297 21.187297 21.187297
27.137297 21.187297 24.162297
27.137297 18.212297 27.137297
24.162297 21.187297 27.137297
27.137297 24.162297 15.237297
24.162297 27.137297 15.237297
27.137297 27.137297 18.212297
27.137297 24.162297 21.187297
24.162297 27.137297 21.187297
27.137297 27.137297 24.162297
27.137297 24.162297 27.137297
24.162297 27.137297 27.137297
27.137297 30.112297 15.237297
30.112297 21.187297 27.137297
30.112297 27.137297 15.237297
30.112297 27.137297 21.187297
27.869201 21.13955 33.768584000000004
28.237803 21.1206 32.404883999999996
27.137297 21.187297 31.5629
26.501194 21.220614 33.939758999999995
27.137297 21.187297 30.112297
27.498242 27.775797 33.768584000000004
27.675430000000002 28.099573 32.404883999999996
27.137297 27.137297 31.5629
26.830966 26.578819 33.939758999999995
27.137297 27.137297 30.112297
20.949042000000002 26.443611999999998 33.768584000000004
20.83397 26.092921 32.404883999999996
21.187297 27.137297 31.5629
21.386472 27.742331 33.939758999999995
21.187297 27.137297 30.112297
15.560431000000001 27.795741 33.768584000000004
15.718455 28.129289 32.404883999999996
15.237297 27.137297 31.5629
14.964022 26.561921 33.939758999999995
15.237297 27.137297 30.112297
26.833903 15.905066 33.768584000000004
26.676614 16.238962 32.404883999999996
27.137297 15.237297 31.5629
27.408191 14.660796000000001 33.939758999999995
27.137297 15.237297 30.112297
21.808232999999998 14.846911 33.768584000000004
22.123375 14.654786 32.404883999999996
21.187297 15.237297 31.5629
20.643743 15.56939 33.939758999999995
21.187297 15.237297 30.112297
14.571503 26.829592 8.606010000000001
14.234364 26.679381 9.96971
15.237297 27.137297 10.811694
15.818884 27.397092 8.434835
15.237297 27.137297 12.262297
21.047382000000002 14.517306 8.606010000000001
20.971989 14.156 9.96971
21.187297 15.237297 10.811694
21.31681 15.860966000000001 8.434835
21.187297 15.237297 12.262297
21.630675999999998 20.603021 8.606010000000001
21.849719 20.305958 9.96971
21.187297 21.187297 10.811694
20.808778 21.699606 8.434835
21.187297 21.187297 12.262297
26.607015999999998 26.630577 8.606010000000001
26.336682 26.379288 9.96971
27.137297 27.137297 10.811694
27.603422 27.571421 8.434835
27.137297 27.137297 12.262297
26.459091 20.908011 8.606010000000001
26.115903 20.772187 9.96971
27.137297 21.187297 10.811694
27.729346 21.422275000000003 8.434835
27.137297 21.187297 12.262297
27.596338 15.809351 8.606010000000001
27.831279 16.094006 9.96971
27.137297 15.237297 10.811694
26.732308 14.745646 8.434835
27.137297 15.237297 12.262297
8.606010000000001 26.403935 15.225335000000001
9.96971 26.034847000000003 15.224402000000001
10.811694 27.137297 15.237297
8.434835 27.774268000000003 15.239522000000001
12.262297 27.137297 15.237297
8.606010000000001 27.856928 26.995542
9.96971 28.21804 26.919226
10.811694 27.137297 27.137297
8.434835 26.513961 27.268403000000003
12.262297 27.137297 27.137297
8.606010000000001 26.46461 21.479626
9.96971 26.128163 21.631381
10.811694 27.137297 21.187297
8.434835 27.718191 20.925957999999998
12.262297 27.137297 21.187297
8.606010000000001 21.593475 14.626573
9.96971 21.793615 14.316461
10.811694 21.187297 15.237297
8.434835 20.841376999999998 15.772158000000001
12.262297 21.187297 15.237297
8.606010000000001 21.920662 27.125490000000003
9.96971 22.289586 27.114463
10.811694 21.187297 27.137297
8.434835 20.550589000000002 27.155711999999998
12.262297 21.187297 27.137297
8.606010000000001 21.896071000000003 21.375983
9.96971 22.254012 21.466009
10.811694 21.187297 21.187297
8.434835 20.569710999999998 21.031334
12.262297 21.187297 21.187297
33.768584000000004 14.683948000000001 15.718720000000001
32.404883999999996 14.402183 15.95712
31.5629 15.237297 15.237297
33.939758999999995 15.723172 14.825397
30.112297 15.237297 15.237297
33.768584000000004 20.465604 21.05644
32.404883999999996 20.10338 20.985592999999998
31.5629 21.187297 21.187297
33.939758999999995 21.812544 21.308963000000002
30.112297 21.187297 21.187297
33.768584000000004 26.826588 27.801694
32.404883999999996 26.665642000000002 28.133843000000002
31.5629 27.137297 27.137297
33.939758999999995 27.414505000000002 26.563806
30.112297 27.137297 27.137297
33.768584000000004 21.089609 14.510372
32.404883999999996 21.045496 14.143929
31.5629 21.187297 15.237297
33.939758999999995 21.264037 15.869632
30.112297 21.187297 15.237297
33.768584000000004 15.571495 21.840194999999998
32.404883999999996 15.735125 22.171029
31.5629 15.237297 21.187297
33.939758999999995 14.954353000000001 20.616614
30.112297 15.237297 21.187297
33.768584000000004 15.256321 27.87051
32.404883999999996 15.26081 28.239571
31.5629 15.237297 27.137297
33.939758999999995 15.228937 26.500377
30.112297 15.237297 27.137297
27.040555 8.606010000000001 21.914348999999998
26.986836 9.96971 22.279507
27.137297 10.811694 21.187297
27.229397000000002 8.434835 20.557016
27.137297 12.262297 21.187297
21.696624 8.606010000000001 14.709519
21.95656 9.96971 14.447489000000001
21.187297 10.811694 15.237297
20.739134 8.434835 15.689941000000001
21.187297 12.262297 15.237297
27.26715 8.606010000000001 26.415423
27.337493 9.96971 26.0531
27.137297 10.811694 27.137297
27.016501 8.434835 27.762713
27.137297 12.262297 27.137297
20.458298 8.606010000000001 27.218073
20.09093 9.96971 27.253662000000002
21.187297 10.811694 27.137297
21.821244 8.434835 27.075266000000003
21.187297 12.262297 27.137297
15.775195 8.606010000000001 15.735924
16.042391000000002 9.96971 15.990547
15.237297 10.811694 15.237297
14.775746 8.434835 14.798313
15.237297 12.262297 15.237297
26.433511 8.606010000000001 15.030781000000001
26.080821 9.96971 14.921989
27.137297 10.811694 15.237297
27.746152 8.434835 15.424464
27.137297 12.262297 15.237297
15.772276 33.768584000000004 27.639055000000003
16.044939 32.404883999999996 27.887814000000002
15.237297 31.5629 27.137297
14.767147 33.939758999999995 26.707534
15.237297 30.112297 27.137297
26.512399 33.768584000000004 21.57131
26.200633 32.404883999999996 21.768866
27.137297 31.5629 21.187297
27.675672000000002 33.939758999999995 20.846873
27.137297 30.112297 21.187297
20.67564 33.768584000000004 20.661777
20.414547 32.404883999999996 20.400901
21.187297 31.5629 21.187297
21.637458 33.939758999999995 21.637953
21.187297 30.112297 21.187297
14.613717000000001 33.768584000000004 21.573446999999998
14.30263 32.404883999999996 21.772069
15.237297 31.5629 21.187297
15.774504 33.939758999999995 20.845032
15.237297 30.112297 21.187297
20.623992 33.768584000000004 15.707032
20.343812 32.404883999999996 15.947294
21.187297 31.5629 15.237297
21.671232 33.939758999999995 14.823119
21.187297 30.112297 15.237297
26.531132 33.768584000000004 26.724346999999998
26.223266 32.404883999999996 26.520767000000003
27.137297 31.5629 27.137297
27.668274999999998 33.939758999999995 27.489148
27.137297 30.112297 27.137297
31.587958 18.212297 18.212297
31.155747 24.162297 11.218847
11.218847 11.218847 18.212297
24.162297 31.155747 31.155747
18.212297 24.162297 31.587958
31.155747 11.218847 18.212297
18.212297 31.155747 31.155747
31.155747 31.155747 18.212297
24.162297 31.155747 11.218847
24.162297 10.786636000000001 24.162297
24.162297 24.162297 31.587958
11.218847 18.212297 31.155747
18.212297 24.162297 10.786636000000001
11.218847 31.155747 18.212297
31.155747 31.155747 24.162297
18.212297 10.786636000000001 18.212297
24.162297 18.212297 10.786636000000001
18.212297 18.212297 31.587958
24.162297 24.162297 10.786636000000001
18.212297 10.786636000000001 24.162297
10.786636000000001 18.212297 24.162297
24.162297 10.786636000000001 18.212297
18.212297 31.587958 18.212297
11.218847 31.155747 24.162297
24.162297 18.212297 31.587958
10.786636000000001 24.162297 18.212297
24.162297 11.218847 11.218847
11.218847 18.212297 11.218847
12.262297 12.262297 24.162297
12.262297 18.212297 18.212297
12.262297 24.162297 12.262297
12.262297 24.162297 24.162297
12.262297 24.162297 30.112297
18.212297 18.212297 12.262297
18.212297 18.212297 18.212297
18.212297 18.212297 24.162297
18.212297 24.162297 18.212297
18.212297 24.162297 24.162297
18.212297 30.112297 12.262297
18.212297 30.112297 24.162297
24.162297 12.262297 30.112297
24.162297 18.212297 18.212297
24.162297 18.212297 24.162297
24.162297 24.162297 18.212297
24.162297 24.162297 24.162297
24.162297 30.112297 18.212297
24.162297 30.112297 24.162297
30.112297 12.262297 24.162297
30.112297 18.212297 12.262297
30.112297 18.212297 24.162297
30.112297 18.212297 30.112297
30.112297 24.162297 18.212297
30.112297 24.162297 24.162297
30.112297 24.162297 30.112297
25.945764999999998 21.252729 34.874594
28.575680000000002 21.094596 34.596312
29.260893 21.060023 32.034476
26.560762 26.092482 34.874594
27.845625000000002 28.392609 34.596312
28.174421 28.994777 32.034476
21.563305 28.269838 34.874594
20.720159000000002 25.773728000000002 34.596312
20.506877 25.121637 32.034476
14.72261 26.060669 34.874594
15.87129 28.431743 34.596312
16.164445999999998 29.052043 32.034476
27.642063 14.155982 34.874594
26.540048000000002 16.549102 34.596312
26.247079 17.16949 32.034476
20.170564 15.862025 34.874594
22.408139000000002 14.471084000000001 34.596312
22.994285 14.114509 32.034476
16.325624 27.62676 7.5
13.928431 26.533635 7.778282
13.301469 26.255011 10.340118
21.426973 16.406308 7.5
20.91123 13.822615 7.778282
20.770446 13.15113 10.340118
20.475742 22.145274 7.5
22.057706 20.038415999999998 7.778282
22.46435 19.485829 10.340118
28.00849 27.952806 7.5
26.094428 26.142329 7.778282
25.59147 25.675696 10.340118
28.245342 21.630317 7.5
25.804083000000002 20.639502999999998 7.778282
25.165904 20.387631 10.340118
26.380912 14.314306 7.5
28.040269 16.360765 7.778282
28.477495 16.889485 10.340118
7.5 28.330603 15.244485000000001
7.778282 25.696104000000002 15.214923
10.340118 25.01002 15.213840000000001
7.5 25.968903 27.37996
7.778282 28.551269 26.857615
10.340118 29.222392 26.715115
7.5 28.226798 20.700451
7.778282 25.815811 21.762808
10.340118 25.190671 22.045495
7.5 20.536707 16.237679
7.778282 21.984558 14.036501
10.340118 22.356044 13.45969
7.5 19.994385 27.168779
7.778282 22.628458 27.112961000000002
10.340118 23.314217000000003 27.091812
7.5 20.031036 20.892184
7.778282 22.580443 21.557002
10.340118 23.245965 21.723715000000002
34.874594 16.145595 14.46333
34.596312 14.149135000000001 16.182517
32.034476 13.62495 16.625171
34.874594 22.359227 21.412264
34.596312 19.769258 20.929028
32.034476 19.096057000000002 20.796693
34.874594 27.653907 26.06159
34.596312 26.525678000000003 28.442464
32.034476 26.225915 29.059598
34.874594 21.334061000000002 16.421565
34.596312 20.996447 13.808621
32.034476 20.915095 13.127377000000001
34.874594 14.704517 20.119506
34.596312 15.893041 22.470862
32.034476 16.196621999999998 23.086127
34.874594 15.218616 25.944116
34.596312 15.273551000000001 28.578208
32.034476 15.281242 29.264249
27.306853 7.5 20.006077
26.946061 7.778282 22.615921
26.845560000000003 10.340118 23.294605
20.349843 7.5 16.087416
22.189020000000003 7.778282 14.200914000000001
22.672669000000003 10.340118 13.714297
26.91396 7.5 28.309539
27.393593 7.778282 25.7189
27.524992 10.340118 25.045514999999998
22.374655 7.5 27.018082
19.754573999999998 7.778282 27.294909
19.071623000000002 10.340118 27.360415
14.370535 7.5 14.417081
16.293584 7.778282 16.218009000000002
16.789813000000002 10.340118 16.69179
28.278829 7.5 15.585055
25.754564 7.778282 14.830373
25.099152999999998 10.340118 14.62752
14.358544 34.874594 26.329941
16.289391000000002 34.596312 28.122505999999998
16.796675 32.034476 28.584432
28.147516 34.874594 20.55209
25.909865 34.596312 21.942909
25.330685 32.034476 22.31069
22.028504 34.874594 22.033702
20.180998000000002 34.596312 20.155357000000002
19.695201 32.034476 19.670884
16.245336 34.874594 20.548635
14.012459 34.596312 21.947107
13.434542 32.034476 22.316868
22.095876 34.874594 14.46366
20.081038 34.596312 16.161271
19.560647 32.034476 16.60838
28.130376000000002 34.874594 27.798981
25.945449 34.596312 26.326719999999998
25.372808000000003 32.034476 25.948837
31.921879 18.797189 19.071382
31.921879 17.175862000000002 18.289286
31.921879 18.66384 17.276224
29.737555 17.673258 17.420560000000002
29.737555 19.167481000000002 18.141344
29.737555 17.796152 19.074987
32.028267 23.642577 11.619132
30.755401 23.642726 10.346266
31.391926 25.201587 10.982790000000001
29.260803 24.641274 11.940768
30.433882 24.641136 13.113848
29.847258 23.204480999999998 12.527223
11.040023 10.925436000000001 19.248424
10.319587 11.645872 17.764403
11.588578 10.37688 17.624064
12.474478000000001 12.580081 17.257397
13.138435 11.916124 18.625079
11.968926 13.085634 18.754416
23.294095000000002 30.987915 31.795814
25.091133000000003 31.062176 31.721553
24.101663 32.125502 30.658227
24.962436999999998 30.219596 29.475033
23.306276999999998 30.151157 29.543472
24.218177 29.17119 30.523438
18.102191 23.128854999999998 31.921879
19.162337 24.583662999999998 31.921879
17.372363 24.774372 31.921879
18.313771 25.114722 29.737555
17.336735 23.773964 29.737555
18.986384 23.598205 29.737555
31.614972 11.205837 19.202535
30.673916000000002 10.264781 17.990428
31.886705 11.47757 17.443928
29.641697 12.321663000000001 17.299689
30.508979 13.188944 18.416773
29.391267 12.071232 18.92043
18.847295 31.97363 30.810099
17.182284 31.489837 31.293892
18.607312 30.712127 32.071602999999996
17.62708 29.311156 30.383473
19.161563 29.757022 29.937606
17.848249 30.473764 29.220864
32.056919 30.72681 17.770111
30.788554 31.995175 17.618868
31.33012 31.453609 19.247913
29.234396 30.460232 18.619819
30.403328000000002 29.2913 18.759204
29.904218 29.79041 17.257868000000002
24.327707 30.666342 10.257207000000001
23.191013 31.653333 11.244198
24.968172 31.855918 11.446783
24.009854999999998 30.515959 13.195925
25.057438 29.606343 12.286309
23.419599 29.41964 12.099606000000001
23.207975 10.452715000000001 23.750721000000002
24.995893 10.452715000000001 23.541618
24.283023 10.452715000000001 25.194551999999998
25.041805 12.637039000000001 24.541608
23.39405 12.637039000000001 24.734318
24.051036 12.637039000000001 23.210964999999998
25.141707 23.814618 31.921879
23.973691 25.184331 31.921879
23.371493 23.487942 31.921879
23.259667 24.482719 29.737555
24.336118000000003 23.220386 29.737555
24.891106 24.783786000000003 29.737555
11.56837 17.584464 31.977505
11.074377 19.243474 31.483512
10.305441 17.808953 30.714577
11.98755 18.790911 29.307585
12.442817 17.261959 29.762852
13.151472 18.584021 30.471506
17.178953 24.051278 10.452715000000001
18.632824 25.112708 10.452715000000001
18.825114 23.322903999999998 10.452715000000001
19.164632 24.264612 12.637039000000001
17.824737 23.286393 12.637039000000001
17.647522000000002 24.935886 12.637039000000001
11.695515 32.10465 17.959319
10.47142 30.880555 17.465805
10.781254 31.190389 19.211767000000002
11.870373 29.190407 18.445443
12.998506 30.31854 18.900267
12.712961 30.032995 17.29118
31.496822 31.286907 25.190932999999998
31.969294 30.814435 23.519433
30.709477 32.074252 23.776525
29.750585 29.944044 23.214299999999998
29.315152 30.379477 24.754763999999998
30.476206 29.218423 24.517826
17.72945 10.452715000000001 19.132614
17.656703 10.452715000000001 17.33398
19.250738 10.452715000000001 18.170297
18.657291999999998 12.637039000000001 17.364128
18.724335 12.637039000000001 19.021758
17.255264 12.637039000000001 18.251004000000002
23.247442 18.705415000000002 10.452715000000001
25.046777000000002 18.758026 10.452715000000001
24.192671999999998 17.17345 10.452715000000001
25.005432000000003 17.757837000000002 12.637039000000001
23.347155 17.709350999999998 12.637039000000001
24.134304 19.169703 12.637039000000001
18.655426 17.272211 31.921879
18.804871 19.066101 31.921879
17.176594 18.298579 31.921879
17.803907000000002 19.078685 29.737555
17.666178000000002 17.425427 29.737555
19.166806 18.132779 29.737555
23.145242 23.948463 10.452715000000001
24.485639000000003 25.150009 10.452715000000001
24.856009 23.388419000000003 10.452715000000001
25.099619999999998 24.359367000000002 12.637039000000001
23.864303 23.252017 12.637039000000001
23.522968000000002 24.875508 12.637039000000001
17.209400000000002 10.452715000000001 24.434919
18.477648000000002 10.452715000000001 23.157452000000003
18.949843 10.452715000000001 24.89452
19.136572 12.637039000000001 23.911048
17.967748 12.637039000000001 25.088367
17.532571 12.637039000000001 23.487476
10.452715000000001 17.62204 23.306889
10.452715000000001 17.766621 25.101178
10.452715000000001 19.24823 24.078823
12.637039000000001 18.756281 24.950644999999998
12.637039000000001 18.623034 23.297019000000002
12.637039000000001 17.257576 24.239227
23.702497 10.452715000000001 19.144342
23.585022 10.452715000000001 17.348076
25.199372 10.452715000000001 18.144473
24.586052 12.637039000000001 17.353319
24.694316 12.637039000000001 19.008768
23.206523 12.637039000000001 18.274803
18.417365 31.921879 19.231155
18.99212 31.921879 17.525274
17.227406000000002 31.921879 17.880462
18.023305 29.737555 17.273312
17.493608000000002 29.737555 18.845461
19.119978 29.737555 18.518117
10.351181 30.760316 23.630867
10.97307 31.382205 25.201498
11.623937 32.033072000000004 23.654526
13.109318 30.429353 24.652066
12.536181 29.856216 23.204564
11.936340000000001 29.256374 24.630261
24.895947 17.47617 31.921879
24.432977 19.21572 31.921879
23.157968 17.945001 31.921879
23.486161 18.890715 29.737555
23.912837 17.287537 29.737555
25.087892 18.458638999999998 29.737555
10.452715000000001 23.316978000000002 18.816914
10.452715000000001 25.10857 18.642056
10.452715000000001 24.061343 17.177921
12.637039000000001 24.941347 17.655079
12.637039000000001 23.290207 17.816229
12.637039000000001 24.255337 19.165582999999998
23.129547 10.900413 11.065045000000001
24.577856 11.656315 10.309144
24.779488 10.39146 11.573999
25.114085 12.603142 12.451417
23.779315 11.906500000000001 13.148060000000001
23.593491 13.072197000000001 11.982362
11.226346 19.192821000000002 10.739113
11.461367 17.423667000000002 10.504092
10.260475 18.020404 11.704983
12.302761 17.308641 12.751798
12.086165000000001 18.939103 12.968394
13.192913 18.389147 11.861647000000001
30.112297 18.212297 18.212297
30.112297 24.162297 12.262297
12.262297 12.262297 18.212297
24.162297 30.112297 30.112297
18.212297 24.162297 30.112297
30.112297 12.262297 18.212297
18.212297 30.112297 30.112297
30.112297 30.112297 18.212297
24.162297 30.112297 12.262297
24.162297 12.262297 24.162297
24.162297 24.162297 30.112297
12.262297 18.212297 30.112297
18.212297 24.162297 12.262297
12.262297 30.112297 18.212297
30.112297 30.112297 24.162297
18.212297 12.262297 18.212297
24.162297 18.212297 12.262297
18.212297 18.212297 30.112297
24.162297 24.162297 12.262297
18.212297 12.262297 24.162297
12.262297 18.212297 24.162297
24.162297 12.262297 18.212297
18.212297 30.112297 18.212297
12.262297 30.112297 24.162297
24.162297 18.212297 30.112297
12.262297 24.162297 18.212297
24.162297 12.262297 12.262297
12.262297 18.212297 12.262297
28.193507999999998 21.1099 29.396882
26.090030000000002 21.26238 29.383643
27.665826 28.055027 29.396882
26.614737 26.226618 29.383643
20.835276 26.138471 29.396882
21.534736 28.1281 29.383643
15.711463 28.08426 29.396882
14.768679 26.197720999999998 29.383643
26.706956 16.204964 29.396882
27.565456 14.278608 29.383643
22.079328 14.666461 29.396882
20.302031 15.801841 29.383643
14.279544 26.685322000000003 12.977712
16.187536 27.583897 12.990951
20.9936 14.196118 12.977712
21.380958 16.269237 12.990951
21.834222999999998 20.348810999999998 12.977712
20.547233 22.019597 12.990951
26.377504 26.399539 12.977712
27.891721 27.867535999999998 12.990951
26.161294 20.776213000000002 12.977712
28.105565000000002 21.593329 12.990951
27.793475 16.068563 12.977712
26.485453 14.41419 12.990951
12.977712 26.078567 15.211552000000001
12.990951 28.186981 15.261168
12.977712 28.177978 26.940939
12.990951 26.105855000000002 27.333595
12.977712 26.162658 21.601604
12.990951 28.102923999999998 20.775024
12.977712 21.780815 14.360195000000001
12.990951 20.600242 16.107798000000003
12.977712 22.246305 27.128723
12.990951 20.137391 27.147451
12.977712 22.208483 21.467923000000003
12.990951 20.174437 20.910675
29.396882 14.443905 15.938796
29.383643 16.024975 14.543058
29.396882 20.143766 21.006698
29.383643 22.221588999999998 21.367974999999998
29.396882 26.696355999999998 28.100179999999998
29.383643 27.575958 26.183367
29.396882 21.037850000000002 14.188852
29.383643 21.333824 16.276977000000002
29.396882 15.727374000000001 22.126124
29.383643 14.752892 20.255762
29.396882 15.273238 28.19573
29.383643 15.203318 26.087892
27.006017 12.977712 22.238172000000002
27.269091 12.990951 20.145647
21.916591999999998 12.977712 14.469377
20.463062 12.990951 15.997488
27.316444 12.977712 26.093516
26.958057 12.990951 28.17184
20.135663 12.977712 27.26235
22.230101 12.990951 27.01496
16.019706 12.977712 15.951026
14.462718 12.990951 14.528472
26.118745999999998 12.977712 14.94725
28.146653 12.990951 15.526445
16.003931 29.396882 27.867943999999998
14.476102000000001 29.383643 26.414118
26.230598 29.396882 21.734535
28.035359 29.383643 20.643340000000002
20.454612 29.396882 20.422611
21.914888 29.383643 21.944276
14.332477 29.396882 21.737636
16.133492 29.383643 20.640268
20.368539 29.396882 15.909017
21.997979 29.383643 14.570064
26.266855 29.396882 26.534053
28.00121 29.383643 27.734004000000002
15.237297 15.237297 15.237297
15.237297 15.237297 21.187297
15.237297 15.237297 27.137297
15.237297 21.187297 15.237297
15.237297 21.187297 21.187297
15.237297 21.187297 27.137297
15.237297 27.137297 15.237297
15.237297 27.137297 21.187297
15.237297 27.137297 27.137297
21.187297 15.237297 15.237297
21.187297 15.237297 21.187297
21.187297 15.237297 27.137297
21.187297 21.187297 15.237297
21.187297 21.187297 21.187297
21.187297 21.187297 27.137297
21.187297 27.137297 15.237297
21.187297 27.137297 21.187297
21.187297 27.137297 27.137297
27.137297 15.237297 15.237297
27.137297 15.237297 21.187297
27.137297 15.237297 27.137297
27.137297 21.187297 15.237297
27.137297 21.187297 21.187297
27.137297 21.187297 27.137297
27.137297 27.137297 15.237297
27.137297 27.137297 21.187297
27.137297 27.137297 27.137297
25.661066 21.273373 32.456112000000005
26.418494 25.845016 32.456112000000005
21.657981 28.539126 32.456112000000005
14.595002000000001 25.805334 32.456112000000005
27.758253 13.895253 32.456112000000005
19.930016000000002 16.015701 32.456112000000005
16.583863 27.748385000000003 9.918482000000001
21.479394000000003 16.686899 9.918482000000001
20.301547 22.371406 9.918482000000001
28.21343 28.151498999999998 9.918482000000001
28.508491 21.740917 9.918482000000001
26.20388 14.090388 9.918482000000001
9.918482000000001 28.61597 15.251207
9.918482000000001 25.688446000000003 27.433098
9.918482000000001 28.489409000000002 20.588582000000002
9.918482000000001 20.376915 16.474208
9.918482000000001 19.70895 27.171307000000002
9.918482000000001 19.755736 20.816756
32.456112000000005 16.359583999999998 14.274416
32.456112000000005 22.640455 21.461156
32.456112000000005 27.772953 25.802153
32.456112000000005 21.374126 16.704186
32.456112000000005 14.572619 19.866361
32.456112000000005 15.209146 25.658826
27.342453000000003 9.918482000000001 19.722859
20.153117 9.918482000000001 16.294245
26.865460000000002 9.918482000000001 28.590835000000002
22.65813 9.918482000000001 26.984592000000003
14.159797000000001 9.918482000000001 14.224547000000001
28.553302 9.918482000000001 15.663441
14.151762 32.456112000000005 26.133165
28.391788000000002 32.456112000000005 20.404405
22.226144 32.456112000000005 22.239659
16.489100999999998 32.456112000000005 20.400115
22.31642 32.456112000000005 14.282441
28.365112 32.456112000000005 27.961396
