144_cspbbr3_5\144_cspbbr3_5.xyz
1.0
50.797774000000004 0 0
0 50.797774000000004 0
0 0 50.797774000000004
Br Cs Pb 
450 200 125 
Cartesian
13.515503 16.265408 37.17848
31.318207 10.642258 37.117816000000005
28.349845000000002 13.335087 37.469064
37.525234 28.224854 37.24850000000001
34.20852000000001 31.238723 37.528943
31.569419000000003 13.556333 34.387492
13.540647 19.603806 34.453204
31.246209 10.309235000000001 31.442265
31.451981000000004 13.601224 28.586982
28.211571 13.650447 25.550342999999998
31.542082999999998 10.548771 25.225109000000003
31.512255000000003 13.542125 22.575131
13.375685 31.602157 40.32499
37.123128 31.299078 40.40264500000001
28.287701 13.294045 19.278767000000002
31.160808000000003 10.445939000000001 19.257483
31.484434 13.60969 16.287073
10.414345 19.541646 37.414676
28.206742 13.551656 31.404077
31.559617000000003 13.631523 40.232536
10.584561 19.409475999999998 31.522309
31.498475 19.615048 10.456184
10.620602 19.615999000000002 25.374575999999998
34.218729 31.474013 25.54186
28.347585000000002 25.215314 13.299229
31.487285999999997 22.433424000000002 13.248689
31.144224 25.507165 10.356944
13.703755 10.381605 19.325559
31.272969000000003 19.639484000000003 40.343125
37.108502 31.297223000000002 28.180546999999997
28.429962000000003 19.632822000000004 37.30257
31.267516999999998 16.607478999999998 37.180276000000006
31.230094 19.560212 34.203544
37.077114 28.523589 31.460575
28.240037 19.632659000000004 31.380938
31.609560000000002 16.529535000000003 31.448195
31.156509 19.53226 28.194189
13.701 19.334617 28.316853000000002
34.52042 31.455717999999997 31.475231
28.232504 19.359222000000003 25.563056000000003
31.283757 16.628832000000003 25.230164000000002
31.250143 19.531014 22.580115
13.609047 16.515891 31.624508
28.496026999999998 19.490146000000003 19.656103
31.195245999999997 16.230040000000002 19.511958
31.477836000000003 19.332481 16.372546
13.400213 13.652327 16.452060000000003
28.239910000000002 19.249759000000005 13.596452000000001
31.190987 16.305827 13.419672
37.401693 31.560423999999998 34.255394
28.439858 13.619077 13.335024
25.365523000000003 40.41165 37.459948
31.477964999999998 13.625186000000001 10.438261
13.579589 22.355977000000003 13.711833
37.306641 34.514724 25.397731999999998
25.171824 31.487292000000004 40.356127
34.230615 37.387136 25.602842000000003
22.25253 31.487387 37.151661000000004
25.255443 28.541791000000003 37.349680000000006
25.490652000000004 31.516230999999998 34.51323000000001
13.508887 10.729357 13.409796
22.308368 31.22356 31.421
25.340986 28.513224 31.238735
25.644246000000003 31.394002999999998 28.298257999999997
10.724446 25.276667000000003 13.336598
37.205772 37.405098 28.253152999999998
22.280482 31.506596000000002 25.247781000000003
25.296329 28.444282 25.194796000000004
25.399708000000004 31.400698 22.160835
37.409177 34.424497 31.159069000000002
34.340759000000006 37.13033 31.428773
22.609894000000004 31.483674999999998 19.477348
25.24601 28.196962 19.588801000000004
25.220123 31.426099 16.425072
22.287223000000004 31.447632 13.383125
25.596697 28.368662999999998 13.598509
25.366098 31.646321 10.52515
13.647445 13.279868 10.444616
25.674658 25.424433 40.243478
37.358035 37.153008 34.181128
25.361781999999998 37.172468 10.701632
31.134345000000003 10.546100000000001 13.650579
25.281005999999998 34.113692 13.568181000000001
37.430191 37.255602 22.303927
37.222620000000006 37.464898000000005 10.627468
31.519968 25.482047 16.572029
37.205676 34.436829 13.369069
25.270555 40.353199000000004 31.239047999999997
34.210397 37.108957000000004 13.452275
25.398983 40.460516 25.302222
25.323711000000003 40.471344 19.561742000000002
25.536554000000002 40.135332000000005 13.444901
25.313920000000003 37.320767000000004 40.514495000000004
37.120278 37.159299000000004 16.355282000000003
22.57038 37.481239 37.36910400000001
25.623372000000003 34.401195 37.120109
25.348461 37.153088 34.086738
13.332337 19.310508 40.376149
37.351735000000005 34.17965 19.695892999999998
22.244743 37.137964000000004 31.331107000000003
25.487734000000003 34.122697 31.550671
25.147738000000004 37.3746 28.379379
34.123814 37.279786 19.392608000000003
22.213573000000004 37.300898000000004 25.460734000000002
25.530735 34.186064 25.426914000000004
25.528766000000005 37.446734000000006 22.283864
10.420422 13.399056 13.337896
22.345551 37.156689 19.625343
25.645559 34.31441100000001 19.428634000000002
25.644123 37.225309 16.590069
13.451665 25.220882000000003 10.322209
22.322419000000004 37.174856000000005 13.407395
31.400976999999997 22.205439 19.498336000000002
31.307024 22.234018 25.239224
37.332381 28.479847 25.572322
34.382631 13.2543 31.303013
37.40231300000001 10.643378 31.452776999999998
37.253382 13.306967 28.301871
13.389371 10.657427 37.23168
37.274702000000005 22.565545999999998 25.529065000000003
34.510159 13.537717 25.479114000000003
37.201686 10.383562 25.242659000000003
37.257101000000006 13.365998 22.180017
10.570824 13.639531 37.179621
34.187065000000004 25.539113 25.473367000000003
34.279880000000006 13.620566 19.292443
37.428392 10.659375 19.513809000000002
37.584117000000006 13.50642 16.459217000000002
13.678600000000001 13.528622 40.361665
34.275306 13.355845 13.735591000000001
37.192232000000004 10.515922 13.277839
37.251294 13.313215 10.479334
13.549502 10.363535 25.485304
37.444761 25.187952000000003 28.286004
31.461475 40.25621 37.159488
37.204259 22.651960000000003 31.246710999999998
31.232025 40.418329 31.431947
34.327451 25.261319999999998 31.482995000000003
31.508961 40.43619 25.421312999999998
31.172832999999997 40.302617 19.347208000000002
13.628997 13.645998 22.277794999999998
31.4358 40.225235 13.653175
37.258649000000005 25.534169 22.605393
37.484002000000004 25.356344 34.298834
13.506424 13.541057 34.093238
37.445773 10.622197 37.11228800000001
37.449726 22.384320000000002 13.599009
37.484704 19.625528000000003 40.12467
34.315025000000006 25.572325 13.647149
34.279772 19.682630000000003 37.419380000000004
37.347065 16.196593 37.39742
37.472881 19.434576 34.42081
13.585835000000001 13.330101 28.424368
34.135619000000005 19.328479 31.357022999999998
37.30883300000001 16.330309999999997 31.0916
37.14300300000001 19.588744 28.577885000000002
13.3553 10.573057 31.475433000000002
34.448832 19.69296 25.284786000000004
37.273077 16.523086 25.586465000000004
37.120954 19.595269000000002 22.462602000000004
10.450353 13.222683 31.375695999999998
37.417992 25.282749000000003 16.345366
34.271323 19.23272 19.324317999999998
37.142351000000005 16.678691999999998 19.403861
37.161652000000004 19.319801 16.654667000000003
37.322849000000005 22.586838999999998 19.651985000000003
34.410647 25.461840000000002 19.690245000000004
34.089263 19.48592 13.563957
37.470881000000006 16.441492 13.44309
37.344271000000006 19.570325000000004 10.363416
37.225655 13.321663 40.447516
10.717124 13.448631 25.438527
34.312255 13.451130000000001 37.515018
37.436115 13.385067000000001 34.46764
28.458987999999998 25.33681 19.712326000000004
31.156061 37.291754 40.173529
28.548029999999997 37.29977 37.156369
31.536977 28.566403 25.3016
31.191601 31.450612999999997 22.397228
13.604661 16.308532 19.309283999999998
28.436815000000003 31.159201000000003 19.458012000000004
31.440392000000003 28.540246000000003 19.400306999999998
31.297680999999997 31.154341000000002 16.411012
10.600589 19.542927 19.582503000000003
37.134456 31.262231 16.648021
28.571182 31.259329 13.495018
31.409281 28.243467000000003 13.740022
31.194647000000003 31.304839 10.664781
37.182974 28.282885999999998 19.319857
34.583451000000004 31.294931 19.422145999999998
31.112940000000002 25.339185999999998 40.289162000000005
28.384735 25.498247 37.102564
31.506418000000004 22.262321 37.310183
31.506597999999997 25.237955 34.33511
10.355696 13.310501 19.383654
28.577303 25.323259999999998 31.483124000000004
31.221051000000003 22.218386000000002 31.491647999999998
31.560018999999997 25.586699000000003 28.412073
13.647191000000001 19.418931999999998 22.606259
37.406004 31.428386000000003 22.163297
28.549559000000002 25.445107999999998 25.208133000000004
22.272174 25.239511999999998 37.390896
31.465669 25.281730000000003 22.58012
13.571102 16.578183000000003 25.594179000000004
28.17669 31.304342 25.377829
37.123961 22.526285 37.168085000000005
13.404736 19.509805 16.727088000000002
31.493516 28.537328000000002 31.247110999999997
31.163927 34.426807000000004 37.098274
31.571891 37.471756 34.399372
34.549227 25.460579000000003 37.368154000000004
28.582499 37.101986000000004 31.397922
31.181075 34.355288 31.536555
31.512907 37.224735 28.387833
13.426025000000001 19.375232000000004 10.767231
28.591020999999998 37.259596 25.601748
31.489838 34.485971000000006 25.242364000000002
31.228285 37.084264000000005 22.475583999999998
13.602555 16.606075000000004 13.570896
37.141149 25.259251 40.391819
28.225988 37.381067 19.283345000000004
31.374685999999997 34.49754900000001 19.585335
31.205216999999998 37.344045 16.599587999999997
10.296067 19.404103 13.490898
28.505639000000002 37.130101 13.643578
31.455879000000003 34.44941300000001 13.649973000000001
31.277865 37.536502 10.661067000000001
37.271549 31.252991 10.283051
31.319713999999998 31.457946 40.520937
37.127411 28.387425999999998 13.603298
28.490322 31.089405 37.352527
31.322988000000002 28.127628 37.418095
31.181005 31.328085 34.205793
34.282061 31.453854 13.641607
28.37675 31.474967 31.544100999999998
31.360166 31.582228999999998 28.303328
25.335454 22.553254000000003 37.167104
13.35176 25.584304000000003 16.372003
13.276974000000001 22.343420000000002 19.567232000000004
16.327142000000002 25.27778 25.324271000000003
19.245110000000004 22.275948 25.420398
19.273048000000003 25.400472999999998 22.552236999999998
13.288733 28.181838 19.43743
40.270303 25.508254 37.142825
16.575111999999997 25.324832 19.582433
19.412052000000003 22.245562 19.281176000000002
19.422476000000003 25.608401 16.489508
10.573433 31.117445000000004 19.514917000000004
16.597456 25.44281 13.68088
19.294493000000003 22.347265999999998 13.366662
19.529125 25.240671 10.32967
19.571376 19.592993 40.480311
40.191382000000004 31.222977999999998 13.269105
16.514744999999998 19.463397 37.517256
19.25784 16.463329 37.526773000000006
19.509935 19.584729000000003 34.526966
16.382317999999998 19.592705000000002 31.102589000000002
19.339676000000004 16.346752000000002 31.515735
19.390492000000002 19.448847 28.147118
13.266819 31.389929000000002 22.263027
40.306616000000005 31.155642 19.603635000000004
16.634808 19.303275 25.521846000000004
19.363871000000003 16.274729999999998 25.564153000000005
19.611106 19.458897999999998 22.262465
13.331758 31.27776 16.331802000000003
19.476059 25.211146 28.244208999999998
19.635448000000004 22.539001 31.542610000000003
16.441643 25.318009000000004 31.556925
16.627147 31.29712 37.160284000000004
19.401114 28.55545 37.082802
19.404961 31.259472000000002 34.154839
16.413638 31.221801 31.535335000000003
19.513154999999998 28.510398000000002 31.203764
19.553113000000003 31.363686 28.222492000000003
13.670061 31.246201999999997 10.356312
40.167869 25.265912 13.696212000000001
16.257509 31.183587000000003 25.281028
19.650529 28.392151 25.475911000000004
19.516287 31.494652000000002 22.178048000000004
25.564944000000004 25.55565 34.141074
13.560909 28.543827999999998 25.531256
16.574766000000004 31.486213 19.609682
19.700175 31.377782000000003 16.629105000000003
10.360156 31.317836 13.665572
40.475768 25.251043000000003 19.572716
16.642046 31.122663000000003 13.511148
19.361083999999998 28.211053 13.390027
19.366115 31.352086 10.699888
40.209887 25.577424999999998 25.202258999999998
19.561736000000003 25.222126000000003 40.339241
16.674370000000003 25.522179 37.252856
19.234227000000004 22.494516000000004 37.477038
19.36882 25.635685000000002 34.387225
40.044246 25.445715 31.521841000000002
19.455302000000003 28.515521 19.278550000000003
19.447673 31.559849 40.463909
16.457518999999998 19.715633000000004 19.489645000000003
19.589442 19.246724 16.419394
13.497514 40.176579000000004 25.245814000000003
40.43105 37.364439000000004 25.299636
13.593516 40.418257 19.212544
13.340696 40.151965000000004 13.328509
13.532612 37.470775 40.480103
40.222347 37.271966000000006 31.564135
10.574166 37.54003900000001 37.35324
13.515333 34.370873 37.117256
13.47223 37.02479700000001 34.286524
10.66215 37.487774 31.494653
13.451937 34.509416 31.225549
13.352139 37.446691 28.479064
13.646527 31.373979 34.442359
40.144194 37.448803 37.20050500000001
10.41532 37.18921 25.511122
13.697424 34.261672000000004 25.432327
13.238553 37.376801 22.520948000000004
13.356977 28.236314 37.175356
10.431265 37.101964 19.574613
13.665178 34.353455 19.379331
13.521927 37.225727000000006 16.204954999999998
10.634379000000001 31.456667000000003 37.438613000000004
10.347361 37.439672 13.419601
13.753932 34.392225 13.565507
13.614656 37.127846000000005 10.551235
13.339757 40.182358 31.136073000000003
40.122422 37.376022000000006 19.546539000000003
13.555433 40.120337000000006 37.120343000000005
40.262458 37.234717 13.226644
10.763557 31.421090999999997 25.448368000000002
40.44366 31.415705000000003 25.553798999999998
16.683867 19.464238 13.451606
19.374444000000004 16.32674 13.277050000000001
19.322165 19.388663 10.706451
40.142839 31.474077 31.212372000000002
19.65043 13.428367 40.068922
16.306229000000002 13.420032 37.390402
19.335112000000002 10.709984 37.158184000000006
19.508466 13.33208 34.163503000000006
40.148539 31.507516000000003 37.081909
16.386960000000002 13.382616 31.522115
19.40956 16.413521000000003 19.717731999999998
19.615792 10.694269 31.509113
13.695329 31.344043 28.332718999999997
16.436109000000002 13.535598 25.189008
19.383906000000003 10.328797 25.511744
19.625228 13.599689 22.284134
13.493678000000001 28.156495 31.30366
16.549515 13.419282 19.288902
19.463229 10.317328 19.623992
19.45351 13.396991 16.232678
10.441358000000001 31.172975 31.47723
16.406644999999997 13.670909 13.315027
19.307457 10.548867 13.654196
19.191090000000003 13.448614000000001 10.394844
19.308104999999998 13.36557 28.563581999999997
40.351816 19.329746999999998 37.049998
13.450352 28.628723 13.559555
19.319968000000003 37.444343 10.658694
25.432934000000003 16.591704 25.645636000000003
25.620807 19.282196 22.498428000000004
37.140734 40.200851 25.273778999999998
22.407400000000003 19.703103 19.305614
25.643599000000002 16.358699 19.466203
25.488630999999998 19.588342000000004 16.375798000000003
37.495719 40.439502000000005 31.359535
22.239314 19.381733000000004 13.703825
25.582978000000004 16.644790999999998 13.660204
25.372273 19.416812 10.251654
13.467934 25.268843000000004 28.504709
22.684528 19.376964 25.320263000000004
25.564764000000004 13.336599 40.098693
25.543844 10.611974 37.066900000000004
25.550823 13.35769 34.304553
13.62456 22.519587 31.494334000000002
37.194497 40.079102000000006 37.463554
22.64851 13.379667 31.471293000000003
25.517888 13.651656000000001 28.467463000000002
10.456862000000001 25.439234 31.161849000000004
22.538935000000002 13.533253 25.206412
25.516123999999998 10.454938 25.581153
25.632859000000003 13.387869 22.571955000000003
40.462912 13.564488 13.327916
22.261265 13.612567 37.204562
10.696777 25.559746000000004 25.322346000000003
25.239784999999998 19.280545000000004 28.500712
25.282711 16.611719 31.314126
37.285391000000004 34.461737 37.516563000000005
22.548243 25.489114 31.198974999999997
25.367534 22.248291000000002 31.384010000000004
25.509078000000002 25.438271 28.220381000000003
10.617256 25.612828999999998 19.366481999999998
34.292196000000004 37.078382000000005 37.275918000000004
22.230699 25.349887000000003 25.339399999999998
25.460646000000004 22.171236999999998 25.427042999999998
25.49969 25.454497000000003 22.281150000000004
37.137657000000004 37.464258 40.121067000000004
22.231001 25.241208999999998 19.339992000000002
25.559411000000004 22.341145000000004 19.253515
25.270794000000002 25.365262 16.329387
22.566533 25.532816000000004 13.326410000000001
25.497435000000003 22.443506 13.322608
25.532603 25.235673 10.485591
13.486547 25.552399 22.26451
37.250387 40.427760000000006 13.630292
25.324466 19.587338000000003 40.390577
22.395630000000004 19.247751 37.20171500000001
25.239597000000003 16.308968 37.368154000000004
25.575057 19.467990999999998 34.408902
13.475427 22.301133 25.540545
37.335777 40.341253 19.715947
22.503991 19.590106 31.243625
22.311859 13.341072 19.642196
25.304393000000005 10.674695 19.590679
25.198942000000002 10.673855 31.280320000000003
40.108539 13.700353 19.542597
40.456176 13.480433 37.457219
19.625538 40.27487000000001 13.434489000000001
19.404283 37.454092 40.044053000000005
40.221495000000004 19.547463 13.690710000000001
16.644909 37.433362 37.38799
25.376738000000003 13.227536 16.572333999999998
19.328715000000003 34.462687 37.449262000000004
19.302673 37.392529 34.127866
13.31225 22.287316000000004 37.196135
40.11609 19.299395000000004 19.594839
16.473342000000002 37.208147 31.115496999999998
19.551122 34.58619 31.423243999999997
19.282897 37.333929 28.24476
10.578002 25.610378000000004 37.180902
16.269723 37.348276 25.566355
19.416074000000002 34.307102 25.651863
19.408474 37.428790000000006 22.672201
40.05779 19.415554999999998 25.195095000000002
16.382163 37.409453 19.68674
19.522345 34.15198 19.517873
19.273845 37.47855 16.333121
13.634205 25.488612000000003 40.38398
40.340285 19.314445 31.248868
16.346847 37.215346 13.659942
19.572240999999998 34.280739 13.254766
19.377199000000005 40.429311 19.625976
19.286322 40.129615 25.388419
37.397702 25.399605 10.275235
19.423146000000003 40.414331000000004 37.14106700000001
40.115895 13.34819 25.441946
13.351617 25.345883999999998 34.213666
19.400851000000003 40.148435000000006 31.472215
40.474306 13.396286 31.455890000000004
25.166978999999998 10.388484 13.439409
22.235901 13.615319000000001 13.498459
25.596331 13.411933 10.573686
34.550556 33.996132 39.835961
40.580629 16.119301999999998 28.700968000000003
34.689464 22.173975 34.234383
39.989094 34.546793 34.253536
34.631613 40.056017 40.275467000000006
40.568035 22.851245 16.263883999999997
34.05131 28.164369 34.65748000000001
34.539259 40.181545 10.171504
40.799752 22.684025 40.156180000000006
40.463094 10.323572 16.225
10.141608 10.804548 28.684401
34.276753 33.866641 34.57337
40.128561000000005 34.769896 40.111759000000006
40.060392 28.698186999999997 16.334170999999998
39.947763 22.617185 10.129282
34.622696000000005 22.778392000000004 16.331901000000002
34.630535 28.361217000000003 10.889228000000001
34.047552 34.028095 10.194023
40.536502 40.456335 16.704987000000003
40.641425 28.404336999999998 10.794952
34.479262000000006 28.645091999999998 28.070566
40.242093 16.784070999999997 39.889652
40.392794 40.552996 22.206274
40.28755 16.137768 21.937958000000002
34.213684 22.730359 22.203323000000005
40.588804 34.068336 28.326335
40.517212 28.132618 34.51568
40.206116 22.029561 34.170992
10.483097 10.088988 22.279425000000003
34.099313 34.824408000000005 22.370112
40.093182 10.828309 34.534309
34.667238 40.641171 34.305346
40.396885 27.944493 28.027354000000003
39.748349000000005 28.269962 40.353213
40.212549 17.000762 10.395357
34.713987 39.959903 28.435921
33.981019 22.016767 28.152265999999997
33.843686000000005 28.162021000000003 16.687463
34.32638 28.079169 39.812846
34.541706000000005 34.187795 16.788510000000002
40.306952 22.718043 28.592022
40.334619 34.080551 10.224025000000001
34.546040000000005 28.348247 22.879851000000002
39.859369 22.577446000000002 22.393802
40.683649 16.303091000000002 34.489405000000005
40.651584 34.072436 16.680808
10.784177 10.857072 16.767917000000004
40.05342 28.838756000000004 22.61472
39.929582 10.205139 22.282261
40.524855 34.435984000000005 22.735970000000002
34.380883 22.544828000000003 39.898531000000006
33.990867 33.97764600000001 28.272253999999997
34.109184 39.999868000000006 16.166548
40.03648200000001 10.199860000000001 28.660206000000002
34.244352000000006 39.887854000000004 22.229731
10.510826 34.326388 10.025413
33.771828 16.531838999999998 40.149497000000004
16.795002000000004 40.538342 40.130334000000005
16.210122 40.553937000000005 34.072761
16.542355 40.596232 28.138416
16.073178 40.289135 22.259453
16.772080000000003 40.497409000000005 16.611289
16.518824000000002 40.698611 10.912211000000001
22.358623 10.412057 10.076994000000001
16.440697 34.030104 40.493204000000006
16.155684 34.383333 27.978882
10.305443 22.191919 40.026794
16.270892 33.919303 22.464753
16.258620999999998 34.676366 16.315441
10.595365000000001 28.138437000000003 10.181921
16.501446 34.558582 10.014694
16.244747 34.06927400000001 34.709592
16.100614999999998 28.040486 40.413765
22.28566 10.46331 16.894616
10.048276 22.201157000000002 34.470325
22.263808000000004 23.004532000000005 28.436878
10.001978 22.624591000000002 22.309387
22.638489 22.843884000000003 22.318158000000004
22.798446 22.620314999999998 16.912321
22.254151 22.339283000000002 10.082097000000001
22.668999 16.722856 40.61233
22.772056 10.820298 22.460816
22.615414 16.162611 33.957557
10.423498 22.845489999999998 28.465874
22.783425 16.54466 22.164103000000004
22.306972000000002 16.790858999999998 16.811873
21.976495 10.189027 40.31535100000001
22.888993 10.354330000000001 34.29211
22.061716000000004 10.793349000000001 28.047355000000003
22.402507 16.151626999999998 28.192740999999998
22.723652 22.065238 34.00265
16.593718000000003 28.021391 34.504625000000004
16.115504 28.148868999999998 22.435594000000002
16.165281 10.920752 28.192794999999997
16.52336 10.350621 16.054972
10.234608 28.588378 33.975797
15.992626 10.251037 10.424900000000001
10.876973 40.532746 34.08640200000001
10.324823 39.816389 28.265017999999998
16.338878 10.157359 34.378882000000004
10.421695 40.056650000000005 22.139063
10.404223 33.891807 40.460279
10.230469 34.112412000000006 34.450718
10.462736 33.968106000000006 28.144796999999997
10.276762 34.747962 22.437329
10.040436 34.528352 16.514132
10.619606000000001 28.730334 40.03822
10.081156 40.451345 16.356124
16.600230000000003 27.868330999999998 28.479394
16.561906999999998 10.005995 40.53687
10.717079 28.780183 28.555030000000002
16.606552 28.347358999999997 16.095485
10.525534 28.897419 16.462265000000002
16.727529000000004 28.111542999999998 10.732418000000001
16.793183 22.81521 40.315117
16.301651999999997 22.842986000000003 33.975336
16.369788999999997 22.230198 27.923833000000002
16.825919 16.191257 10.44945
16.198999 22.083986000000003 22.062839000000004
10.150174 28.013776999999997 22.25058
16.439591999999998 16.63328 40.779441000000006
16.506726 16.855019 34.522663
16.622427000000002 16.858721000000003 28.386132000000003
16.18355 16.720967 22.399499
16.260424999999998 16.12404 16.265968
16.558616 22.232603000000005 16.834020000000002
22.466518999999998 22.746169000000002 40.567269
21.965289 28.374972 10.437697
22.235080000000004 27.919055 16.554099
28.604608 34.205693000000004 39.956834
27.939280000000004 34.652793 34.147392
28.392983 34.048156000000006 28.780951
28.571783000000003 34.326595 22.024834
28.112879 34.025423 16.17185
10.248228000000001 16.454939000000003 16.144460000000002
28.123826 40.042917 10.725619
28.005988000000002 33.992864 10.613312
28.849107000000004 28.228347 33.98016200000001
28.560118000000003 28.664924 28.187026000000003
28.764195 28.021929 22.463311000000004
28.720397 28.708376 16.421151000000002
11.024482 16.362036 22.753619
28.777411 28.498928999999997 10.927416000000001
28.718400000000003 28.362856999999998 40.009973
28.665061 22.115625 40.491852
28.784177999999997 40.179411 16.485956
28.681126 39.816095000000004 28.438875000000003
34.25554700000001 16.028171999999998 34.155515
34.25606500000001 16.095412000000003 28.619484
34.488009000000005 16.827753 22.357540999999998
10.233651 10.876621 34.639482
34.396392000000006 16.045262 16.416265000000003
34.36371200000001 16.007483999999998 10.592312
28.061705000000003 39.99722800000001 22.354427
34.385794000000004 10.316452 40.67146700000001
34.591457000000005 10.776184 28.568890000000003
34.046316000000004 10.826049 22.71752
33.929333 10.171212 16.27345
10.747575 16.850037999999998 10.39563
28.102262000000003 40.067816 39.863485
28.351654000000003 39.79421000000001 34.475053
34.101341000000005 10.916373 34.247737
28.717626000000003 22.786449000000005 34.176384
28.397941000000003 22.720297000000002 28.609440999999997
28.877966 22.542879 22.652297000000004
22.467957 40.133938 15.99991
22.323613 34.008226 40.674231000000006
22.152124 34.459351 34.712685
10.839357 22.219213000000003 10.355972
22.917206 34.453343000000004 28.094138
22.226116000000005 34.275916 22.109641000000003
22.131771 40.056477 22.652915
22.945930000000004 34.247835 16.751170000000002
22.066661000000003 28.542876999999997 40.091723
40.590413 40.31486700000001 28.635399
22.265581000000005 28.191884 34.644183
22.166589000000002 28.422106999999997 28.656866
10.274999 22.778112999999998 16.370361000000003
22.191251 27.980725 22.227164000000002
22.332191 33.967595 10.649177
22.171024000000003 39.944323 28.018213000000003
22.489674 39.908105000000006 34.079135
22.212587 39.880098000000004 40.300789
27.993929 22.630736 16.807853
10.689527 16.961170000000003 28.252502
28.647872 22.134178 10.84362
28.847792 16.834643 40.151544
28.151111999999998 16.501507 33.963894
28.201268 16.734962000000003 28.644742
28.556806 16.059642 22.021144
28.672994000000003 16.144379999999998 16.753008
10.644267000000001 16.745899 34.014425
28.349024 10.830655 40.643396
28.166136 10.892181 33.912725
28.454250000000002 10.298581 28.827739
28.438823 10.946366 22.335871000000004
10.472854 16.225247000000003 40.644905
27.944369000000002 10.639553 10.745487
34.531137 22.079334000000003 10.563393
40.507239 40.407449 34.78552500000001
13.43638 13.362098 13.321412
19.301229 37.055725 37.50118500000001
25.545956000000004 13.585771 13.73151
25.510053 13.694615 19.543924000000004
25.175882 13.636875 25.587147
25.501776 13.433348 31.082309000000002
25.657395 13.596453 37.22498
25.306384 19.724041 13.669824
25.180773000000002 19.218997 19.478466000000004
25.438343000000003 19.493287000000002 25.654163000000004
25.256654000000005 19.566222000000003 31.592280000000002
19.556237000000003 37.095031000000006 31.381462
25.140276 19.498787 37.090914
25.553814000000003 25.448759000000003 19.248803000000002
25.361308 25.595739000000002 25.634291000000005
25.220390000000002 25.551364 31.231838000000003
25.687967999999998 25.485565 37.096306
25.210884 31.419452999999997 13.30932
25.421590000000002 31.110872999999998 19.593316
25.156259 31.493045000000002 25.300297999999998
25.198560999999998 31.493561 31.083038000000002
25.629891 37.474325 13.569152
25.485426000000004 37.543202 19.256266000000004
25.269143 25.187838 13.746813000000001
19.436789000000005 37.515525 25.278953
19.458778000000002 37.52475 19.472896
19.589866 37.622851 13.458983
13.356112000000001 37.289322 25.214239
13.309726 37.168145 31.596041999999997
13.586808 37.556019000000006 37.139596
19.262742000000003 13.575031000000001 13.705326000000001
19.566726000000003 13.629615 19.260128
19.282379 13.459347 25.230087000000005
19.218000000000004 13.336509000000001 31.368274999999997
19.227195000000002 13.32585 37.253204000000004
19.289576000000004 19.350225000000002 13.740031
19.622349 19.359225000000002 19.596586000000002
19.526663 19.333765 25.104692
19.719519 19.540640000000003 31.392671999999997
19.776958 19.399026 37.175367
19.74405 25.245730000000002 13.378458
19.605076000000004 25.215016 19.251471000000002
19.265957 25.460484 25.642622000000003
19.312384 25.574721000000004 31.302432000000003
19.650449000000002 25.632879000000003 37.159026
19.285242000000004 31.197958999999997 13.409086
19.263120999999998 31.37104 19.642752
19.663793 31.317072000000003 25.623083
19.411410000000004 31.135208 31.254407999999998
19.391835999999998 31.646348000000003 37.100411
25.208759999999998 37.30351400000001 25.549107
13.451119 37.500134 19.722445999999998
25.188684000000002 37.441748000000004 31.298768000000003
31.419778 13.451545000000001 13.285033
37.26173300000001 13.353931000000001 31.087072
37.252758 13.300405 37.53197900000001
37.470263 19.618743000000002 13.363368
37.206566 19.329121999999998 19.676139
37.576027 19.455603000000004 25.428944
37.128919 19.662436 31.349566000000003
37.114603 19.317765 37.249359
37.280697 25.557833000000002 13.294549
37.464713 25.632859000000003 19.26589
37.526539 25.420367 25.322518000000002
37.243309 13.287003 25.399042
37.524255000000004 25.315679000000003 31.190876000000003
37.308559 31.601204000000003 13.366486
37.514353 31.292386999999998 19.507594000000005
37.121315 31.422148 25.545523000000003
37.358869 31.325888 31.113653
37.346962000000005 31.102567999999998 37.229425000000006
37.358059 37.115594 13.363799
37.089991 37.185705 19.211993
37.051994 37.390683 25.539568000000003
37.062207 37.07878 31.222903000000002
37.20456 37.08873 37.097268
37.317256 25.431681000000005 37.650666
37.161736000000005 13.689804 19.279882
37.09259900000001 13.266516000000001 13.47592
31.31478 37.4977 37.417039
31.426474 13.340197 19.582864999999998
31.397624 13.201455000000001 25.289532
31.104309999999998 13.427897 31.447043999999998
31.112629 13.544795 37.263400000000004
31.165543999999997 19.294582 13.532282