147_cspbbr3_5\147_cspbbr3_5.xyz
1.0
50.738185 0 0
0 50.738185 0
0 0 50.738185
Br Cs Pb 
450 200 125 
Cartesian
37.1041875 40.406594500000004 13.4433655
28.3623345 13.1916775 37.2567955
31.3246515 10.6353725 37.102250500000004
31.3858935 13.757900500000002 34.3314195
40.1367865 13.5642215 19.187974500000003
37.1642385 37.529275500000004 34.3289015
31.2518795 25.458859500000003 16.223851500000002
31.134466500000002 22.2207485 19.328796500000003
31.2429585 13.2997945 28.1616675
31.2111655 10.675987500000002 31.2308835
31.0798035 13.5493925 40.348101500000006
40.3093445 13.277271500000001 25.4292915
28.3193735 13.6493605 25.1579325
31.5077785 10.6552995 25.2157245
40.2423365 13.4730225 31.5139645
31.1953405 13.455671500000001 22.1993635
28.5677755 25.3565185 19.2286315
28.2632465 13.5700795 19.565873500000002
31.4083145 10.6790325 19.4774265
28.480853500000002 13.404549500000002 31.1887795
40.2648165 13.264691500000001 13.4234235
31.5041775 16.3214605 13.655300500000001
37.2687145 37.0572295 40.2847045
31.2607685 19.2660985 34.4254315
28.5822535 19.3785615 31.3424605
31.1940385 16.2844485 31.2445385
31.4112985 16.5066265 37.124438500000004
31.2164135 19.3211735 28.1590135
28.3480815 19.3469295 37.0726655
34.3338205 37.0270645 37.3166795
37.3272495 40.033969500000005 19.376731499999998
28.527234500000002 19.403820500000002 25.471470500000002
31.104011500000002 16.4078255 25.419833500000003
31.125200500000002 19.380264500000003 22.5298415
37.1044975 40.2726695 25.4830805
37.0719695 40.1964535 31.275727500000002
40.3676005 13.601498500000002 37.1572795
31.1628005 16.3901165 19.5603005
31.3070715 19.3257185 40.0221895
31.258799500000002 19.2828625 16.5636485
37.3782625 34.3953625 37.3987015
37.112002499999996 40.1042695 37.2876095
31.1966185 25.4396895 10.6377065
31.180619500000002 22.637964500000002 13.5713525
28.350427500000002 19.638997500000002 13.583747500000001
28.3579425 25.390235500000003 13.259325500000001
31.3331155 19.6702825 10.529870500000001
28.5654125 19.5737205 19.3422185
40.475944500000004 19.296406500000003 25.4779475
40.0559655 19.5544215 13.654322500000001
25.214091500000002 37.377010500000004 10.481531500000001
40.1059415 31.166611500000002 19.5461175
25.4357725 31.1813425 40.3497355
22.6166705 31.137051500000002 37.2373395
25.3435235 31.2284555 34.0527645
40.1554315 31.4324005 25.2398655
22.201148500000002 31.4875175 31.233991500000002
25.2531965 28.2652445 31.118561500000002
25.4647255 31.4707565 28.3747215
40.351996500000006 31.2358945 31.1886355
40.3862655 31.194934500000002 37.4438405
22.286164499999998 31.4712085 25.554309500000002
25.445657500000003 28.5636405 25.317581500000003
25.1622675 31.3883505 22.5853885
40.0354635 37.4208245 13.3969375
22.2746815 31.2231925 19.2798595
25.447132500000002 28.4465435 19.6122525
25.4094585 31.1308245 16.5863065
40.087964500000005 37.5011655 19.5237185
40.3771635 37.219257500000005 25.4949435
22.4668625 31.194723500000002 13.276646500000002
25.2417485 28.427152500000002 13.347641500000002
25.2072875 31.4141845 10.5606155
40.248531500000006 37.1668235 31.1296875
40.339827500000006 37.0943835 37.479754500000006
25.5135755 25.2675035 40.1082905
22.2853535 25.2586345 37.163810500000004
40.304952500000006 31.3255555 13.2923425
25.3951205 34.3469885 13.6589275
22.5031475 37.1020255 13.4257345
40.4230735 25.4598965 37.4139165
28.460953500000002 13.2936095 13.5053215
31.1137865 10.6000815 13.3070765
40.2680825 19.208780500000003 19.506238500000002
31.4015375 13.3673315 10.339263500000001
25.2732465 40.4491875 37.2958285
25.216942500000002 40.3652535 31.5041585
40.009997500000004 19.357198500000003 31.1682755
25.468785500000003 40.0880615 25.4955255
25.097379500000002 40.3006785 19.312686499999998
25.255163500000002 40.4249515 13.670419500000001
25.5305535 37.390156499999996 40.3464285
22.6128675 37.3405635 37.351510499999996
25.5229315 34.475615499999996 37.4009945
31.5435485 13.3874675 16.3560265
25.2060895 37.0850505 34.427375500000004
22.4404195 37.0712385 31.3391735
25.2405095 34.0781305 31.3703265
40.3850975 25.3112955 13.300197500000001
25.2449845 37.0877835 28.1412905
40.0226635 25.3316075 19.456188500000003
22.4404635 37.1321075 25.5390045
25.5829405 34.4103945 25.2992515
40.3461985 25.445373500000002 25.6135425
25.3795595 37.008426500000006 22.3201755
22.5778275 37.343694500000005 19.4525705
25.220904500000003 34.125338500000005 19.5490595
40.445245500000006 25.5155045 31.335884500000002
25.433612500000002 37.1487655 16.2468495
40.141245500000004 19.360671500000002 37.4068385
34.527012500000005 37.3717955 31.433622500000002
34.1056885 25.140255500000002 31.2945815
31.2759205 22.4620075 25.0972065
37.3135715 19.2245345 16.552806500000003
37.3955365 28.231952500000002 19.3499585
34.3740875 19.651525499999998 13.385333500000002
37.1785385 16.6172365 13.334034500000001
37.1353265 19.6093015 10.4434345
34.1304365 31.1265825 19.5278735
37.0835155 13.3490435 40.4084785
34.1101115 13.6422415 37.3670845
37.1039565 10.4156215 37.3689585
37.0976825 13.4152925 34.1522985
34.2130785 13.679804500000001 31.1829685
37.344150500000005 31.3377345 22.5589055
37.120818500000006 16.2404325 19.3661205
37.156175499999996 10.4531535 31.4655175
37.2871755 28.418657500000002 25.5572575
34.1564675 13.3257545 25.382690500000002
34.422945500000004 31.1805385 25.219987500000002
37.3933325 10.620250500000001 25.3120505
37.546648499999996 13.4060135 22.4543365
34.2233415 13.4191885 19.5777855
37.1260855 10.7126605 19.3015845
37.3183795 13.477369500000002 16.6842255
37.3410645 31.2720065 28.0603515
34.105576500000005 13.4540825 13.3574335
37.373886500000005 28.481423500000002 31.4978425
37.1908005 10.5322335 13.646610500000001
37.3213395 13.2504275 28.2467885
34.3841155 19.552577499999998 19.5085215
37.428183499999996 31.412758500000002 16.383720500000003
37.4151225 19.5289675 22.4968015
37.476107500000005 22.5240355 31.183062500000002
37.1067675 25.2827655 28.5490915
37.2236575 25.1040225 34.2109785
34.3546555 25.5240985 25.2922505
37.3961505 22.2250265 25.3251785
37.053731500000005 25.5293685 22.3948085
37.1133735 22.5111065 37.267488500000006
34.3489145 25.411804500000002 19.591888500000003
34.293042500000006 25.086890500000003 37.293648499999996
37.3442025 22.3134075 19.147676500000003
37.4227945 25.3341755 16.5926285
37.342557500000005 25.3160685 40.4206755
34.3470575 25.5119225 13.371375500000001
37.115511500000004 22.2497055 13.494677500000002
37.0668725 25.4926335 10.4835975
37.4721235 19.4010855 40.3094245
37.0918075 31.4777215 10.502759500000002
34.116240499999996 19.5064985 37.376169499999996
37.272051499999996 16.3764165 37.4612075
37.4607945 19.5421915 34.1590865
37.1175975 28.326186500000002 13.344444500000002
34.2346115 31.446838500000002 13.7262985
34.117002500000005 19.581799500000002 31.2852575
37.183527500000004 16.5105445 31.5246645
37.4758165 19.2453885 28.2435245
34.266428499999996 19.1494115 25.3653145
37.2009845 16.287758500000002 25.4341715
37.1524145 13.3705455 10.341119500000001
34.2502755 31.489870500000002 31.2300225
31.058657500000002 40.1603695 37.1659835
31.4281595 40.2181085 31.5052045
31.2479735 28.1670185 31.185561500000002
37.4142705 37.2626565 16.6272635
31.1413635 31.0973675 28.3129295
37.2766955 34.124370500000005 19.5686065
28.4987155 31.3931085 25.220834500000002
31.2950045 28.1480515 25.5610335
34.4166155 37.4991105 19.488713500000003
31.3895725 31.4024185 22.1744415
28.1981145 31.1484335 19.5877785
31.4378055 28.4771185 19.531284499999998
31.3386985 31.190358500000002 16.2095165
37.3572055 37.3861205 22.5559625
28.330102500000002 31.1938255 13.640189500000002
31.5583915 28.2790235 13.371049500000002
31.1454765 31.159851500000002 10.3243535
37.4153255 34.2086715 25.2888425
34.127143499999995 37.3877955 25.279906500000003
31.149438500000002 25.4250605 40.082930499999996
28.5335255 25.2015755 37.2742105
31.3590115 22.3599575 37.0724685
31.1896005 25.492622500000003 34.1344985
37.4371505 37.037414500000004 28.2778515
28.4933325 25.502171500000003 31.2000305
31.2358805 22.4132805 31.155455500000002
31.1813805 25.2551305 28.4471695
37.2039655 34.1024465 31.2643455
28.1527165 25.5095945 25.5464285
28.538010500000002 31.2926145 31.280061500000002
31.4906575 25.1726445 22.4542195
31.0962135 31.400295500000002 34.408134499999996
28.4540595 31.4729845 37.148920499999996
31.4723185 40.004400499999996 25.3747405
31.0994655 40.4083655 19.5184085
31.5091095 40.287943500000004 13.6658445
31.318759500000002 37.125929500000005 40.0089355
28.354671500000002 37.4661075 37.4279565
31.4185805 34.0765115 37.3259545
31.3523235 37.019203499999996 34.1913415
37.4547665 31.4331705 34.448026500000005
28.2148225 37.4657495 31.2155135
37.228240500000005 28.1563185 37.1811275
25.4661355 22.2242215 37.2716105
31.4928035 37.3405375 28.2993575
34.374809500000005 31.1833895 37.4540225
28.4922405 37.2055605 25.5508375
37.4838815 31.256314500000002 40.3056315
31.0973425 34.3635455 25.2682195
31.1798515 37.1650475 22.2261715
28.3523715 37.0780825 19.563548500000003
31.1016815 34.318118500000004 19.5475575
31.412872500000002 37.1527425 16.5991395
37.3653805 37.4341265 10.699284500000001
28.140628500000002 37.1327865 13.5281645
31.4178365 34.443804500000006 13.6697785
31.495369500000002 37.0876565 10.452652500000001
37.376543500000004 34.1241655 13.4192055
34.141828499999995 37.381772500000004 13.3934535
31.2936085 31.6144225 40.2381735
31.358207500000002 28.3301415 37.4665765
31.2708035 34.1397045 31.204694500000002
25.5747375 28.5103175 37.2640795
19.2292415 19.365019500000002 10.403387500000001
10.4851045 19.367718500000002 36.9810425
19.505039500000002 22.3900645 19.154951500000003
19.507003500000003 25.5082405 16.3489945
16.5976235 25.1734905 13.4276145
13.2829545 19.3979935 40.408851500000004
19.5644375 22.6052065 13.4685915
19.2728325 25.5094265 10.405425500000002
19.4839195 19.6273645 40.3678375
13.2914505 25.212951500000003 10.4404365
13.4256125 22.2585195 13.3311425
16.5551045 19.548126500000002 37.1578735
19.4695235 16.6184745 37.1185265
19.5737135 19.261585500000002 34.3586625
10.468369500000001 25.1862115 13.2717685
16.3950265 19.180612500000002 31.3896845
19.4838835 16.436881500000002 31.6020525
19.2412055 19.5701745 28.3441865
13.6086065 25.1676745 16.5382185
16.1977075 19.413757500000003 25.2434845
19.2843525 16.3069065 25.4641565
19.3271285 19.6479705 22.3339295
13.662453500000002 22.4101615 19.413559499999998
10.370672500000001 25.5449315 19.2908365
16.239006500000002 19.542914500000002 19.2418885
19.536086500000003 16.2197375 19.5283935
19.3129685 19.3155195 16.5700515
16.3844345 19.2394555 13.4769175
16.4369515 25.6467495 19.3908825
19.4953645 25.1858935 22.2043825
19.302460500000002 22.559382499999998 25.5104555
13.3066785 16.2459005 37.4110085
10.5939935 19.5112235 19.6350955
19.6446565 31.2969435 34.2872385
16.5678085 31.191986500000002 31.126386500000002
19.6481535 28.286572500000002 31.266772500000002
19.3379595 31.201027500000002 28.209180500000002
16.2429905 31.2363655 25.227965500000003
19.5574875 28.4696705 25.3909255
13.4939815 19.5699875 22.5611435
19.1548905 31.3794405 22.3832235
19.497896500000003 28.1147465 19.3914595
13.522920500000001 16.2332085 25.443884500000003
19.598603500000003 31.4308825 16.6127605
16.6977125 31.4113905 13.3665295
13.3583835 25.2964835 22.247124499999998
19.5013785 28.1675125 13.326023500000002
19.610347500000003 31.1710105 10.6528305
13.2372425 19.4737655 28.3000565
19.4360995 25.4847975 40.4860785
13.3261845 16.3878415 31.493240500000002
16.2875855 25.3637835 37.0467785
19.158829500000003 22.2627745 37.2802365
19.2559885 25.2356935 34.252629500000005
10.3402005 19.5944285 31.4030105
16.2817495 25.2480045 31.4449675
19.2592935 22.4317265 31.1895695
19.6253755 25.500975500000003 28.2394985
13.486054500000002 19.2342495 34.1706555
16.332165500000002 25.5654945 25.3498655
10.5191605 19.6475595 25.197309500000003
19.5398285 16.248932500000002 13.368135500000001
25.1935795 25.4470335 34.2705665
13.599272500000001 22.4264625 25.5448575
13.3470945 37.2076195 40.0459725
13.6574255 31.3000595 16.5329015
13.5764455 28.4102885 19.6275645
10.690466500000001 37.2419245 37.4257195
13.5265915 34.086782500000005 37.4307155
13.256054500000001 37.2018245 34.3276805
10.5750185 31.482370500000002 19.363080500000002
10.3689215 37.358430500000004 31.2195355
13.5644655 34.184495500000004 31.4651375
13.3666335 37.4143095 28.1262855
13.6436235 31.1385735 22.277497500000003
10.607845500000002 37.0951645 25.4144535
13.6165275 34.1461335 25.3515045
13.6286395 40.285607500000005 13.557173500000001
13.6032855 37.070913499999996 22.5103875
10.547757500000001 31.255049500000002 25.1059565
10.3544315 37.4238255 19.263521500000003
13.540238500000001 34.401402499999996 19.5876875
13.604067500000001 37.1377675 16.468802500000002
13.5546655 31.192591500000002 28.1711595
10.657258500000001 37.1679035 13.376160500000001
13.551982500000001 34.4483965 13.3470445
13.3538885 37.1187935 10.4191835
13.403235500000001 28.161209500000002 31.4332295
13.2765065 31.3850495 40.4363155
10.5000435 31.4229315 31.1102685
10.286276500000001 31.285504500000002 37.0614065
13.5037535 28.529107500000002 37.1619175
13.606792500000001 28.5111455 25.5727845
19.5455265 28.1524805 37.217478500000006
13.301403500000001 40.0296115 19.299730500000003
10.720558500000001 31.3801275 13.592747500000002
10.699231500000002 25.541984499999998 25.3997465
19.5738275 13.2736275 40.2649475
13.6801505 25.4128545 28.173527500000002
13.639385500000001 22.533984500000003 31.3115215
16.4901735 13.630679500000001 37.3922035
19.2866745 10.612937500000001 37.129194500000004
19.6000205 13.5179255 34.1219095
10.721424500000001 25.240787500000003 31.4306615
16.630067500000003 13.601650500000002 31.2667615
19.417345500000003 10.3531185 31.4905915
19.555325500000002 13.3880335 28.457680500000002
13.2052765 25.430181500000003 34.3082765
16.6404685 13.510993500000001 25.2461525
13.380252500000001 40.1104575 25.1756685
19.269566500000003 10.3324885 25.547324500000002
13.5802835 22.501158500000003 37.1748715
16.6052785 13.5520305 19.5792915
19.3316845 10.3359345 19.453520500000003
19.451916500000003 13.2515195 16.3586665
10.6383515 25.2397835 37.2426715
13.4040985 25.1722805 40.2069185
16.6003765 13.4292165 13.6092145
19.626155500000003 10.503210500000002 13.4957545
19.4891855 13.297054500000002 10.3791785
13.746612500000001 40.1617145 37.3037435
13.7183125 31.2078295 10.542341500000001
13.2552575 28.457735500000002 13.3537475
13.5456275 40.3342035 31.1745345
19.4101425 13.595548500000001 22.607043500000003
16.309341500000002 31.1824765 37.1650695
16.3546915 31.1904745 19.582933500000003
19.309490500000003 31.4275275 40.137096500000006
25.561325500000002 16.283147500000002 19.4059455
25.2007145 19.3858645 16.2890795
22.4301575 19.1972155 13.2953945
25.3632875 16.5685635 13.649814500000002
25.2700345 19.210598500000003 10.5138435
13.540456500000001 13.5746635 22.5497055
25.1781825 13.272313500000001 40.3059475
13.5756765 10.408267500000001 25.574755500000002
22.2021845 13.311647500000001 37.1084035
25.542117500000003 10.3528225 37.320324500000005
25.5919855 13.6510915 34.212934499999996
22.476499500000003 19.6237795 19.3215735
10.2594645 13.2984945 25.292784500000003
25.2224345 10.573621500000002 31.506193500000002
13.5007315 13.2682125 28.1671555
13.6309255 10.426714500000001 31.122660500000002
22.1538225 13.4269055 25.2843745
10.464111500000001 13.2492385 31.176582500000002
25.1818745 10.529756500000001 25.437487500000003
25.6053205 13.522357500000002 22.4315285
22.2602155 13.5640915 19.5546465
25.2527615 10.5499395 19.274676499999998
25.2379195 13.5311125 16.3034775
22.524818500000002 13.647631500000001 13.6202295
22.2838265 13.561753500000002 31.4598515
10.4084225 13.6898865 19.2674415
25.4052615 19.6230675 22.4093455
25.415761500000002 16.3976775 25.1897285
22.5944715 25.420900500000002 31.2531425
25.2900705 22.5720465 31.3589235
25.4202075 25.2062655 28.1796455
22.5159825 25.4870285 25.1426905
25.462242500000002 22.5536765 25.3207895
13.4197925 13.303320500000002 10.298160500000002
25.4699525 25.465878500000002 22.1655365
22.263710500000002 25.4251405 19.3028145
25.3045605 22.6277605 19.5286985
13.3337555 10.405224500000001 13.228858500000001
25.5401465 25.2795255 16.4671615
22.6215445 25.2800125 13.5858235
25.127444500000003 22.3828775 13.6431505
10.499213500000002 13.7065415 13.4213415
25.221667500000002 25.532574500000003 10.3522225
25.2464345 19.1722495 40.2404875
22.2606695 19.6530065 37.1944845
25.3506295 16.2093685 37.2206585
25.455510500000003 19.320673499999998 34.0827835
13.5366865 13.668815500000001 16.5351675
22.1857395 19.3213345 31.3338855
25.1719635 16.470056500000002 31.523121500000002
25.188382500000003 19.4366145 28.3072525
13.600421500000001 10.616226500000002 19.2725905
22.5560475 19.338497500000003 25.4715335
25.5159555 10.418945500000001 13.3477665
25.5231565 13.5709135 10.4262385
25.5767755 13.344867500000001 28.2916105
13.3003915 13.3852855 34.2832675
19.2966085 37.4109295 40.166010500000006
16.308902500000002 37.2366025 37.032275500000004
19.6612465 34.1326625 37.332808500000006
19.5194405 37.1781095 34.140018500000004
13.3783615 19.5108275 10.361914500000001
19.3063575 40.0426415 37.3246095
19.585773500000002 34.2202025 31.446987500000002
19.485778500000002 37.4262805 28.561957500000002
13.2836975 16.415440500000003 13.5498455
16.3541595 37.4014055 25.5959795
19.3157305 34.3932755 25.5213305
19.5787565 37.4002935 22.5762795
10.626162500000001 19.4646695 13.6032905
16.5425855 37.4642755 19.2842105
19.3707245 34.133747500000005 19.2098045
19.489197500000003 37.3232275 16.6735845
16.2396485 37.2731415 13.568354500000002
19.2576015 34.3804175 13.6307465
19.5561675 37.2628525 10.2688155
13.3709725 19.5794235 16.2433625
13.494701500000001 16.3097545 19.5763725
13.6440065 13.4086285 40.077135500000004
19.2760345 40.0673665 13.274245500000001
16.2539845 37.3964395 31.4438065
13.5903535 31.1888095 34.1749705
19.3798995 40.3905285 25.2132915
10.3363615 13.6179935 37.272481500000005
19.2903145 40.389053499999996 31.2517195
19.2731595 40.1087635 19.4324285
13.2005585 10.4586675 37.3285885
33.9474375 22.660833500000003 34.6029845
40.2065835 22.0887215 10.2837435
40.0436815 33.887704500000005 16.5052705
40.4253705 16.2051545 34.5113545
10.8742275 22.5141555 10.8250455
34.3679975 34.759316500000004 40.2594695
10.0157425 10.599794500000002 16.2982965
39.8944035 10.6404195 16.3229265
40.6030285 16.3059225 40.5840855
10.2491585 28.5855985 22.1636865
40.389697500000004 34.6447535 22.697084500000003
34.071664500000004 34.6815315 16.4277115
10.1580885 28.0035485 34.367047500000005
40.6358915 40.197356500000005 22.4049455
34.6543835 28.1398205 10.848335500000001
33.8443445 40.2004055 22.047925499999998
34.4419175 39.7155965 10.4392355
40.065534500000005 34.2534335 28.7199385
40.622203500000005 34.0964895 10.7448665
34.2326095 21.9779015 40.2166645
34.6068505 40.552513499999996 39.9834605
33.9114545 34.2469295 22.6022975
34.072334500000004 40.5928715 16.3510825
40.585611500000006 40.639205499999996 16.5282375
40.4870185 34.121392500000006 34.6306475
10.072261500000002 10.9146295 34.2403865
10.177262500000001 28.6109765 28.5912295
10.6262205 16.4203675 22.7639685
10.146729500000001 22.4902395 16.759204500000003
40.420716500000005 15.963810500000001 28.5982215
39.9863185 33.941823500000005 40.0233495
34.3845195 40.012637500000004 33.7653005
10.267098500000001 16.7547915 16.7373675
10.8544145 10.5205505 28.1752165
10.8158595 28.5641635 16.4589985
40.227221500000006 21.9943685 22.4640965
40.1956525 10.7945755 34.0140655
10.3775755 16.7417905 10.2977065
40.0665525 28.136816500000002 10.9096895
10.6633805 22.1917415 33.8288215
33.883734499999996 40.1884315 28.6205395
11.055739500000001 16.4654025 34.222555500000006
40.2766565 16.0903555 10.6825255
40.2246635 22.4728785 40.6550205
34.3031025 33.993038500000004 28.7121545
34.6693905 28.7455495 34.2014405
40.1376155 22.6964155 33.9242415
10.9822535 22.6531205 28.3251225
40.0337475 22.7163135 28.7324385
34.501957499999996 28.0133295 40.5427465
40.6230915 16.1144375 16.2203945
39.8533205 28.5257255 22.6091475
34.028110500000004 34.1528125 10.1222975
40.2671845 28.4374505 40.6979465
10.5696895 16.5190035 28.784443500000002
39.7744835 10.5885865 22.1932195
39.8690255 16.0198375 22.3989895
40.3123425 27.8348815 34.4357915
34.5075925 28.746340500000002 22.3587065
34.1367485 28.5734555 28.0683855
10.5473815 28.8753195 10.6916475
10.834535500000001 16.6009635 40.520275500000004
34.473366500000004 33.7744955 34.0928065
39.907571499999996 28.0478925 28.6123915
39.9785235 10.893368500000001 28.3202925
10.7285325 22.180733500000002 22.6212285
10.1105935 10.427924500000001 22.7938705
40.5271335 22.745566500000002 16.5093925
34.7294295 28.1108805 16.690548500000002
22.3207285 22.062216499999998 34.104073500000005
10.1925755 28.3871125 40.586034500000004
22.0765635 10.136380500000001 22.131722500000002
28.3062325 10.532690500000001 16.8187735
21.9713815 10.449004500000001 16.4527205
28.0952485 10.701902500000001 22.7291345
16.881843500000002 40.6240735 34.394914500000006
28.3102395 10.5009805 28.8393035
16.701345500000002 40.090525500000005 28.0046395
16.7322525 40.3470965 22.9100965
28.5999625 10.3291185 34.0355705
16.0221695 40.497803499999996 16.2150445
16.4472685 40.384603500000004 9.968462500000001
28.7033865 10.2445965 39.927926500000005
28.3024735 16.7546915 10.004931500000001
28.180380500000002 10.5815435 9.9597615
16.0461245 34.102919500000006 40.6272435
16.0629175 34.064909500000006 34.143558500000005
28.1488945 16.752312500000002 21.917621500000003
16.8755105 34.4095085 28.5400825
28.1393415 16.2808815 28.693137500000002
16.5117945 34.399665500000005 22.8968255
28.311660500000002 15.9997765 34.5639845
16.1631775 34.4397405 16.2502755
27.9332715 16.227528500000002 40.4453815
16.5592565 33.888126500000006 10.6419045
28.6707955 22.5295425 10.151186500000001
16.2912405 28.3824885 39.7217535
28.4670875 22.2571255 16.8880305
16.2209115 28.0646825 34.192971500000006
28.0200335 16.3841655 16.273464500000003
21.861529500000003 40.1463435 40.3783435
22.5255235 39.8241065 34.1859615
22.2887425 10.1663935 27.8840645
22.5466915 22.568597500000003 40.6658385
22.7920575 28.355767500000002 10.7433565
22.768255500000002 22.3870785 28.5271865
22.4290895 28.8831385 16.7040815
22.282912500000002 21.8503995 22.4594555
22.4186765 27.9949745 22.0267775
22.0104835 22.169926500000003 16.0472015
22.204618500000002 28.1490855 28.653302500000002
22.6583425 22.4410855 9.9996235
22.6147165 28.6335695 34.1506645
40.076187499999996 40.6913065 28.2078955
22.566638500000003 16.7993855 34.2827305
22.0031095 28.3774595 40.266183500000004
22.3307535 34.037132500000006 10.942811500000001
22.267267500000003 16.670323500000002 28.6048715
22.189587500000002 33.8525075 16.1257395
22.5740105 16.723471500000002 22.0872685
22.4108595 33.776391499999995 22.5883705
22.692401500000003 16.2877645 15.998475500000001
22.2643415 33.7521775 28.538259500000002
22.7082555 16.6051505 10.6777425
22.7808475 34.1076745 33.9136325
21.9448965 10.494611500000001 40.438998500000004
22.113938500000003 34.649293500000006 40.5540655
22.5390985 10.8059755 34.112572500000006
22.3514385 39.9132295 10.7700715
22.1172045 40.083276500000004 16.693687500000003
22.767508499999998 39.9333985 22.3222635
22.2428925 40.0778305 28.7113145
28.695535500000002 22.5694315 22.6209315
16.863522500000002 28.4696275 28.4409605
28.0235705 22.2262165 28.591721500000002
16.0615785 28.3408625 22.831188500000003
28.388413500000002 39.989816499999996 40.6134765
34.5217065 10.6931705 10.287033500000001
16.8920485 10.8280305 34.0721335
34.1813585 10.1629185 16.8219435
16.342374500000002 10.2332385 28.7107015
16.242684500000003 10.145110500000001 22.843999500000002
33.9548295 10.697128500000002 28.1926885
16.5449285 10.1487435 16.2354205
34.6448965 10.4243115 34.073581499999996
16.1671185 10.662328500000001 10.2064385
33.8744815 10.7999635 40.0459885
33.9234045 16.3583925 10.9095925
10.843725500000001 39.8520785 34.2222345
10.7403125 40.4361265 28.0981595
33.9730815 16.8323185 16.682841500000002
10.291040500000001 40.175588499999996 22.0064675
34.614559500000006 16.1874215 21.997173500000002
10.7702595 33.9777945 40.4100885
34.3505885 16.1082465 28.8450165
10.682581500000001 34.6022595 34.618953499999996
34.0973035 16.8329175 34.3484925
10.328385500000001 34.8206355 28.5787695
34.5714605 16.4257395 40.6784915
10.8128785 34.7671865 22.1832445
34.441283500000004 22.0619595 10.395665500000002
10.3598625 33.891982500000005 16.183577500000002
33.9655845 22.2336205 16.7542085
10.2463335 33.9527055 10.5403645
34.7036375 22.4071295 22.6040175
16.4164935 10.4112345 40.610865499999996
34.2457865 21.8615675 28.1394595
28.4573995 40.5744825 34.722587499999996
16.1404255 16.7502165 10.592028500000001
28.1766175 22.750822499999998 34.4290995
16.7103155 28.4487075 16.157760500000002
28.086240500000002 22.6615365 39.9515115
28.354564500000002 28.4571695 10.0656785
16.1373715 28.0112425 10.3530835
16.720451500000003 22.2211305 39.8962005
28.7901215 28.4305685 16.1193245
16.3308465 22.0910655 33.8138035
28.7260145 28.5894885 22.766206500000003
16.2070855 22.4442065 28.0462385
28.3181885 27.8787275 28.6349285
16.7818645 22.6610115 22.6365495
28.7722805 28.6415195 34.4407455
16.4610995 22.8487545 16.7787495
28.809403500000002 28.3307595 39.8715365
28.6274285 34.780680499999995 10.6326465
16.8326875 22.5069965 10.588254500000001
16.750335500000002 16.6760315 40.3421515
28.2953425 34.1320935 16.118834500000002
16.8837415 16.155666500000002 34.5293685
28.699648500000002 33.990756499999996 22.7176805
16.5873205 16.2491115 27.9519265
28.3690955 34.6090565 28.1494205
16.227224500000002 15.9965975 22.7167955
28.5462555 34.1864605 34.6156145
16.7278755 16.7062525 16.0411435
28.0178135 34.536614500000006 39.9323715
28.5100355 40.5925205 10.8795535
27.9356015 39.8368935 16.460559500000002
28.564138500000002 39.822232500000005 28.4328875
40.5459945 40.0388055 34.4096025
13.4209665 13.737201500000001 13.4602585
19.2359285 19.4445415 19.6696575
31.1961365 37.0853765 37.2361855
19.6307365 19.4448685 25.6076155
31.011253500000002 37.390308499999996 31.450322500000002
19.287859500000003 19.1736565 31.096397500000002
31.3903955 37.1232475 25.591517500000002
19.5400725 19.2616765 37.1532835
31.144195500000002 37.459795500000006 19.2883885
19.3480115 25.369502500000003 13.7628375
19.4455685 19.5028015 13.764352500000001
31.0440025 37.1140785 13.414756500000001
31.3628215 31.2882565 37.0532445
19.3387305 25.0800615 25.570764500000003
31.3933445 31.4765035 31.184393500000002
19.555578500000003 25.5227235 31.5252585
31.1513065 31.4809635 25.3033895
19.6307705 25.2533635 37.0433435
31.3884875 31.570290500000002 19.4224195
31.533493500000002 31.2040075 13.4380135
19.2702685 31.129807500000002 13.5199455
19.3231855 25.5261875 19.5437945
19.5073655 31.5342395 19.3312925
37.1024385 13.615327500000001 13.6198485
37.2371125 13.4754465 19.1318875
37.0735295 25.084588500000002 25.4702925
13.2379695 37.0218365 13.567367500000001
37.0548255 25.3316825 19.5659895
13.283129500000001 37.3071805 19.3013815
37.325264499999996 25.1707265 13.5455665
13.6757585 37.2583885 25.4472555
37.1521655 19.6094205 37.3243585
13.296340500000001 37.0916095 31.3581335
37.054103500000004 19.5971895 31.2739675
19.2234145 13.5614425 37.4988345
13.6917515 37.0832215 37.282613500000004
37.4929725 19.2986255 19.3765125
37.0967575 19.3138325 13.564920500000001
19.3074905 13.2695185 13.4030225
37.1475595 13.302715500000001 37.0867665
19.2173715 13.707318500000001 19.4880735
37.2804555 13.3973485 31.1001825
19.6295795 13.6373505 25.2565935
37.0458385 13.4430375 25.1038795
19.6400095 13.5230735 31.4829465
37.414181500000005 19.1636595 25.367690500000002
37.1184935 25.5422945 31.3144825
31.5202765 25.5622195 37.2736535
31.0228515 25.3724875 31.1178735
25.5394675 13.4043375 37.0401415
25.1301245 37.4093775 37.1107575
25.4304045 19.4947295 13.7660195
25.1633875 37.232951500000006 31.1803205
25.5720295 19.4368465 19.621140500000003
25.4316775 37.4586205 25.2734865
25.4575445 19.7393535 25.263299500000002
25.470198500000002 37.5369875 19.3652565
25.2815495 19.209864500000002 31.0573185
25.405092500000002 13.446132500000001 31.0262275
25.5827455 37.1624075 13.3785165
25.2195475 31.1826875 37.386528500000004
25.1649955 25.172349500000003 13.486691500000001
25.619167500000003 31.2461495 31.508661500000002
25.589876500000003 25.086813499999998 19.4804635
25.5708215 31.3424965 25.1677055
25.563047500000003 25.1985755 25.4110745
25.2137025 31.4134015 19.2649815
25.1672815 25.1634305 31.2119085
25.5188275 31.4821985 13.433542500000001
25.567063500000003 19.218200500000002 37.3896675
19.312507500000002 31.1571065 25.567927500000003
31.4849195 13.5791775 13.5705115
31.2745305 13.3087595 19.6734625
19.2780755 31.1304545 31.5550535
31.5486975 25.6421005 25.3870185
19.539064500000002 31.155894500000002 37.3831585
31.2920465 25.220315499999998 19.6083605
31.2205915 25.4663025 13.6389495
19.554548500000003 37.090872499999996 13.4512385
31.4903915 19.2311625 37.3369185
19.381217499999998 37.322328500000005 19.1770905
31.0664625 19.342676500000003 31.1629915
25.4920105 13.3365535 25.6477235
19.2033275 37.083506500000006 25.3137895
19.2669965 37.0522875 31.4628875
31.4246845 19.217454500000002 19.547898500000002
19.5060815 37.4410885 36.9622065