3_train/221_cspbbr3_MA-4-Br-2-TPC_4_0.40\221_cspbbr3_MA-4-Br-2-TPC_4_0.40.xyz
1.0
48.958448000000004 0 0
0 48.958448000000004 0
0 0 48.958448000000004
Br C Cs H N O Pb S 
240 244 78 288 34 84 64 42 
Cartesian
15.554224000000001 12.579224000000002 15.554224000000001
12.579224000000002 15.554224000000001 15.554224000000001
15.554224000000001 15.554224000000001 18.529224
15.554224000000001 15.554224000000001 24.479224000000002
15.554224000000001 12.579224000000002 27.454224000000004
12.579224000000002 15.554224000000001 27.454224000000004
15.554224000000001 15.554224000000001 30.429224000000005
15.554224000000001 12.579224000000002 33.404224
12.579224000000002 15.554224000000001 33.404224
15.554224000000001 21.504224 12.579224000000002
15.554224000000001 18.529224 15.554224000000001
15.554224000000001 21.504224 18.529224
15.554224000000001 18.529224 21.504224
15.554224000000001 21.504224 24.479224000000002
15.554224000000001 18.529224 27.454224000000004
15.554224000000001 21.504224 30.429224000000005
15.554224000000001 18.529224 33.404224
12.579224000000002 21.504224 33.404224
15.554224000000001 24.479224000000002 15.554224000000001
12.579224000000002 27.454224000000004 15.554224000000001
15.554224000000001 27.454224000000004 18.529224
15.554224000000001 24.479224000000002 21.504224
15.554224000000001 27.454224000000004 24.479224000000002
15.554224000000001 24.479224000000002 27.454224000000004
15.554224000000001 27.454224000000004 30.429224000000005
15.554224000000001 24.479224000000002 33.404224
15.554224000000001 27.454224000000004 36.379224
15.554224000000001 30.429224000000005 15.554224000000001
12.579224000000002 33.404224 15.554224000000001
15.554224000000001 33.404224 18.529224
15.554224000000001 30.429224000000005 21.504224
12.579224000000002 33.404224 21.504224
15.554224000000001 33.404224 24.479224000000002
15.554224000000001 30.429224000000005 27.454224000000004
12.579224000000002 33.404224 27.454224000000004
15.554224000000001 33.404224 30.429224000000005
15.554224000000001 30.429224000000005 33.404224
12.579224000000002 33.404224 33.404224
15.554224000000001 33.404224 36.379224
15.554224000000001 36.379224 21.504224
15.554224000000001 36.379224 33.404224
18.529224 15.554224000000001 15.554224000000001
21.504224 15.554224000000001 18.529224
18.529224 15.554224000000001 21.504224
21.504224 15.554224000000001 24.479224000000002
21.504224 12.579224000000002 27.454224000000004
18.529224 15.554224000000001 27.454224000000004
21.504224 15.554224000000001 30.429224000000005
18.529224 15.554224000000001 33.404224
21.504224 15.554224000000001 36.379224
21.504224 21.504224 12.579224000000002
21.504224 18.529224 15.554224000000001
18.529224 21.504224 15.554224000000001
21.504224 21.504224 18.529224
21.504224 18.529224 21.504224
18.529224 21.504224 21.504224
21.504224 21.504224 24.479224000000002
21.504224 18.529224 27.454224000000004
18.529224 21.504224 27.454224000000004
21.504224 21.504224 30.429224000000005
21.504224 18.529224 33.404224
18.529224 21.504224 33.404224
21.504224 21.504224 36.379224
21.504224 27.454224000000004 12.579224000000002
21.504224 24.479224000000002 15.554224000000001
18.529224 27.454224000000004 15.554224000000001
21.504224 27.454224000000004 18.529224
21.504224 24.479224000000002 21.504224
18.529224 27.454224000000004 21.504224
21.504224 27.454224000000004 24.479224000000002
21.504224 24.479224000000002 27.454224000000004
18.529224 27.454224000000004 27.454224000000004
21.504224 27.454224000000004 30.429224000000005
21.504224 24.479224000000002 33.404224
18.529224 27.454224000000004 33.404224
21.504224 27.454224000000004 36.379224
21.504224 33.404224 12.579224000000002
21.504224 30.429224000000005 15.554224000000001
18.529224 33.404224 15.554224000000001
21.504224 33.404224 18.529224
21.504224 30.429224000000005 21.504224
18.529224 33.404224 21.504224
21.504224 33.404224 24.479224000000002
21.504224 30.429224000000005 27.454224000000004
18.529224 33.404224 27.454224000000004
21.504224 33.404224 30.429224000000005
21.504224 30.429224000000005 33.404224
18.529224 33.404224 33.404224
21.504224 33.404224 36.379224
21.504224 36.379224 21.504224
21.504224 36.379224 27.454224000000004
27.454224000000004 12.579224000000002 15.554224000000001
24.479224000000002 15.554224000000001 15.554224000000001
27.454224000000004 15.554224000000001 18.529224
27.454224000000004 12.579224000000002 21.504224
24.479224000000002 15.554224000000001 21.504224
27.454224000000004 15.554224000000001 24.479224000000002
27.454224000000004 12.579224000000002 27.454224000000004
24.479224000000002 15.554224000000001 27.454224000000004
27.454224000000004 15.554224000000001 30.429224000000005
27.454224000000004 12.579224000000002 33.404224
24.479224000000002 15.554224000000001 33.404224
27.454224000000004 15.554224000000001 36.379224
27.454224000000004 21.504224 12.579224000000002
27.454224000000004 18.529224 15.554224000000001
24.479224000000002 21.504224 15.554224000000001
27.454224000000004 21.504224 18.529224
27.454224000000004 18.529224 21.504224
24.479224000000002 21.504224 21.504224
27.454224000000004 21.504224 24.479224000000002
27.454224000000004 18.529224 27.454224000000004
24.479224000000002 21.504224 27.454224000000004
27.454224000000004 21.504224 30.429224000000005
27.454224000000004 18.529224 33.404224
24.479224000000002 21.504224 33.404224
27.454224000000004 21.504224 36.379224
27.454224000000004 27.454224000000004 12.579224000000002
27.454224000000004 24.479224000000002 15.554224000000001
24.479224000000002 27.454224000000004 15.554224000000001
27.454224000000004 27.454224000000004 18.529224
27.454224000000004 24.479224000000002 21.504224
24.479224000000002 27.454224000000004 21.504224
27.454224000000004 27.454224000000004 24.479224000000002
27.454224000000004 24.479224000000002 27.454224000000004
24.479224000000002 27.454224000000004 27.454224000000004
27.454224000000004 27.454224000000004 30.429224000000005
27.454224000000004 24.479224000000002 33.404224
24.479224000000002 27.454224000000004 33.404224
27.454224000000004 30.429224000000005 15.554224000000001
24.479224000000002 33.404224 15.554224000000001
27.454224000000004 33.404224 18.529224
27.454224000000004 30.429224000000005 21.504224
24.479224000000002 33.404224 21.504224
27.454224000000004 33.404224 24.479224000000002
27.454224000000004 30.429224000000005 27.454224000000004
24.479224000000002 33.404224 27.454224000000004
27.454224000000004 33.404224 30.429224000000005
27.454224000000004 30.429224000000005 33.404224
24.479224000000002 33.404224 33.404224
27.454224000000004 36.379224 21.504224
27.454224000000004 36.379224 27.454224000000004
27.454224000000004 36.379224 33.404224
33.404224 15.554224000000001 12.579224000000002
33.404224 12.579224000000002 15.554224000000001
30.429224000000005 15.554224000000001 15.554224000000001
33.404224 15.554224000000001 18.529224
30.429224000000005 15.554224000000001 21.504224
33.404224 15.554224000000001 24.479224000000002
30.429224000000005 15.554224000000001 27.454224000000004
33.404224 15.554224000000001 30.429224000000005
30.429224000000005 15.554224000000001 33.404224
33.404224 15.554224000000001 36.379224
33.404224 21.504224 12.579224000000002
33.404224 18.529224 15.554224000000001
30.429224000000005 21.504224 15.554224000000001
33.404224 21.504224 18.529224
33.404224 18.529224 21.504224
30.429224000000005 21.504224 21.504224
33.404224 21.504224 24.479224000000002
33.404224 18.529224 27.454224000000004
30.429224000000005 21.504224 27.454224000000004
33.404224 21.504224 30.429224000000005
33.404224 18.529224 33.404224
30.429224000000005 21.504224 33.404224
33.404224 24.479224000000002 15.554224000000001
30.429224000000005 27.454224000000004 15.554224000000001
33.404224 27.454224000000004 18.529224
33.404224 24.479224000000002 21.504224
30.429224000000005 27.454224000000004 21.504224
33.404224 27.454224000000004 24.479224000000002
33.404224 24.479224000000002 27.454224000000004
30.429224000000005 27.454224000000004 27.454224000000004
33.404224 27.454224000000004 30.429224000000005
33.404224 24.479224000000002 33.404224
30.429224000000005 27.454224000000004 33.404224
33.404224 33.404224 12.579224000000002
33.404224 30.429224000000005 15.554224000000001
30.429224000000005 33.404224 15.554224000000001
33.404224 33.404224 18.529224
33.404224 30.429224000000005 21.504224
30.429224000000005 33.404224 21.504224
33.404224 33.404224 24.479224000000002
33.404224 30.429224000000005 27.454224000000004
30.429224000000005 33.404224 27.454224000000004
33.404224 33.404224 30.429224000000005
33.404224 30.429224000000005 33.404224
30.429224000000005 33.404224 33.404224
33.404224 36.379224 15.554224000000001
33.404224 36.379224 33.404224
36.379224 15.554224000000001 21.504224
36.379224 15.554224000000001 27.454224000000004
36.379224 15.554224000000001 33.404224
36.379224 21.504224 27.454224000000004
36.379224 27.454224000000004 15.554224000000001
36.379224 27.454224000000004 33.404224
36.379224 33.404224 15.554224000000001
36.379224 33.404224 21.504224
36.379224 33.404224 33.404224
29.066347 26.353933000000005 41.458448000000004
13.615816000000002 21.275852 41.458448000000004
26.555120000000002 35.136619 41.458448000000004
32.22497 31.848930000000003 41.458448000000004
13.604848000000002 15.651762000000002 41.458448000000004
31.639796000000004 22.338714000000003 41.458448000000004
34.806822000000004 26.096911000000006 41.458448000000004
25.730048000000004 32.489458 7.500000000000002
14.126797000000002 16.885401 7.500000000000002
17.424821 33.961400000000005 7.500000000000002
15.194282000000001 29.372562000000002 7.500000000000002
22.876604 14.166365 7.500000000000002
29.010460000000002 16.732235000000003 7.500000000000002
34.791957000000004 28.826732 7.500000000000002
7.500000000000002 16.170358 23.356239000000002
7.500000000000002 27.550649 29.403655
7.500000000000002 28.312549000000004 31.651267000000004
7.500000000000002 29.318659000000004 20.926761000000003
7.500000000000002 23.013778000000002 26.216959000000003
7.500000000000002 22.249812000000006 17.358019
7.500000000000002 23.171394 20.489274
41.458448000000004 22.570958000000005 31.769703
41.458448000000004 28.771356000000004 26.013827
41.458448000000004 20.378280000000004 17.148536
41.458448000000004 32.495953 29.181830000000005
41.458448000000004 17.375986000000005 14.853679000000001
41.458448000000004 19.557850000000002 21.649859
41.458448000000004 27.554099 19.554966
34.655478 7.500000000000002 20.006244000000002
31.536845 7.500000000000002 32.836356
22.463719000000005 7.500000000000002 23.203915000000002
16.592609000000003 7.500000000000002 23.1569
19.762292000000002 7.500000000000002 16.434708
22.261802000000003 7.500000000000002 35.203017
34.885932000000004 7.500000000000002 26.183744000000004
22.504632 41.458448000000004 17.23016
31.686190000000003 41.458448000000004 28.380474
13.888123000000002 41.458448000000004 28.470928
34.808934 41.458448000000004 22.859351000000004
16.589291000000003 41.458448000000004 13.899468000000002
29.282778 41.458448000000004 16.236844
19.570557 41.458448000000004 33.138687000000004
28.048191000000003 27.04981 40.02676400000001
28.369267 26.836201000000003 38.666546000000004
27.454224000000004 27.454224000000004 37.83208200000001
26.913541000000002 27.815778 40.208629
27.454224000000004 27.454224000000004 36.379224
14.840681000000002 21.419348 40.02676400000001
14.458250000000001 21.369694000000003 38.666546000000004
15.554224000000001 21.504224 37.83208200000001
16.199435 21.58645 40.208629
15.554224000000001 21.504224 36.379224
27.122499000000005 34.041646 40.02676400000001
26.940812 34.381805 38.666546000000004
27.454224000000004 33.404224 37.83208200000001
27.759306000000002 32.829782 40.208629
27.454224000000004 33.404224 36.379224
32.970715 32.831146000000004 40.02676400000001
32.741373 32.521113 38.666546000000004
33.404224 33.404224 37.83208200000001
33.79227 33.926219 40.208629
33.404224 33.404224 36.379224
14.836509000000001 15.589329000000001 40.02676400000001
14.451149000000003 15.604038000000001 38.666546000000004
15.554224000000001 15.554224000000001 37.83208200000001
16.204120000000003 15.527882000000002 40.208629
15.554224000000001 15.554224000000001 36.379224
32.754294 21.810719000000006 40.02676400000001
32.40375 21.971458000000005 38.666546000000004
33.404224 21.504224 37.83208200000001
33.994819 21.231724 40.208629
33.404224 21.504224 36.379224
33.921159 26.955099000000004 40.02676400000001
34.201442 26.690221 38.666546000000004
33.404224 27.454224000000004 37.83208200000001
32.932548000000004 27.902087 40.208629
33.404224 27.454224000000004 36.379224
26.81908 33.068158000000004 8.931684000000002
26.476300000000002 32.891465000000004 10.291902000000002
27.454224000000004 33.404224 11.126366
28.031660000000002 33.703602000000004 8.749819000000002
27.454224000000004 33.404224 12.579224000000002
15.029257000000001 16.044894 8.931684000000002
14.750359000000001 16.311230000000002 10.291902000000002
15.554224000000001 15.554224000000001 11.126366
16.025677 15.106127000000003 8.749819000000002
15.554224000000001 15.554224000000001 12.579224000000002
16.243126000000004 33.608581 8.931684000000002
16.613998000000002 33.714283 10.291902000000002
15.554224000000001 33.404224 11.126366
14.929126000000002 33.224469 8.749819000000002
15.554224000000001 33.404224 12.579224000000002
15.422500000000001 28.160621000000006 8.931684000000002
15.355876000000002 28.540463000000003 10.291902000000002
15.554224000000001 27.454224000000004 11.126366
15.668105000000002 26.813841000000004 8.749819000000002
15.554224000000001 27.454224000000004 12.579224000000002
22.008902 15.042709000000002 8.931684000000002
22.276792 14.765303000000001 10.291902000000002
21.504224 15.554224000000001 11.126366
21.051294000000002 16.021035 8.749819000000002
21.504224 15.554224000000001 12.579224000000002
28.027648 15.987274000000001 8.931684000000002
28.337865 16.216369 10.291902000000002
27.454224000000004 15.554224000000001 11.126366
26.931919 15.166595000000003 8.749819000000002
27.454224000000004 15.554224000000001 12.579224000000002
33.915693000000005 27.958949000000004 8.931684000000002
34.193074 28.226864000000006 10.291902000000002
33.404224 27.454224000000004 11.126366
32.937454 27.001251000000003 8.749819000000002
33.404224 27.454224000000004 12.579224000000002
8.931684000000002 15.781821000000003 22.185801000000005
10.291902000000002 15.907882000000003 22.550256000000005
11.126366 15.554224000000001 21.504224
8.749819000000002 15.343058000000001 20.889027000000002
12.579224000000002 15.554224000000001 21.504224
8.931684000000002 27.490527 28.17188
10.291902000000002 27.514139 28.556797000000003
11.126366 27.454224000000004 27.454224000000004
8.749819000000002 27.415932000000005 26.804922000000005
12.579224000000002 27.454224000000004 27.454224000000004
8.931684000000002 27.769499000000003 32.758508
10.291902000000002 27.934974000000004 32.410174000000005
11.126366 27.454224000000004 33.404224
8.749819000000002 27.173745000000004 33.991072
12.579224000000002 27.454224000000004 33.404224
8.931684000000002 28.140389000000006 21.290858
10.291902000000002 28.507388000000006 21.172408000000004
11.126366 27.454224000000004 21.504224
8.749819000000002 26.834766000000002 21.702543000000006
12.579224000000002 27.454224000000004 21.504224
8.931684000000002 22.059466 26.998094000000002
10.291902000000002 22.354808000000006 26.750120000000003
11.126366 21.504224 27.454224000000004
8.749819000000002 21.005107000000002 27.871287000000002
12.579224000000002 21.504224 27.454224000000004
8.931684000000002 21.779461000000005 16.217995000000002
10.291902000000002 21.930985 16.572621
11.126366 21.504224 15.554224000000001
8.749819000000002 21.250072000000003 14.955504000000001
12.579224000000002 21.504224 15.554224000000001
8.931684000000002 22.117585000000005 21.129876000000003
10.291902000000002 22.444587000000006 20.925455
11.126366 21.504224 21.504224
8.749819000000002 20.951883000000002 21.847703000000003
12.579224000000002 21.504224 21.504224
40.02676400000001 21.897623000000003 32.802905
38.666546000000004 22.112199000000004 32.482474
37.83208200000001 21.504224 33.404224
40.208629 21.143592000000005 33.945522000000004
36.379224 21.504224 33.404224
40.02676400000001 27.939729 26.924476000000006
38.666546000000004 28.203320000000005 26.642983
37.83208200000001 27.454224000000004 27.454224000000004
40.208629 27.010766000000004 27.930043000000005
36.379224 27.454224000000004 27.454224000000004
40.02676400000001 21.089043000000004 16.140716
38.666546000000004 20.862863000000004 16.453064
37.83208200000001 21.504224 15.554224000000001
40.208629 21.884459 15.026512000000002
36.379224 21.504224 15.554224000000001
40.02676400000001 33.069126000000004 28.089879000000003
38.666546000000004 32.885639000000005 28.429071
37.83208200000001 33.404224 27.454224000000004
40.208629 33.712346000000004 26.881407000000003
36.379224 33.404224 27.454224000000004
40.02676400000001 16.225206 15.297065000000002
38.666546000000004 16.586765 15.162924000000002
37.83208200000001 15.554224000000001 15.554224000000001
40.208629 14.944947 15.781908000000001
36.379224 15.554224000000001 15.554224000000001
40.02676400000001 20.787594000000002 21.557038000000006
38.666546000000004 20.402715 21.581256000000003
37.83208200000001 21.504224 21.504224
40.208629 22.153272 21.461845000000004
36.379224 21.504224 21.504224
40.02676400000001 27.491797000000005 20.786633000000002
38.666546000000004 27.516090000000005 20.401759000000002
37.83208200000001 27.454224000000004 21.504224
40.208629 27.414783 22.153457000000003
36.379224 27.454224000000004 21.504224
33.865499 8.931684000000002 20.953249
34.11621 10.291902000000002 20.660226
33.404224 11.126366 21.504224
32.982536 8.749819000000002 21.999439000000002
33.404224 12.579224000000002 21.504224
32.71697 8.931684000000002 33.19439
32.349367 10.291902000000002 33.077828000000004
33.404224 11.126366 33.404224
34.024694000000004 8.749819000000002 33.599355
33.404224 12.579224000000002 33.404224
21.856767000000005 8.931684000000002 22.130372
22.042354000000003 10.291902000000002 22.468419000000004
21.504224 11.126366 21.504224
21.189864 8.749819000000002 20.934806000000002
21.504224 12.579224000000002 21.504224
15.935830000000001 8.931684000000002 22.113095
16.137114000000004 10.291902000000002 22.442039
15.554224000000001 11.126366 21.504224
15.213427000000001 8.749819000000002 20.950223
15.554224000000001 12.579224000000002 21.504224
20.862557000000002 8.931684000000002 15.877661000000002
20.516349 10.291902000000002 16.04754
21.504224 11.126366 15.554224000000001
22.087468 8.749819000000002 15.266327000000002
21.504224 12.579224000000002 15.554224000000001
21.782389000000002 8.931684000000002 34.066774
21.927852 10.291902000000002 34.423928000000004
21.504224 11.126366 33.404224
21.257462000000004 8.749819000000002 32.802420000000005
21.504224 12.579224000000002 33.404224
33.950248 8.931684000000002 26.987099
34.245957000000004 10.291902000000002 26.739562
33.404224 11.126366 27.454224000000004
32.906461 8.749819000000002 27.872902000000003
33.404224 12.579224000000002 27.454224000000004
21.873222000000005 40.02676400000001 16.170818000000004
22.074791000000005 38.666546000000004 16.499587000000002
21.504224 37.83208200000001 15.554224000000001
21.165563000000006 40.208629 14.998916000000001
21.504224 36.379224 15.554224000000001
32.772101 40.02676400000001 27.795937000000002
32.434842 38.666546000000004 27.982953000000002
33.404224 37.83208200000001 27.454224000000004
33.973795 40.208629 27.140141
33.404224 36.379224 27.454224000000004
14.941257000000002 40.02676400000001 27.829217
14.614470000000003 38.666546000000004 28.033982
15.554224000000001 37.83208200000001 27.454224000000004
16.106204 40.208629 27.110164000000005
15.554224000000001 36.379224 27.454224000000004
33.921936 40.02676400000001 22.002544
34.20263 38.666546000000004 22.266985000000005
33.404224 37.83208200000001 21.504224
32.931852 40.208629 21.057096
33.404224 36.379224 21.504224
15.934608000000003 40.02676400000001 14.944588000000001
16.135231000000005 38.666546000000004 14.615242000000002
15.554224000000001 37.83208200000001 15.554224000000001
15.214540000000001 40.208629 16.108907000000002
15.554224000000001 36.379224 15.554224000000001
28.127699 40.02676400000001 15.804781000000002
28.490558 38.666546000000004 15.935365000000003
27.454224000000004 37.83208200000001 15.554224000000001
26.84274 40.208629 15.332534
27.454224000000004 36.379224 15.554224000000001
20.792222000000002 40.02676400000001 33.307262
20.409573 38.666546000000004 33.259325000000004
21.504224 37.83208200000001 33.404224
22.149417 40.208629 33.486598
21.504224 36.379224 33.404224
24.479224000000002 37.42267400000001 37.42267400000001
30.429224000000005 24.479224000000002 37.854885
24.479224000000002 24.479224000000002 37.854885
11.535774000000002 37.42267400000001 18.529224
24.479224000000002 11.535774000000002 11.535774000000002
37.854885 24.479224000000002 18.529224
30.429224000000005 30.429224000000005 11.103563000000001
24.479224000000002 30.429224000000005 37.854885
24.479224000000002 11.103563000000001 30.429224000000005
11.103563000000001 18.529224 30.429224000000005
37.42267400000001 37.42267400000001 24.479224000000002
11.103563000000001 24.479224000000002 30.429224000000005
24.479224000000002 11.535774000000002 37.42267400000001
37.854885 30.429224000000005 24.479224000000002
30.429224000000005 18.529224 37.854885
37.42267400000001 11.535774000000002 18.529224
24.479224000000002 37.854885 24.479224000000002
37.42267400000001 11.535774000000002 30.429224000000005
37.854885 24.479224000000002 24.479224000000002
11.535774000000002 11.535774000000002 24.479224000000002
24.479224000000002 30.429224000000005 11.103563000000001
18.529224 30.429224000000005 37.854885
24.479224000000002 11.103563000000001 18.529224
11.103563000000001 18.529224 24.479224000000002
37.42267400000001 18.529224 37.42267400000001
11.103563000000001 30.429224000000005 24.479224000000002
18.529224 11.103563000000001 24.479224000000002
18.529224 11.103563000000001 30.429224000000005
37.42267400000001 18.529224 11.535774000000002
24.479224000000002 18.529224 11.103563000000001
11.535774000000002 30.429224000000005 37.42267400000001
24.479224000000002 11.103563000000001 24.479224000000002
18.529224 37.854885 30.429224000000005
37.42267400000001 37.42267400000001 18.529224
12.579224000000002 12.579224000000002 18.529224
12.579224000000002 12.579224000000002 30.429224000000005
12.579224000000002 18.529224 12.579224000000002
12.579224000000002 18.529224 18.529224
12.579224000000002 18.529224 36.379224
12.579224000000002 24.479224000000002 18.529224
12.579224000000002 24.479224000000002 24.479224000000002
12.579224000000002 24.479224000000002 36.379224
12.579224000000002 30.429224000000005 12.579224000000002
12.579224000000002 30.429224000000005 18.529224
12.579224000000002 30.429224000000005 30.429224000000005
12.579224000000002 36.379224 24.479224000000002
12.579224000000002 36.379224 30.429224000000005
18.529224 12.579224000000002 12.579224000000002
18.529224 12.579224000000002 18.529224
18.529224 12.579224000000002 36.379224
18.529224 18.529224 12.579224000000002
18.529224 18.529224 18.529224
18.529224 18.529224 24.479224000000002
18.529224 18.529224 30.429224000000005
18.529224 18.529224 36.379224
18.529224 24.479224000000002 18.529224
18.529224 24.479224000000002 24.479224000000002
18.529224 24.479224000000002 30.429224000000005
18.529224 24.479224000000002 36.379224
18.529224 30.429224000000005 12.579224000000002
18.529224 30.429224000000005 18.529224
18.529224 30.429224000000005 24.479224000000002
18.529224 30.429224000000005 30.429224000000005
18.529224 36.379224 12.579224000000002
18.529224 36.379224 18.529224
18.529224 36.379224 24.479224000000002
18.529224 36.379224 36.379224
24.479224000000002 18.529224 18.529224
24.479224000000002 18.529224 24.479224000000002
24.479224000000002 18.529224 30.429224000000005
24.479224000000002 18.529224 36.379224
24.479224000000002 24.479224000000002 12.579224000000002
24.479224000000002 24.479224000000002 18.529224
24.479224000000002 24.479224000000002 24.479224000000002
24.479224000000002 24.479224000000002 30.429224000000005
24.479224000000002 30.429224000000005 18.529224
24.479224000000002 30.429224000000005 24.479224000000002
24.479224000000002 30.429224000000005 30.429224000000005
24.479224000000002 36.379224 12.579224000000002
24.479224000000002 36.379224 18.529224
24.479224000000002 36.379224 30.429224000000005
30.429224000000005 12.579224000000002 12.579224000000002
30.429224000000005 12.579224000000002 18.529224
30.429224000000005 12.579224000000002 24.479224000000002
30.429224000000005 12.579224000000002 30.429224000000005
30.429224000000005 12.579224000000002 36.379224
30.429224000000005 18.529224 18.529224
30.429224000000005 18.529224 24.479224000000002
30.429224000000005 18.529224 30.429224000000005
30.429224000000005 24.479224000000002 12.579224000000002
30.429224000000005 24.479224000000002 18.529224
30.429224000000005 24.479224000000002 24.479224000000002
30.429224000000005 24.479224000000002 30.429224000000005
30.429224000000005 30.429224000000005 18.529224
30.429224000000005 30.429224000000005 24.479224000000002
30.429224000000005 30.429224000000005 30.429224000000005
30.429224000000005 30.429224000000005 36.379224
30.429224000000005 36.379224 12.579224000000002
30.429224000000005 36.379224 18.529224
30.429224000000005 36.379224 24.479224000000002
30.429224000000005 36.379224 30.429224000000005
30.429224000000005 36.379224 36.379224
36.379224 18.529224 18.529224
36.379224 18.529224 24.479224000000002
36.379224 18.529224 30.429224000000005
36.379224 24.479224000000002 12.579224000000002
36.379224 24.479224000000002 30.429224000000005
36.379224 24.479224000000002 36.379224
36.379224 30.429224000000005 12.579224000000002
36.379224 30.429224000000005 30.429224000000005
36.379224 30.429224000000005 36.379224
36.379224 36.379224 30.429224000000005
26.460936000000004 28.121513 41.148686000000005
29.221768000000004 26.260456000000005 38.310323000000004
16.741563 21.652959000000003 41.148686000000005
13.437210000000002 21.244331000000003 38.310323000000004
28.013232000000002 32.346205000000005 41.148686000000005
26.462475000000005 35.292537 38.310323000000004
34.120178 34.363028 41.148686000000005
32.123864000000005 31.69836 38.310323000000004
16.749754000000003 15.503205000000001 41.148686000000005
13.423487000000002 15.650416000000002 38.310323000000004
34.489688 21.000574 41.148686000000005
31.471663 22.406721000000005 38.310323000000004
32.53823 28.280027000000004 41.148686000000005
34.944177 25.978474000000006 38.310323000000004
28.515372 33.95727 7.809762000000002
25.565221 32.413789 10.648125000000002
16.423333 14.731700000000002 7.809762000000002
14.001474000000002 17.016503 10.648125000000002
14.404920000000002 33.071063 7.809762000000002
17.601325000000003 34.003114000000004 10.648125000000002
15.766253 26.276540000000004 7.809762000000002
15.171119000000003 29.552443000000004 10.648125000000002
20.669117 16.411249 7.809762000000002
22.996518000000002 14.030298000000002 10.648125000000002
26.494848000000005 14.839036000000002 7.809762000000002
29.161111 16.833219 10.648125000000002
32.547275 26.619039 7.809762000000002
34.928013 28.946658 10.648125000000002
7.809762000000002 15.168155000000002 20.371596000000004
10.648125000000002 16.23739 23.524763
7.809762000000002 27.386331000000006 26.259533000000005
10.648125000000002 27.569988000000002 29.583987
7.809762000000002 26.93591 34.482763
10.648125000000002 28.382828000000003 31.484071
7.809762000000002 26.313808 21.866641
10.648125000000002 29.488541000000005 20.863249000000003
7.809762000000002 20.584343000000004 28.219544
10.648125000000002 23.147221000000002 26.09413
7.809762000000002 21.039009 14.451740000000003
10.648125000000002 22.328597000000002 17.52138
7.809762000000002 20.486713 22.133960000000002
10.648125000000002 23.320644 20.386229
41.148686000000005 20.842888000000002 34.401485
38.310323000000004 22.678633000000005 31.623759
41.148686000000005 26.640253 28.331348000000006
38.310323000000004 28.901224 25.887226000000005
41.148686000000005 22.201678 14.581880000000002
38.310323000000004 20.265327 17.290434000000005
41.148686000000005 33.968831 26.399182000000003
38.310323000000004 32.402482 29.337255
41.148686000000005 14.434214000000003 15.975499000000001
38.310323000000004 17.548724 14.798404000000001
41.148686000000005 22.698130000000006 21.423705000000005
38.310323000000004 19.376511 21.652992000000005
41.148686000000005 27.384217 22.698793000000002
38.310323000000004 27.573758000000005 19.374669000000004
32.630381 7.809762000000002 22.416946000000003
34.779542 10.648125000000002 19.87395
34.546489 7.809762000000002 33.760772
31.366638000000002 10.648125000000002 32.773719
20.923646 7.809762000000002 20.457885000000005
22.543667 10.648125000000002 23.366709
14.925070000000002 7.809762000000002 20.486353
16.680126 10.648125000000002 23.315753
22.576104 7.809762000000002 15.022275000000002
19.596000000000004 10.648125000000002 16.507101000000002
21.047881000000004 7.809762000000002 32.298038
22.322490000000002 10.648125000000002 35.373928
32.490122 7.809762000000002 28.226437000000004
35.030163 10.648125000000002 26.073783000000006
20.883363000000003 41.148686000000005 14.531273000000002