3_train/259_cspbbr3_MA-1T_4_0.20\259_cspbbr3_MA-1T_4_0.20.xyz
1.0
45.990402 0 0
0 45.990402 0
0 0 45.990402
Br C Cs H N Pb S 
216 113 95 198 17 64 24 
Cartesian
14.070200999999999 14.070200999999999 11.095201
14.070200999999999 11.095201 14.070200999999999
14.070200999999999 14.070200999999999 17.045201
14.070200999999999 11.095201 20.020201
11.095201 14.070200999999999 20.020201
14.070200999999999 14.070200999999999 22.995200999999998
14.070200999999999 11.095201 25.970201
11.095201 14.070200999999999 25.970201
14.070200999999999 14.070200999999999 28.945201
14.070200999999999 11.095201 31.920201
11.095201 14.070200999999999 31.920201
14.070200999999999 14.070200999999999 34.895201
14.070200999999999 20.020201 11.095201
14.070200999999999 17.045201 14.070200999999999
14.070200999999999 20.020201 17.045201
14.070200999999999 17.045201 20.020201
11.095201 20.020201 20.020201
14.070200999999999 20.020201 22.995200999999998
14.070200999999999 17.045201 25.970201
11.095201 20.020201 25.970201
14.070200999999999 20.020201 28.945201
14.070200999999999 17.045201 31.920201
11.095201 20.020201 31.920201
14.070200999999999 20.020201 34.895201
14.070200999999999 22.995200999999998 14.070200999999999
11.095201 25.970201 14.070200999999999
14.070200999999999 25.970201 17.045201
14.070200999999999 22.995200999999998 20.020201
11.095201 25.970201 20.020201
14.070200999999999 25.970201 22.995200999999998
14.070200999999999 22.995200999999998 25.970201
11.095201 25.970201 25.970201
14.070200999999999 25.970201 28.945201
14.070200999999999 22.995200999999998 31.920201
11.095201 25.970201 31.920201
14.070200999999999 25.970201 34.895201
14.070200999999999 31.920201 11.095201
14.070200999999999 28.945201 14.070200999999999
11.095201 31.920201 14.070200999999999
14.070200999999999 31.920201 17.045201
14.070200999999999 28.945201 20.020201
14.070200999999999 31.920201 22.995200999999998
14.070200999999999 28.945201 25.970201
14.070200999999999 31.920201 28.945201
14.070200999999999 28.945201 31.920201
11.095201 31.920201 31.920201
14.070200999999999 31.920201 34.895201
14.070200999999999 34.895201 14.070200999999999
14.070200999999999 34.895201 20.020201
14.070200999999999 34.895201 25.970201
20.020201 14.070200999999999 11.095201
20.020201 11.095201 14.070200999999999
17.045201 14.070200999999999 14.070200999999999
20.020201 14.070200999999999 17.045201
20.020201 11.095201 20.020201
17.045201 14.070200999999999 20.020201
20.020201 14.070200999999999 22.995200999999998
17.045201 14.070200999999999 25.970201
20.020201 14.070200999999999 28.945201
17.045201 14.070200999999999 31.920201
20.020201 14.070200999999999 34.895201
20.020201 20.020201 11.095201
20.020201 17.045201 14.070200999999999
17.045201 20.020201 14.070200999999999
20.020201 20.020201 17.045201
20.020201 17.045201 20.020201
17.045201 20.020201 20.020201
20.020201 20.020201 22.995200999999998
20.020201 17.045201 25.970201
17.045201 20.020201 25.970201
20.020201 20.020201 28.945201
20.020201 17.045201 31.920201
17.045201 20.020201 31.920201
20.020201 20.020201 34.895201
20.020201 22.995200999999998 14.070200999999999
17.045201 25.970201 14.070200999999999
20.020201 25.970201 17.045201
20.020201 22.995200999999998 20.020201
17.045201 25.970201 20.020201
20.020201 25.970201 22.995200999999998
20.020201 22.995200999999998 25.970201
17.045201 25.970201 25.970201
20.020201 25.970201 28.945201
20.020201 22.995200999999998 31.920201
17.045201 25.970201 31.920201
20.020201 28.945201 14.070200999999999
17.045201 31.920201 14.070200999999999
20.020201 31.920201 17.045201
20.020201 28.945201 20.020201
17.045201 31.920201 20.020201
20.020201 31.920201 22.995200999999998
20.020201 28.945201 25.970201
17.045201 31.920201 25.970201
20.020201 31.920201 28.945201
20.020201 28.945201 31.920201
17.045201 31.920201 31.920201
20.020201 34.895201 14.070200999999999
20.020201 34.895201 20.020201
20.020201 34.895201 25.970201
25.970201 14.070200999999999 11.095201
25.970201 11.095201 14.070200999999999
22.995200999999998 14.070200999999999 14.070200999999999
25.970201 14.070200999999999 17.045201
25.970201 11.095201 20.020201
22.995200999999998 14.070200999999999 20.020201
25.970201 14.070200999999999 22.995200999999998
25.970201 11.095201 25.970201
22.995200999999998 14.070200999999999 25.970201
25.970201 14.070200999999999 28.945201
22.995200999999998 14.070200999999999 31.920201
25.970201 14.070200999999999 34.895201
25.970201 20.020201 11.095201
25.970201 17.045201 14.070200999999999
22.995200999999998 20.020201 14.070200999999999
25.970201 20.020201 17.045201
25.970201 17.045201 20.020201
22.995200999999998 20.020201 20.020201
25.970201 20.020201 22.995200999999998
25.970201 17.045201 25.970201
22.995200999999998 20.020201 25.970201
25.970201 20.020201 28.945201
25.970201 17.045201 31.920201
22.995200999999998 20.020201 31.920201
25.970201 20.020201 34.895201
25.970201 22.995200999999998 14.070200999999999
22.995200999999998 25.970201 14.070200999999999
25.970201 25.970201 17.045201
25.970201 22.995200999999998 20.020201
22.995200999999998 25.970201 20.020201
25.970201 25.970201 22.995200999999998
25.970201 22.995200999999998 25.970201
22.995200999999998 25.970201 25.970201
25.970201 25.970201 28.945201
25.970201 22.995200999999998 31.920201
22.995200999999998 25.970201 31.920201
25.970201 25.970201 34.895201
25.970201 31.920201 11.095201
25.970201 28.945201 14.070200999999999
22.995200999999998 31.920201 14.070200999999999
25.970201 31.920201 17.045201
25.970201 28.945201 20.020201
22.995200999999998 31.920201 20.020201
25.970201 31.920201 22.995200999999998
25.970201 28.945201 25.970201
22.995200999999998 31.920201 25.970201
25.970201 31.920201 28.945201
25.970201 28.945201 31.920201
22.995200999999998 31.920201 31.920201
25.970201 31.920201 34.895201
25.970201 34.895201 14.070200999999999
25.970201 34.895201 20.020201
25.970201 34.895201 31.920201
31.920201 14.070200999999999 11.095201
31.920201 11.095201 14.070200999999999
28.945201 14.070200999999999 14.070200999999999
31.920201 14.070200999999999 17.045201
28.945201 14.070200999999999 20.020201
31.920201 14.070200999999999 22.995200999999998
31.920201 11.095201 25.970201
28.945201 14.070200999999999 25.970201
31.920201 14.070200999999999 28.945201
31.920201 11.095201 31.920201
28.945201 14.070200999999999 31.920201
31.920201 20.020201 11.095201
31.920201 17.045201 14.070200999999999
28.945201 20.020201 14.070200999999999
31.920201 20.020201 17.045201
31.920201 17.045201 20.020201
28.945201 20.020201 20.020201
31.920201 20.020201 22.995200999999998
31.920201 17.045201 25.970201
28.945201 20.020201 25.970201
31.920201 20.020201 28.945201
31.920201 17.045201 31.920201
28.945201 20.020201 31.920201
31.920201 25.970201 11.095201
31.920201 22.995200999999998 14.070200999999999
28.945201 25.970201 14.070200999999999
31.920201 25.970201 17.045201
31.920201 22.995200999999998 20.020201
28.945201 25.970201 20.020201
31.920201 25.970201 22.995200999999998
31.920201 22.995200999999998 25.970201
28.945201 25.970201 25.970201
31.920201 25.970201 28.945201
31.920201 22.995200999999998 31.920201
28.945201 25.970201 31.920201
31.920201 25.970201 34.895201
31.920201 31.920201 11.095201
31.920201 28.945201 14.070200999999999
28.945201 31.920201 14.070200999999999
31.920201 31.920201 17.045201
31.920201 28.945201 20.020201
28.945201 31.920201 20.020201
31.920201 31.920201 22.995200999999998
31.920201 28.945201 25.970201
28.945201 31.920201 25.970201
31.920201 31.920201 28.945201
31.920201 28.945201 31.920201
28.945201 31.920201 31.920201
31.920201 31.920201 34.895201
31.920201 34.895201 14.070200999999999
31.920201 34.895201 20.020201
31.920201 34.895201 25.970201
34.895201 14.070200999999999 20.020201
34.895201 14.070200999999999 31.920201
34.895201 20.020201 14.070200999999999
34.895201 20.020201 20.020201
34.895201 20.020201 25.970201
34.895201 20.020201 31.920201
34.895201 25.970201 14.070200999999999
34.895201 25.970201 20.020201
34.895201 25.970201 25.970201
34.895201 31.920201 14.070200999999999
34.895201 31.920201 20.020201
34.895201 31.920201 25.970201
31.920201 20.020201 37.454766000000006
31.92149 21.387221999999998 37.059324000000004
31.9228 21.537864 35.691304
31.919052 19.162204 36.378716
20.020201 25.970201 37.454766000000006
20.02149 27.337222 37.059324000000004
20.0228 27.487864 35.691304
20.019052 25.112204000000002 36.378716
20.020201 31.920201 37.454766000000006
20.02149 33.287222 37.059324000000004
20.0228 33.437864000000005 35.691304
20.019052 31.062203999999998 36.378716
31.920201 14.070200999999999 37.454766000000006
31.92149 15.437221999999998 37.059324000000004
31.9228 15.587864 35.691304
31.919052 13.212204 36.378716
20.020201 25.970201 8.535636
20.018912 27.337222 8.931078
20.017602 27.487864 10.299097999999999
20.02135 25.112204000000002 9.611685999999999
14.070200999999999 25.970201 8.535636
14.068912 27.337222 8.931078
14.067601999999999 27.487864 10.299097999999999
14.071349999999999 25.112204000000002 9.611685999999999
20.020201 31.920201 8.535636
20.018912 33.287222 8.931078
20.017602 33.437864000000005 10.299097999999999
20.02135 31.062203999999998 9.611685999999999
25.970201 25.970201 8.535636
25.968912 27.337222 8.931078
25.967602 27.487864 10.299097999999999
25.971349999999997 25.112204000000002 9.611685999999999
8.535636 31.920201 20.020201
8.931078 33.287222 20.02149
10.299097999999999 33.437864000000005 20.0228
9.611685999999999 31.062203999999998 20.019052
8.535636 20.020201 14.070200999999999
8.931078 21.387221999999998 14.071489999999999
10.299097999999999 21.537864 14.072799999999999
9.611685999999999 19.162204 14.069052
8.535636 31.920201 25.970201
8.931078 33.287222 25.97149
10.299097999999999 33.437864000000005 25.9728
9.611685999999999 31.062203999999998 25.969052
8.535636 14.070200999999999 14.070200999999999
8.931078 15.437221999999998 14.071489999999999
10.299097999999999 15.587864 14.072799999999999
9.611685999999999 13.212204 14.069052
37.454766000000006 14.070200999999999 14.070200999999999
37.059324000000004 15.437221999999998 14.068912
35.691304 15.587864 14.067601999999999
36.378716 13.212204 14.071349999999999
37.454766000000006 25.970201 31.920201
37.059324000000004 27.337222 31.918912
35.691304 27.487864 31.917602
36.378716 25.112204000000002 31.92135
37.454766000000006 31.920201 31.920201
37.059324000000004 33.287222 31.918912
35.691304 33.437864000000005 31.917602
36.378716 31.062203999999998 31.92135
37.454766000000006 14.070200999999999 25.970201
37.059324000000004 15.437221999999998 25.968912
35.691304 15.587864 25.967602
36.378716 13.212204 25.971349999999997
31.920201 8.535636 20.020201
31.92149 8.931078 21.387221999999998
31.9228 10.299097999999999 21.537864
31.919052 9.611685999999999 19.162204
20.020201 8.535636 25.970201
20.02149 8.931078 27.337222
20.0228 10.299097999999999 27.487864
20.019052 9.611685999999999 25.112204000000002
25.970201 8.535636 31.920201
25.97149 8.931078 33.287222
25.9728 10.299097999999999 33.437864000000005
25.969052 9.611685999999999 31.062203999999998
20.020201 8.535636 31.920201
20.02149 8.931078 33.287222
20.0228 10.299097999999999 33.437864000000005
20.019052 9.611685999999999 31.062203999999998
31.920201 37.454766000000006 31.920201
31.92149 37.059324000000004 30.55318
31.9228 35.691304 30.402538
31.919052 36.378716 32.778198
20.020201 37.454766000000006 31.920201
20.02149 37.059324000000004 30.55318
20.0228 35.691304 30.402538
20.019052 36.378716 32.778198
25.970201 37.454766000000006 25.970201
25.97149 37.059324000000004 24.60318
25.9728 35.691304 24.452538
25.969052 36.378716 26.828197999999997
14.070200999999999 37.454766000000006 31.920201
14.071489999999999 37.059324000000004 30.55318
14.072799999999999 35.691304 30.402538
14.069052 36.378716 32.778198
35.93865100000001 22.995200999999998 35.93865100000001
9.61954 22.995200999999998 17.045201
22.995200999999998 17.045201 36.370862
35.93865100000001 28.945201 35.93865100000001
9.61954 28.945201 28.945201
10.051751 17.045201 35.93865100000001
10.051751 22.995200999999998 35.93865100000001
28.945201 28.945201 36.370862
22.995200999999998 28.945201 9.61954
9.61954 17.045201 17.045201
17.045201 36.370862 17.045201
36.370862 22.995200999999998 22.995200999999998
17.045201 36.370862 28.945201
22.995200999999998 28.945201 36.370862
17.045201 22.995200999999998 36.370862
28.945201 9.61954 17.045201
10.051751 28.945201 35.93865100000001
11.095201 11.095201 17.045201
11.095201 11.095201 22.995200999999998
11.095201 11.095201 28.945201
11.095201 17.045201 11.095201
11.095201 17.045201 22.995200999999998
11.095201 17.045201 28.945201
11.095201 22.995200999999998 11.095201
11.095201 22.995200999999998 22.995200999999998
11.095201 22.995200999999998 28.945201
11.095201 28.945201 11.095201
11.095201 28.945201 17.045201
11.095201 28.945201 22.995200999999998
11.095201 34.895201 17.045201
11.095201 34.895201 22.995200999999998
17.045201 11.095201 11.095201
17.045201 11.095201 22.995200999999998
17.045201 11.095201 34.895201
17.045201 17.045201 11.095201
17.045201 17.045201 17.045201
17.045201 17.045201 22.995200999999998
17.045201 17.045201 28.945201
17.045201 17.045201 34.895201
17.045201 22.995200999999998 11.095201
17.045201 22.995200999999998 17.045201
17.045201 22.995200999999998 22.995200999999998
17.045201 22.995200999999998 28.945201
17.045201 28.945201 11.095201
17.045201 28.945201 17.045201
17.045201 28.945201 22.995200999999998
17.045201 28.945201 28.945201
17.045201 28.945201 34.895201
17.045201 34.895201 11.095201
17.045201 34.895201 22.995200999999998
17.045201 34.895201 34.895201
22.995200999999998 11.095201 11.095201
22.995200999999998 11.095201 22.995200999999998
22.995200999999998 11.095201 28.945201
22.995200999999998 11.095201 34.895201
22.995200999999998 17.045201 11.095201
22.995200999999998 17.045201 17.045201
22.995200999999998 17.045201 22.995200999999998
22.995200999999998 17.045201 28.945201
22.995200999999998 22.995200999999998 11.095201
22.995200999999998 22.995200999999998 17.045201
22.995200999999998 22.995200999999998 22.995200999999998
22.995200999999998 22.995200999999998 28.945201
22.995200999999998 22.995200999999998 34.895201
22.995200999999998 28.945201 17.045201
22.995200999999998 28.945201 22.995200999999998
22.995200999999998 28.945201 28.945201
22.995200999999998 34.895201 11.095201
22.995200999999998 34.895201 17.045201
22.995200999999998 34.895201 22.995200999999998
22.995200999999998 34.895201 28.945201
22.995200999999998 34.895201 34.895201
28.945201 11.095201 11.095201
28.945201 11.095201 22.995200999999998
28.945201 11.095201 28.945201
28.945201 11.095201 34.895201
28.945201 17.045201 11.095201
28.945201 17.045201 17.045201
28.945201 17.045201 22.995200999999998
28.945201 17.045201 28.945201
28.945201 17.045201 34.895201
28.945201 22.995200999999998 11.095201
28.945201 22.995200999999998 17.045201
28.945201 22.995200999999998 22.995200999999998
28.945201 22.995200999999998 28.945201
28.945201 22.995200999999998 34.895201
28.945201 28.945201 11.095201
28.945201 28.945201 17.045201
28.945201 28.945201 22.995200999999998
28.945201 28.945201 28.945201
28.945201 34.895201 17.045201
28.945201 34.895201 22.995200999999998
28.945201 34.895201 28.945201
28.945201 34.895201 34.895201
34.895201 11.095201 17.045201
34.895201 11.095201 22.995200999999998
34.895201 11.095201 28.945201
34.895201 17.045201 11.095201
34.895201 17.045201 17.045201
34.895201 17.045201 22.995200999999998
34.895201 17.045201 28.945201
34.895201 17.045201 34.895201
34.895201 22.995200999999998 11.095201
34.895201 22.995200999999998 17.045201
34.895201 22.995200999999998 28.945201
34.895201 28.945201 11.095201
34.895201 28.945201 17.045201
34.895201 28.945201 22.995200999999998
34.895201 28.945201 28.945201
34.895201 34.895201 17.045201
34.895201 34.895201 22.995200999999998
34.895201 34.895201 28.945201
31.92065 22.226606 37.754361
31.92858 22.456025 35.110582
31.921635 19.681026 38.490402
31.918435 18.075781 36.378451
20.02065 28.176606 37.754361
20.02858 28.406025 35.110582
20.021635 25.631026000000002 38.490402
20.018435 24.025781 36.378451
20.02065 34.126605999999995 37.754361
20.02858 34.356025 35.110582
20.021635 31.581025999999998 38.490402
20.018435 29.975780999999998 36.378451
31.92065 16.276606 37.754361
31.92858 16.506025 35.110582
31.921635 13.731026 38.490402
31.918435 12.125781 36.378451
20.019752 28.176606 8.236041
20.011822 28.406025 10.879819999999999
20.018767 25.631026000000002 7.5
20.021967 24.025781 9.611951
14.069752 28.176606 8.236041
14.061822 28.406025 10.879819999999999
14.068767 25.631026000000002 7.5
14.071966999999999 24.025781 9.611951
20.019752 34.126605999999995 8.236041
20.011822 34.356025 10.879819999999999
20.018767 31.581025999999998 7.5
20.021967 29.975780999999998 9.611951
25.969752 28.176606 8.236041
25.961822 28.406025 10.879819999999999
25.968767 25.631026000000002 7.5
25.971967 24.025781 9.611951
8.236041 34.126605999999995 20.02065
10.879819999999999 34.356025 20.02858
7.5 31.581025999999998 20.021635
9.611951 29.975780999999998 20.018435
8.236041 22.226606 14.070649999999999
10.879819999999999 22.456025 14.078579999999999
7.5 19.681026 14.071634999999999
9.611951 18.075781 14.068435
8.236041 34.126605999999995 25.97065
10.879819999999999 34.356025 25.978579999999997
7.5 31.581025999999998 25.971635
9.611951 29.975780999999998 25.968435
8.236041 16.276606 14.070649999999999
10.879819999999999 16.506025 14.078579999999999
7.5 13.731026 14.071634999999999
9.611951 12.125781 14.068435
37.754361 16.276606 14.069752
35.110582 16.506025 14.061822
38.490402 13.731026 14.068767
36.378451 12.125781 14.071966999999999
37.754361 28.176606 31.919752
35.110582 28.406025 31.911822
38.490402 25.631026000000002 31.918767
36.378451 24.025781 31.921967
37.754361 34.126605999999995 31.919752
35.110582 34.356025 31.911822
38.490402 31.581025999999998 31.918767
36.378451 29.975780999999998 31.921967
37.754361 16.276606 25.969752
35.110582 16.506025 25.961822
38.490402 13.731026 25.968767
36.378451 12.125781 25.971967
31.92065 8.236041 22.226606
31.92858 10.879819999999999 22.456025
31.921635 7.5 19.681026
31.918435 9.611951 18.075781
20.02065 8.236041 28.176606
20.02858 10.879819999999999 28.406025
20.021635 7.5 25.631026000000002
20.018435 9.611951 24.025781
25.97065 8.236041 34.126605999999995
25.978579999999997 10.879819999999999 34.356025
25.971635 7.5 31.581025999999998
25.968435 9.611951 29.975780999999998
20.02065 8.236041 34.126605999999995
20.02858 10.879819999999999 34.356025
20.021635 7.5 31.581025999999998
20.018435 9.611951 29.975780999999998
31.92065 37.754361 29.713796
31.92858 35.110582 29.484377
31.921635 38.490402 32.259376
31.918435 36.378451 33.864621
20.02065 37.754361 29.713796
20.02858 35.110582 29.484377
20.021635 38.490402 32.259376
20.018435 36.378451 33.864621
25.97065 37.754361 23.763796
25.978579999999997 35.110582 23.534377
25.971635 38.490402 26.309375999999997
25.968435 36.378451 27.914621
14.070649999999999 37.754361 29.713796
14.078579999999999 35.110582 29.484377
14.071634999999999 38.490402 32.259376
14.068435 36.378451 33.864621
35.814336999999995 22.089495 36.5352
36.909614000000005 23.006617 35.439923
35.800354999999996 23.88949 36.549182
34.962394 23.829904 34.298043
33.952981 22.984679 35.307455000000004
34.97528 22.171018999999998 34.285157
9.285619 22.089495 16.535474
9.285619 23.006617 18.084429
9.285619 23.88949 16.5157
11.469943 23.829904 17.514968
11.469943 22.984679 16.087443
11.469943 22.171018999999998 17.533192
22.485474 16.139495 36.704783000000006
24.034429 17.056617 36.704783000000006
22.465700000000002 17.93949 36.704783000000006
23.464968 17.879904 34.520459
22.037443 17.034679 34.520459
23.483192 16.221019 34.520459
35.814336999999995 28.039495 36.5352
36.909614000000005 28.956616999999998 35.439923
35.800354999999996 29.839489999999998 36.549182
34.962394 29.779904 34.298043
33.952981 28.934679 35.307455000000004
34.97528 28.121019 34.285157
9.285619 28.039495 28.435474
9.285619 28.956616999999998 29.984429
9.285619 29.839489999999998 28.4157
11.469943 29.779904 29.414968
11.469943 28.934679 27.987443
11.469943 28.121019 29.433192
9.455202 16.139495 35.814336999999995
10.550479 17.056617 36.909614000000005
9.44122 17.93949 35.800354999999996
11.692359 17.879904 34.962394
10.682946999999999 17.034679 33.952981
11.705245 16.221019 34.97528
9.455202 22.089495 35.814336999999995
10.550479 23.006617 36.909614000000005
9.44122 23.88949 35.800354999999996
11.692359 23.829904 34.962394
10.682946999999999 22.984679 33.952981
11.705245 22.171018999999998 34.97528
28.435474 28.039495 36.704783000000006
29.984429 28.956616999999998 36.704783000000006
28.4157 29.839489999999998 36.704783000000006
29.414968 29.779904 34.520459
27.987443 28.934679 34.520459
29.433192 28.121019 34.520459
23.504928 28.039495 9.285619
21.955973 28.956616999999998 9.285619
23.524702 29.839489999999998 9.285619
22.525434 29.779904 11.469943
23.952959 28.934679 11.469943
22.507209999999997 28.121019 11.469943
9.285619 16.139495 16.535474
9.285619 17.056617 18.084429
9.285619 17.93949 16.5157
11.469943 17.879904 17.514968
11.469943 17.034679 16.087443
11.469943 16.221019 17.533192
16.535474 36.704783000000006 17.950907
18.084429 36.704783000000006 17.033784999999998
16.5157 36.704783000000006 16.150911999999998
17.514968 34.520459 16.210498
16.087443 34.520459 17.055723
17.533192 34.520459 17.869383
36.704783000000006 22.089495 23.504928
36.704783000000006 23.006617 21.955973
36.704783000000006 23.88949 23.524702
34.520459 23.829904 22.525434
34.520459 22.984679 23.952959
34.520459 22.171018999999998 22.507209999999997
16.535474 36.704783000000006 29.850907
18.084429 36.704783000000006 28.933785
16.5157 36.704783000000006 28.050912
17.514968 34.520459 28.110498
16.087443 34.520459 28.955723
17.533192 34.520459 29.769382999999998
22.485474 28.039495 36.704783000000006
24.034429 28.956616999999998 36.704783000000006
22.465700000000002 29.839489999999998 36.704783000000006
23.464968 29.779904 34.520459
22.037443 28.934679 34.520459
23.483192 28.121019 34.520459
16.535474 22.089495 36.704783000000006
18.084429 23.006617 36.704783000000006
16.5157 23.88949 36.704783000000006
17.514968 23.829904 34.520459
16.087443 22.984679 34.520459
17.533192 22.171018999999998 34.520459
28.435474 9.285619 16.139495
29.984429 9.285619 17.056617
28.4157 9.285619 17.93949
29.414968 11.469943 17.879904
27.987443 11.469943 17.034679
29.433192 11.469943 16.221019
9.455202 28.039495 35.814336999999995
10.550479 28.956616999999998 36.909614000000005
9.44122 29.839489999999998 35.800354999999996
11.692359 29.779904 34.962394
10.682946999999999 28.934679 33.952981
11.705245 28.121019 34.97528
34.895201 22.995200999999998 34.895201
11.095201 22.995200999999998 17.045201
22.995200999999998 17.045201 34.895201
34.895201 28.945201 34.895201
11.095201 28.945201 28.945201
11.095201 17.045201 34.895201
11.095201 22.995200999999998 34.895201
28.945201 28.945201 34.895201
22.995200999999998 28.945201 11.095201
11.095201 17.045201 17.045201
17.045201 34.895201 17.045201
34.895201 22.995200999999998 22.995200999999998
17.045201 34.895201 28.945201
22.995200999999998 28.945201 34.895201
17.045201 22.995200999999998 34.895201
28.945201 11.095201 17.045201
11.095201 28.945201 34.895201
14.070200999999999 14.070200999999999 14.070200999999999
14.070200999999999 14.070200999999999 20.020201
14.070200999999999 14.070200999999999 25.970201
14.070200999999999 14.070200999999999 31.920201
14.070200999999999 20.020201 14.070200999999999
14.070200999999999 20.020201 20.020201
14.070200999999999 20.020201 25.970201
14.070200999999999 20.020201 31.920201
14.070200999999999 25.970201 14.070200999999999
14.070200999999999 25.970201 20.020201
14.070200999999999 25.970201 25.970201
14.070200999999999 25.970201 31.920201
14.070200999999999 31.920201 14.070200999999999
14.070200999999999 31.920201 20.020201
14.070200999999999 31.920201 25.970201
14.070200999999999 31.920201 31.920201
20.020201 14.070200999999999 14.070200999999999
20.020201 14.070200999999999 20.020201
20.020201 14.070200999999999 25.970201
20.020201 14.070200999999999 31.920201
20.020201 20.020201 14.070200999999999
20.020201 20.020201 20.020201
20.020201 20.020201 25.970201
20.020201 20.020201 31.920201
20.020201 25.970201 14.070200999999999
20.020201 25.970201 20.020201
20.020201 25.970201 25.970201
20.020201 25.970201 31.920201
20.020201 31.920201 14.070200999999999
20.020201 31.920201 20.020201
20.020201 31.920201 25.970201
20.020201 31.920201 31.920201
25.970201 14.070200999999999 14.070200999999999
25.970201 14.070200999999999 20.020201
25.970201 14.070200999999999 25.970201
25.970201 14.070200999999999 31.920201
25.970201 20.020201 14.070200999999999
25.970201 20.020201 20.020201
25.970201 20.020201 25.970201
25.970201 20.020201 31.920201
25.970201 25.970201 14.070200999999999
25.970201 25.970201 20.020201
25.970201 25.970201 25.970201
25.970201 25.970201 31.920201
25.970201 31.920201 14.070200999999999
25.970201 31.920201 20.020201
25.970201 31.920201 25.970201
25.970201 31.920201 31.920201
31.920201 14.070200999999999 14.070200999999999
31.920201 14.070200999999999 20.020201
31.920201 14.070200999999999 25.970201
31.920201 14.070200999999999 31.920201
31.920201 20.020201 14.070200999999999
31.920201 20.020201 20.020201
31.920201 20.020201 25.970201
31.920201 20.020201 31.920201
31.920201 25.970201 14.070200999999999
31.920201 25.970201 20.020201
31.920201 25.970201 25.970201
31.920201 25.970201 31.920201
31.920201 31.920201 14.070200999999999
31.920201 31.920201 20.020201
31.920201 31.920201 25.970201
31.920201 31.920201 31.920201
31.920201 20.020201 34.895201
20.020201 25.970201 34.895201
20.020201 31.920201 34.895201
31.920201 14.070200999999999 34.895201
20.020201 25.970201 11.095201
14.070200999999999 25.970201 11.095201
20.020201 31.920201 11.095201
25.970201 25.970201 11.095201
11.095201 31.920201 20.020201
11.095201 20.020201 14.070200999999999
11.095201 31.920201 25.970201
11.095201 14.070200999999999 14.070200999999999
34.895201 14.070200999999999 14.070200999999999
34.895201 25.970201 31.920201
34.895201 31.920201 31.920201
34.895201 14.070200999999999 25.970201
31.920201 11.095201 20.020201
20.020201 11.095201 25.970201
25.970201 11.095201 31.920201
20.020201 11.095201 31.920201
31.920201 34.895201 31.920201
20.020201 34.895201 31.920201
25.970201 34.895201 25.970201
14.070200999999999 34.895201 31.920201
