3_train/262_cspbbr3_MA-2-ABA_3_0.20\262_cspbbr3_MA-2-ABA_3_0.20.xyz
1.0
44.77052 0 0
0 44.77052 0
0 0 44.77052
Br C Cs H N O Pb 
96 94 44 144 22 24 27 
Cartesian
16.43526 16.43526 13.460259999999998
13.460259999999998 16.43526 16.43526
16.43526 16.43526 19.410259999999997
16.43526 13.460259999999998 22.38526
13.460259999999998 16.43526 22.38526
16.43526 16.43526 25.360259999999997
16.43526 13.460259999999998 28.335259999999998
13.460259999999998 16.43526 28.335259999999998
16.43526 16.43526 31.31026
16.43526 19.410259999999997 16.43526
13.460259999999998 22.38526 16.43526
16.43526 22.38526 19.410259999999997
16.43526 19.410259999999997 22.38526
16.43526 22.38526 25.360259999999997
16.43526 19.410259999999997 28.335259999999998
13.460259999999998 22.38526 28.335259999999998
16.43526 22.38526 31.31026
16.43526 28.335259999999998 13.460259999999998
16.43526 25.360259999999997 16.43526
13.460259999999998 28.335259999999998 16.43526
16.43526 28.335259999999998 19.410259999999997
16.43526 25.360259999999997 22.38526
16.43526 28.335259999999998 25.360259999999997
16.43526 25.360259999999997 28.335259999999998
13.460259999999998 28.335259999999998 28.335259999999998
16.43526 31.31026 16.43526
16.43526 31.31026 22.38526
16.43526 31.31026 28.335259999999998
22.38526 16.43526 13.460259999999998
22.38526 13.460259999999998 16.43526
19.410259999999997 16.43526 16.43526
22.38526 16.43526 19.410259999999997
19.410259999999997 16.43526 22.38526
22.38526 16.43526 25.360259999999997
22.38526 13.460259999999998 28.335259999999998
19.410259999999997 16.43526 28.335259999999998
22.38526 16.43526 31.31026
22.38526 19.410259999999997 16.43526
19.410259999999997 22.38526 16.43526
22.38526 22.38526 19.410259999999997
22.38526 19.410259999999997 22.38526
19.410259999999997 22.38526 22.38526
22.38526 22.38526 25.360259999999997
22.38526 19.410259999999997 28.335259999999998
19.410259999999997 22.38526 28.335259999999998
22.38526 28.335259999999998 13.460259999999998
22.38526 25.360259999999997 16.43526
19.410259999999997 28.335259999999998 16.43526
22.38526 28.335259999999998 19.410259999999997
22.38526 25.360259999999997 22.38526
19.410259999999997 28.335259999999998 22.38526
22.38526 28.335259999999998 25.360259999999997
22.38526 25.360259999999997 28.335259999999998
19.410259999999997 28.335259999999998 28.335259999999998
22.38526 28.335259999999998 31.31026
22.38526 31.31026 16.43526
28.335259999999998 16.43526 13.460259999999998
28.335259999999998 13.460259999999998 16.43526
25.360259999999997 16.43526 16.43526
28.335259999999998 16.43526 19.410259999999997
28.335259999999998 13.460259999999998 22.38526
25.360259999999997 16.43526 22.38526
28.335259999999998 16.43526 25.360259999999997
28.335259999999998 13.460259999999998 28.335259999999998
25.360259999999997 16.43526 28.335259999999998
28.335259999999998 16.43526 31.31026
28.335259999999998 22.38526 13.460259999999998
28.335259999999998 19.410259999999997 16.43526
25.360259999999997 22.38526 16.43526
28.335259999999998 22.38526 19.410259999999997
28.335259999999998 19.410259999999997 22.38526
25.360259999999997 22.38526 22.38526
28.335259999999998 22.38526 25.360259999999997
28.335259999999998 19.410259999999997 28.335259999999998
25.360259999999997 22.38526 28.335259999999998
28.335259999999998 22.38526 31.31026
28.335259999999998 28.335259999999998 13.460259999999998
28.335259999999998 25.360259999999997 16.43526
25.360259999999997 28.335259999999998 16.43526
28.335259999999998 28.335259999999998 19.410259999999997
28.335259999999998 25.360259999999997 22.38526
25.360259999999997 28.335259999999998 22.38526
28.335259999999998 28.335259999999998 25.360259999999997
28.335259999999998 25.360259999999997 28.335259999999998
25.360259999999997 28.335259999999998 28.335259999999998
28.335259999999998 28.335259999999998 31.31026
28.335259999999998 31.31026 16.43526
28.335259999999998 31.31026 22.38526
28.335259999999998 31.31026 28.335259999999998
31.31026 16.43526 22.38526
31.31026 22.38526 16.43526
31.31026 22.38526 22.38526
31.31026 22.38526 28.335259999999998
31.31026 28.335259999999998 16.43526
31.31026 28.335259999999998 22.38526
31.31026 28.335259999999998 28.335259999999998
22.438764 22.628881999999997 36.14778
22.584664999999998 23.16399 34.878845
22.38526 22.38526 33.71902299999999
21.894952999999997 20.478407999999998 35.161371
22.089919 21.272949999999998 36.277390999999994
22.537315999999997 22.974497999999997 32.389568999999995
22.028799 21.004996 33.852740999999995
16.488763999999996 28.578882 36.14778
16.634665 29.113989999999998 34.878845
16.43526 28.335259999999998 33.71902299999999
15.944952999999998 26.428407999999997 35.161371
16.139919 27.222949999999997 36.277390999999994
16.587315999999998 28.924498 32.389568999999995
16.078798999999997 26.954995999999998 33.852740999999995
22.331756 22.628881999999997 8.622739999999999
22.185854999999997 23.16399 9.891674999999998
22.38526 22.38526 11.051496999999998
22.875566999999997 20.478407999999998 9.609148999999999
22.680600999999996 21.272949999999998 8.493128999999998
22.233204 22.974497999999997 12.380950999999998
22.741721 21.004996 10.917778999999998
16.381755999999996 22.628881999999997 8.622739999999999
16.235854999999997 23.16399 9.891674999999998
16.43526 22.38526 11.051496999999998
16.925566999999997 20.478407999999998 9.609148999999999
16.730601 21.272949999999998 8.493128999999998
16.283203999999998 22.974497999999997 12.380950999999998
16.791721 21.004996 10.917778999999998
8.622739999999999 22.628881999999997 22.438764
9.891674999999998 23.16399 22.584664999999998
11.051496999999998 22.38526 22.38526
9.609148999999999 20.478407999999998 21.894952999999997
8.493128999999998 21.272949999999998 22.089919
12.380950999999998 22.974497999999997 22.537315999999997
10.917778999999998 21.004996 22.028799
8.622739999999999 28.578882 22.438764
9.891674999999998 29.113989999999998 22.584664999999998
11.051496999999998 28.335259999999998 22.38526
9.609148999999999 26.428407999999997 21.894952999999997
8.493128999999998 27.222949999999997 22.089919
12.380950999999998 28.924498 22.537315999999997
10.917778999999998 26.954995999999998 22.028799
36.14778 16.678881999999998 28.281755999999998
34.878845 17.21399 28.135855
33.71902299999999 16.43526 28.335259999999998
35.161371 14.528407999999999 28.825567
36.277390999999994 15.322949999999999 28.630601
32.389568999999995 17.024497999999998 28.183203999999996
33.852740999999995 15.054995999999997 28.691720999999998
36.14778 16.678881999999998 16.381755999999996
34.878845 17.21399 16.235854999999997
33.71902299999999 16.43526 16.43526
35.161371 14.528407999999999 16.925566999999997
36.277390999999994 15.322949999999999 16.730601
32.389568999999995 17.024497999999998 16.283203999999998
33.852740999999995 15.054995999999997 16.791721
16.488763999999996 8.622739999999999 16.678881999999998
16.634665 9.891674999999998 17.21399
16.43526 11.051496999999998 16.43526
15.944952999999998 9.609148999999999 14.528407999999999
16.139919 8.493128999999998 15.322949999999999
16.587315999999998 12.380950999999998 17.024497999999998
16.078798999999997 10.917778999999998 15.054995999999997
22.438764 8.622739999999999 22.628881999999997
22.584664999999998 9.891674999999998 23.16399
22.38526 11.051496999999998 22.38526
21.894952999999997 9.609148999999999 20.478407999999998
22.089919 8.493128999999998 21.272949999999998
22.537315999999997 12.380950999999998 22.974497999999997
22.028799 10.917778999999998 21.004996
22.438764 36.14778 22.141638
22.584664999999998 34.878845 21.60653
22.38526 33.71902299999999 22.38526
21.894952999999997 35.161371 24.292111999999996
22.089919 36.277390999999994 23.497569999999996
22.537315999999997 32.389568999999995 21.796022
22.028799 33.852740999999995 23.765524
22.438764 36.14778 28.091637999999996
22.584664999999998 34.878845 27.55653
22.38526 33.71902299999999 28.335259999999998
21.894952999999997 35.161371 30.242112
22.089919 36.277390999999994 29.44757
22.537315999999997 32.389568999999995 27.746021999999996
22.028799 33.852740999999995 29.715524
12.416809999999998 32.35371 25.360259999999997
25.360259999999997 32.35371 32.35371
32.35371 32.35371 19.410259999999997
11.984599 19.410259999999997 19.410259999999997
25.360259999999997 19.410259999999997 32.785921
25.360259999999997 12.416809999999998 32.35371
25.360259999999997 11.984599 25.360259999999997
12.416809999999998 19.410259999999997 32.35371
19.410259999999997 25.360259999999997 32.785921
12.416809999999998 32.35371 19.410259999999997
13.460259999999998 13.460259999999998 19.410259999999997
13.460259999999998 13.460259999999998 25.360259999999997
13.460259999999998 19.410259999999997 13.460259999999998
13.460259999999998 19.410259999999997 25.360259999999997
13.460259999999998 25.360259999999997 13.460259999999998
13.460259999999998 25.360259999999997 19.410259999999997
13.460259999999998 25.360259999999997 25.360259999999997
13.460259999999998 25.360259999999997 31.31026
19.410259999999997 13.460259999999998 13.460259999999998
19.410259999999997 13.460259999999998 25.360259999999997
19.410259999999997 13.460259999999998 31.31026
19.410259999999997 19.410259999999997 13.460259999999998
19.410259999999997 19.410259999999997 19.410259999999997
19.410259999999997 19.410259999999997 25.360259999999997
19.410259999999997 19.410259999999997 31.31026
19.410259999999997 25.360259999999997 13.460259999999998
19.410259999999997 25.360259999999997 19.410259999999997
19.410259999999997 25.360259999999997 25.360259999999997
19.410259999999997 31.31026 13.460259999999998
19.410259999999997 31.31026 19.410259999999997
19.410259999999997 31.31026 25.360259999999997
19.410259999999997 31.31026 31.31026
25.360259999999997 13.460259999999998 13.460259999999998
25.360259999999997 13.460259999999998 19.410259999999997
25.360259999999997 19.410259999999997 13.460259999999998
25.360259999999997 19.410259999999997 19.410259999999997
25.360259999999997 19.410259999999997 25.360259999999997
25.360259999999997 25.360259999999997 13.460259999999998
25.360259999999997 25.360259999999997 19.410259999999997
25.360259999999997 25.360259999999997 25.360259999999997
25.360259999999997 25.360259999999997 31.31026
25.360259999999997 31.31026 13.460259999999998
25.360259999999997 31.31026 19.410259999999997
25.360259999999997 31.31026 25.360259999999997
31.31026 13.460259999999998 19.410259999999997
31.31026 13.460259999999998 25.360259999999997
31.31026 19.410259999999997 19.410259999999997
31.31026 19.410259999999997 25.360259999999997
31.31026 19.410259999999997 31.31026
31.31026 25.360259999999997 13.460259999999998
31.31026 25.360259999999997 19.410259999999997
31.31026 25.360259999999997 25.360259999999997
31.31026 25.360259999999997 31.31026
31.31026 31.31026 25.360259999999997
21.635600999999998 19.423008 35.277474
21.972894999999998 20.834103999999996 37.27052
22.593901 23.248822999999998 37.03093
22.861109 24.210924 34.752598
21.565379 19.241851999999998 32.884522
21.934154 20.629151 31.841855999999996
22.933918999999996 24.559559999999998 31.45787
15.685600999999998 25.373008 35.277474
16.022895 26.784104 37.27052
16.643901 29.198822999999997 37.03093
16.911108999999996 30.160923999999998 34.752598
15.615378999999997 25.191851999999997 32.884522
15.984153999999998 26.579150999999996 31.841855999999996
16.983919 30.509559999999997 31.45787
23.134918999999996 19.423008 9.493045999999998
22.797624999999996 20.834103999999996 7.499999999999998
22.176619 23.248822999999998 7.739589999999998
21.909411 24.210924 10.017921999999999
23.205140999999998 19.241851999999998 11.885997999999997
22.836365999999998 20.629151 12.928663999999998
21.836600999999998 24.559559999999998 13.312649999999998
17.184918999999997 19.423008 9.493045999999998
16.847624999999997 20.834103999999996 7.499999999999998
16.226619 23.248822999999998 7.739589999999998
15.959410999999998 24.210924 10.017921999999999
17.255141 19.241851999999998 11.885997999999997
16.886366 20.629151 12.928663999999998
15.886600999999999 24.559559999999998 13.312649999999998
9.493045999999998 19.423008 21.635600999999998
7.499999999999998 20.834103999999996 21.972894999999998
7.739589999999998 23.248822999999998 22.593901
10.017921999999999 24.210924 22.861109
11.885997999999997 19.241851999999998 21.565379
12.928663999999998 20.629151 21.934154
13.312649999999998 24.559559999999998 22.933918999999996
9.493045999999998 25.373008 21.635600999999998
7.499999999999998 26.784104 21.972894999999998
7.739589999999998 29.198822999999997 22.593901
10.017921999999999 30.160923999999998 22.861109
11.885997999999997 25.191851999999997 21.565379
12.928663999999998 26.579150999999996 21.934154
13.312649999999998 30.509559999999997 22.933918999999996
35.277474 13.473007999999998 29.084919
37.27052 14.884103999999999 28.747625
37.03093 17.298823 28.126618999999998
34.752598 18.260924 27.859410999999998
32.884522 13.291851999999999 29.155141
31.841855999999996 14.679150999999997 28.786365999999997
31.45787 18.60956 27.786600999999997
35.277474 13.473007999999998 17.184918999999997
37.27052 14.884103999999999 16.847624999999997
37.03093 17.298823 16.226619
34.752598 18.260924 15.959410999999998
32.884522 13.291851999999999 17.255141
31.841855999999996 14.679150999999997 16.886366
31.45787 18.60956 15.886600999999999
15.685600999999998 9.493045999999998 13.473007999999998
16.022895 7.499999999999998 14.884103999999999
16.643901 7.739589999999998 17.298823
16.911108999999996 10.017921999999999 18.260924
15.615378999999997 11.885997999999997 13.291851999999999
15.984153999999998 12.928663999999998 14.679150999999997
16.983919 13.312649999999998 18.60956
21.635600999999998 9.493045999999998 19.423008
21.972894999999998 7.499999999999998 20.834103999999996
22.593901 7.739589999999998 23.248822999999998
22.861109 10.017921999999999 24.210924
21.565379 11.885997999999997 19.241851999999998
21.934154 12.928663999999998 20.629151
22.933918999999996 13.312649999999998 24.559559999999998
21.635600999999998 35.277474 25.347512
21.972894999999998 37.27052 23.936415999999998
22.593901 37.03093 21.521696999999996
22.861109 34.752598 20.559596
21.565379 32.884522 25.528667999999996
21.934154 31.841855999999996 24.141368999999997
22.933918999999996 31.45787 20.21096
21.635600999999998 35.277474 31.297511999999998
21.972894999999998 37.27052 29.886415999999997
22.593901 37.03093 27.471697
22.861109 34.752598 26.509596
21.565379 32.884522 31.478668
21.934154 31.841855999999996 30.091368999999997
22.933918999999996 31.45787 26.160959999999996
11.445846999999999 31.854982 25.371675999999997
12.555105999999999 32.964241 26.25455
12.541123999999998 32.950259 24.454553999999998
14.402479999999999 31.722513999999997 25.349738
13.380180999999999 30.700215999999998 24.536077999999996
13.393066999999999 30.713102 26.194962999999998
24.633487 32.064505 33.11515
26.367032 32.407433 32.772222
25.080261 33.297544 31.882111
26.030057 31.529417 30.561138
24.432413999999998 31.213372999999997 30.877181999999998
25.618308999999996 30.393041999999998 31.697512
32.597899999999996 32.581755 20.449488
33.222185999999994 31.957469 18.880758999999998
31.949396999999998 33.230258 18.900533
31.037837 31.052716999999998 18.452502
30.462493 31.628061999999996 19.898251
31.635502 30.455053 19.880027
11.650678 18.667341999999998 18.683487
11.650678 19.152314999999998 20.417032
11.650678 20.411122 19.130260999999997
13.835002 20.094936999999998 20.080056999999996
13.835002 19.647982999999996 18.482414
13.835002 18.487859999999998 19.668308999999997
24.633487 18.667341999999998 33.119842
26.367032 19.152314999999998 33.119842
25.080261 20.411122 33.119842
26.030057 20.094936999999998 30.935518
24.432413999999998 19.647982999999996 30.935518
25.618308999999996 18.487859999999998 30.935518
24.633487 11.655369999999998 32.064505
26.367032 11.998297999999998 32.407433
25.080261 12.888409 33.297544
26.030057 14.209381999999998 31.529417
24.432413999999998 13.893337999999998 31.213372999999997
25.618308999999996 13.073007999999998 30.393041999999998
24.633487 11.650678 24.617342
26.367032 11.650678 25.102314999999997
25.080261 11.650678 26.361121999999998
26.030057 13.835002 26.044936999999997
24.432413999999998 13.835002 25.597983
25.618308999999996 13.835002 24.43786
11.666786999999998 18.667341999999998 32.075922
12.892587999999998 19.152314999999998 33.301722999999996
11.982702999999997 20.411122 32.39183799999999
14.198860999999997 20.094936999999998 31.518894999999997
13.069155999999998 19.647982999999996 30.389190999999997
13.907710999999999 18.487859999999998 31.227746
18.683487 24.617342 33.119842
20.417032 25.102314999999997 33.119842
19.130260999999997 26.361121999999998 33.119842
20.080056999999996 26.044936999999997 30.935518
18.482414 25.597983 30.935518
19.668308999999997 24.43786 30.935518
11.445846999999999 31.854982 19.421675999999998
12.555105999999999 32.964241 20.30455
12.541123999999998 32.950259 18.504554
14.402479999999999 31.722513999999997 19.399738
13.380180999999999 30.700215999999998 18.586077999999997
13.393066999999999 30.713102 20.244963
21.820157 20.213744 32.767888
15.870156999999999 26.163743999999998 32.767888
22.950362999999996 20.213744 12.002631999999998
17.000363 20.213744 12.002631999999998
12.002631999999998 20.213744 21.820157
12.002631999999998 26.163743999999998 21.820157
32.767888 14.263743999999997 28.900363
32.767888 14.263743999999997 17.000363
15.870156999999999 12.002631999999998 14.263743999999997
21.820157 12.002631999999998 20.213744
21.820157 32.767888 24.556776
21.820157 32.767888 30.506776
13.460259999999998 31.31026 25.360259999999997
25.360259999999997 31.31026 31.31026
31.31026 31.31026 19.410259999999997
13.460259999999998 19.410259999999997 19.410259999999997
25.360259999999997 19.410259999999997 31.31026
25.360259999999997 13.460259999999998 31.31026
25.360259999999997 13.460259999999998 25.360259999999997
13.460259999999998 19.410259999999997 31.31026
19.410259999999997 25.360259999999997 31.31026
13.460259999999998 31.31026 19.410259999999997
22.878445 24.30089 32.40132199999999
22.38526 22.38526 31.31026
16.928444999999996 30.25089 32.40132199999999
16.43526 28.335259999999998 31.31026
21.892075 24.30089 12.369197999999997
22.38526 22.38526 13.460259999999998
15.942074999999999 24.30089 12.369197999999997
16.43526 22.38526 13.460259999999998
12.369197999999997 24.30089 22.878445
13.460259999999998 22.38526 22.38526
12.369197999999997 30.25089 22.878445
13.460259999999998 28.335259999999998 22.38526
32.40132199999999 18.35089 27.842074999999998
31.31026 16.43526 28.335259999999998
32.40132199999999 18.35089 15.942074999999999
31.31026 16.43526 16.43526
16.928444999999996 12.369197999999997 18.35089
16.43526 13.460259999999998 16.43526
22.878445 12.369197999999997 24.30089
22.38526 13.460259999999998 22.38526
22.878445 32.40132199999999 20.46963
22.38526 31.31026 22.38526
22.878445 32.40132199999999 26.419629999999998
22.38526 31.31026 28.335259999999998
16.43526 16.43526 16.43526
16.43526 16.43526 22.38526
16.43526 16.43526 28.335259999999998
16.43526 22.38526 16.43526
16.43526 22.38526 22.38526
16.43526 22.38526 28.335259999999998
16.43526 28.335259999999998 16.43526
16.43526 28.335259999999998 22.38526
16.43526 28.335259999999998 28.335259999999998
22.38526 16.43526 16.43526
22.38526 16.43526 22.38526
22.38526 16.43526 28.335259999999998
22.38526 22.38526 16.43526
22.38526 22.38526 22.38526
22.38526 22.38526 28.335259999999998
22.38526 28.335259999999998 16.43526
22.38526 28.335259999999998 22.38526
22.38526 28.335259999999998 28.335259999999998
28.335259999999998 16.43526 16.43526
28.335259999999998 16.43526 22.38526
28.335259999999998 16.43526 28.335259999999998
28.335259999999998 22.38526 16.43526
28.335259999999998 22.38526 22.38526
28.335259999999998 22.38526 28.335259999999998
28.335259999999998 28.335259999999998 16.43526
28.335259999999998 28.335259999999998 22.38526
28.335259999999998 28.335259999999998 28.335259999999998
