3_train/210_cspbbr3_MA-2-Fur_4_0.60\210_cspbbr3_MA-2-Fur_4_0.60.xyz
1.0
48.03963 0 0
0 48.03963 0
0 0 48.03963
Br C Cs H N O Pb 
180 351 61 486 51 180 64 
Cartesian
12.119815000000001 15.094815 15.094815
15.094815 15.094815 18.069815
15.094815 12.119815000000001 21.044815
15.094815 15.094815 24.019815
12.119815000000001 15.094815 26.994815000000003
15.094815 15.094815 29.969815000000004
15.094815 21.044815 12.119815000000001
15.094815 18.069815 15.094815
15.094815 21.044815 18.069815
15.094815 18.069815 21.044815
12.119815000000001 21.044815 21.044815
15.094815 21.044815 24.019815
15.094815 18.069815 26.994815000000003
12.119815000000001 21.044815 26.994815000000003
15.094815 21.044815 29.969815000000004
15.094815 18.069815 32.944815
15.094815 26.994815000000003 12.119815000000001
15.094815 24.019815 15.094815
15.094815 26.994815000000003 18.069815
15.094815 24.019815 21.044815
12.119815000000001 26.994815000000003 21.044815
15.094815 26.994815000000003 24.019815
15.094815 24.019815 26.994815000000003
15.094815 26.994815000000003 29.969815000000004
15.094815 24.019815 32.944815
15.094815 29.969815000000004 15.094815
15.094815 32.944815 18.069815
15.094815 29.969815000000004 21.044815
12.119815000000001 32.944815 21.044815
15.094815 32.944815 24.019815
15.094815 29.969815000000004 26.994815000000003
15.094815 32.944815 29.969815000000004
15.094815 29.969815000000004 32.944815
15.094815 35.919815 32.944815
21.044815 15.094815 12.119815000000001
21.044815 12.119815000000001 15.094815
18.069815 15.094815 15.094815
21.044815 15.094815 18.069815
21.044815 12.119815000000001 21.044815
18.069815 15.094815 21.044815
21.044815 15.094815 24.019815
21.044815 12.119815000000001 26.994815000000003
18.069815 15.094815 26.994815000000003
21.044815 15.094815 29.969815000000004
18.069815 15.094815 32.944815
21.044815 15.094815 35.919815
21.044815 18.069815 15.094815
18.069815 21.044815 15.094815
21.044815 21.044815 18.069815
21.044815 18.069815 21.044815
18.069815 21.044815 21.044815
21.044815 21.044815 24.019815
21.044815 18.069815 26.994815000000003
18.069815 21.044815 26.994815000000003
21.044815 21.044815 29.969815000000004
21.044815 18.069815 32.944815
18.069815 21.044815 32.944815
21.044815 21.044815 35.919815
21.044815 24.019815 15.094815
18.069815 26.994815000000003 15.094815
21.044815 26.994815000000003 18.069815
21.044815 24.019815 21.044815
18.069815 26.994815000000003 21.044815
21.044815 26.994815000000003 24.019815
21.044815 24.019815 26.994815000000003
18.069815 26.994815000000003 26.994815000000003
21.044815 26.994815000000003 29.969815000000004
21.044815 24.019815 32.944815
18.069815 26.994815000000003 32.944815
21.044815 26.994815000000003 35.919815
21.044815 32.944815 12.119815000000001
21.044815 29.969815000000004 15.094815
18.069815 32.944815 15.094815
21.044815 32.944815 18.069815
21.044815 29.969815000000004 21.044815
18.069815 32.944815 21.044815
21.044815 32.944815 24.019815
21.044815 29.969815000000004 26.994815000000003
18.069815 32.944815 26.994815000000003
21.044815 32.944815 29.969815000000004
21.044815 29.969815000000004 32.944815
18.069815 32.944815 32.944815
21.044815 32.944815 35.919815
21.044815 35.919815 15.094815
24.019815 15.094815 15.094815
26.994815000000003 15.094815 18.069815
26.994815000000003 12.119815000000001 21.044815
24.019815 15.094815 21.044815
26.994815000000003 15.094815 24.019815
26.994815000000003 12.119815000000001 26.994815000000003
24.019815 15.094815 26.994815000000003
26.994815000000003 15.094815 29.969815000000004
24.019815 15.094815 32.944815
26.994815000000003 18.069815 15.094815
24.019815 21.044815 15.094815
26.994815000000003 21.044815 18.069815
26.994815000000003 18.069815 21.044815
24.019815 21.044815 21.044815
26.994815000000003 21.044815 24.019815
26.994815000000003 18.069815 26.994815000000003
24.019815 21.044815 26.994815000000003
26.994815000000003 21.044815 29.969815000000004
26.994815000000003 18.069815 32.944815
24.019815 21.044815 32.944815
26.994815000000003 24.019815 15.094815
24.019815 26.994815000000003 15.094815
26.994815000000003 26.994815000000003 18.069815
26.994815000000003 24.019815 21.044815
24.019815 26.994815000000003 21.044815
26.994815000000003 26.994815000000003 24.019815
26.994815000000003 24.019815 26.994815000000003
24.019815 26.994815000000003 26.994815000000003
26.994815000000003 26.994815000000003 29.969815000000004
26.994815000000003 24.019815 32.944815
24.019815 26.994815000000003 32.944815
26.994815000000003 26.994815000000003 35.919815
26.994815000000003 32.944815 12.119815000000001
26.994815000000003 29.969815000000004 15.094815
24.019815 32.944815 15.094815
26.994815000000003 32.944815 18.069815
26.994815000000003 29.969815000000004 21.044815
24.019815 32.944815 21.044815
26.994815000000003 32.944815 24.019815
26.994815000000003 29.969815000000004 26.994815000000003
24.019815 32.944815 26.994815000000003
26.994815000000003 32.944815 29.969815000000004
26.994815000000003 29.969815000000004 32.944815
24.019815 32.944815 32.944815
26.994815000000003 35.919815 26.994815000000003
26.994815000000003 35.919815 32.944815
29.969815000000004 15.094815 15.094815
32.944815 15.094815 18.069815
29.969815000000004 15.094815 21.044815
32.944815 15.094815 24.019815
29.969815000000004 15.094815 26.994815000000003
32.944815 15.094815 29.969815000000004
29.969815000000004 15.094815 32.944815
32.944815 15.094815 35.919815
32.944815 18.069815 15.094815
29.969815000000004 21.044815 15.094815
32.944815 21.044815 18.069815
32.944815 18.069815 21.044815
29.969815000000004 21.044815 21.044815
32.944815 21.044815 24.019815
32.944815 18.069815 26.994815000000003
29.969815000000004 21.044815 26.994815000000003
32.944815 21.044815 29.969815000000004
32.944815 18.069815 32.944815
29.969815000000004 21.044815 32.944815
32.944815 24.019815 15.094815
29.969815000000004 26.994815000000003 15.094815
32.944815 26.994815000000003 18.069815
32.944815 24.019815 21.044815
29.969815000000004 26.994815000000003 21.044815
32.944815 26.994815000000003 24.019815
32.944815 24.019815 26.994815000000003
29.969815000000004 26.994815000000003 26.994815000000003
32.944815 26.994815000000003 29.969815000000004
32.944815 24.019815 32.944815
29.969815000000004 26.994815000000003 32.944815
32.944815 32.944815 12.119815000000001
32.944815 29.969815000000004 15.094815
29.969815000000004 32.944815 15.094815
32.944815 32.944815 18.069815
32.944815 29.969815000000004 21.044815
29.969815000000004 32.944815 21.044815
32.944815 32.944815 24.019815
32.944815 29.969815000000004 26.994815000000003
29.969815000000004 32.944815 26.994815000000003
32.944815 32.944815 29.969815000000004
32.944815 29.969815000000004 32.944815
29.969815000000004 32.944815 32.944815
32.944815 35.919815 15.094815
32.944815 35.919815 32.944815
35.919815 15.094815 21.044815
35.919815 21.044815 32.944815
35.919815 26.994815000000003 15.094815
35.919815 32.944815 15.094815
35.919815 32.944815 21.044815
35.919815 32.944815 32.944815
14.691329000000001 15.038766 39.570101
14.082106000000001 14.947470000000001 38.28788900000001
15.094815 15.094815 37.36827100000001
16.030137000000003 15.233312000000002 39.34458600000001
15.094815 15.094815 35.919815
26.828700000000005 21.416767 39.570101
26.571479000000004 21.976521000000005 38.28788900000001
26.994815000000003 21.044815 37.36827100000001
27.388118 20.184977000000003 39.34458600000001
26.994815000000003 21.044815 35.919815
32.966246 21.451611 39.570101
32.992058 22.067096 38.28788900000001
32.944815 21.044815 37.36827100000001
32.90355 20.100195 39.34458600000001
32.944815 21.044815 35.919815
15.149643000000001 27.398469 39.570101
15.226005 28.009743 38.28788900000001
15.094815 26.994815000000003 37.36827100000001
14.975972 26.056793 39.34458600000001
15.094815 26.994815000000003 35.919815
26.949913000000002 15.499693 39.570101
26.875449000000003 16.111201 38.28788900000001
26.994815000000003 15.094815 37.36827100000001
27.107471000000004 14.156030000000001 39.34458600000001
26.994815000000003 15.094815 35.919815
14.725472000000002 32.772977 39.570101
14.169757 32.507143 38.28788900000001
15.094815 32.944815 37.36827100000001
15.948478000000001 33.351348 39.34458600000001
15.094815 32.944815 35.919815
32.656584 33.232678 39.570101
32.216068 33.663297 38.28788900000001
32.944815 32.944815 37.36827100000001
33.619798 32.282691 39.34458600000001
32.944815 32.944815 35.919815
15.501887000000002 21.060144 39.570101
16.117192000000003 21.089924000000003 38.28788900000001
15.094815 21.044815 37.36827100000001
14.150322000000001 21.000754 39.34458600000001
15.094815 21.044815 35.919815
26.734227000000004 33.257923 39.570101
26.335102 33.727163000000004 38.28788900000001
26.994815000000003 32.944815 37.36827100000001
27.606164 32.223524 39.34458600000001
26.994815000000003 32.944815 35.919815
32.877994 26.592972000000003 39.570101
32.783468 25.984243 38.28788900000001
32.944815 26.994815000000003 37.36827100000001
33.091531 27.928883 39.34458600000001
32.944815 26.994815000000003 35.919815
20.950282 26.598575000000004 8.469529000000001
20.800909000000004 26.000934 9.751741
21.044815 26.994815000000003 10.671359
21.272483 27.912517 8.695044000000001
21.044815 26.994815000000003 12.119815000000001
26.61952 20.886397000000002 8.469529000000001
26.04945 20.652930000000005 9.751741
26.994815000000003 21.044815 10.671359
27.869175 21.404682 8.695044000000001
26.994815000000003 21.044815 12.119815000000001
15.147967000000001 14.690937 8.469529000000001
15.221793 14.079352000000002 9.751741
15.094815 15.094815 10.671359
14.979865000000002 16.033322 8.695044000000001
15.094815 15.094815 12.119815000000001
33.297184 20.840417000000002 8.469529000000001
33.826705000000004 20.525624 9.751741
32.944815 21.044815 10.671359
32.131227 21.526565000000005 8.695044000000001
32.944815 21.044815 12.119815000000001
26.702461 15.378490000000001 8.469529000000001
26.264977000000002 15.812189000000002 9.751741
26.994815000000003 15.094815 10.671359
27.667457 14.430314000000001 8.695044000000001
26.994815000000003 15.094815 12.119815000000001
32.723931 15.437091 8.469529000000001
32.395472 15.958245 9.751741
32.944815 15.094815 10.671359
33.450353 14.295790000000002 8.695044000000001
32.944815 15.094815 12.119815000000001
27.385372000000004 27.110606000000004 8.469529000000001
27.977831000000002 27.279366000000003 9.751741
26.994815000000003 26.994815000000003 10.671359
26.085919000000004 26.734204 8.695044000000001
26.994815000000003 26.994815000000003 12.119815000000001
32.543666 26.923951000000002 8.469529000000001
31.935919 26.823298 9.751741
32.944815 26.994815000000003 10.671359
33.877358 27.150931 8.695044000000001
32.944815 26.994815000000003 12.119815000000001
15.498998 32.995598 8.469529000000001
16.111006000000003 33.065836 9.751741
15.094815 32.944815 10.671359
14.155650000000001 32.835371 8.695044000000001
15.094815 32.944815 12.119815000000001
21.451747000000005 21.026136 8.469529000000001
22.066786 20.991292 9.751741
21.044815 21.044815 10.671359
20.100716 21.096649 8.695044000000001
21.044815 21.044815 12.119815000000001
8.469529000000001 26.929699 27.396937
9.751741 26.837754000000004 28.006062
10.671359 26.994815000000003 26.994815000000003
8.695044000000001 27.137569 26.060133
12.119815000000001 26.994815000000003 26.994815000000003
8.469529000000001 21.448864 15.146649000000002
9.751741 22.060687 15.218478000000001
10.671359 21.044815 15.094815
8.695044000000001 20.105938000000002 14.982929
12.119815000000001 21.044815 15.094815
8.469529000000001 33.219234 32.643756
9.751741 33.629315 32.184059
10.671359 32.944815 32.944815
8.695044000000001 32.314163 33.649292
12.119815000000001 32.944815 32.944815
8.469529000000001 14.853793000000001 33.273222000000004
9.751741 14.494657000000002 33.77373
10.671359 15.094815 32.944815
8.695044000000001 15.647382 32.177561000000004
12.119815000000001 15.094815 32.944815
8.469529000000001 33.042728000000004 15.490233000000002
9.751741 33.1972 16.086577
10.671359 32.944815 15.094815
8.695044000000001 32.709318 14.179091000000001
12.119815000000001 32.944815 15.094815
8.469529000000001 32.64179 26.722568000000003
9.751741 32.179157000000004 26.315803000000002
10.671359 32.944815 26.994815000000003
8.695044000000001 33.653809 27.620385
12.119815000000001 32.944815 26.994815000000003
8.469529000000001 26.956323000000005 15.500353
9.751741 26.904694 16.114211
10.671359 26.994815000000003 15.094815
8.695044000000001 27.075703000000004 14.152761
12.119815000000001 26.994815000000003 15.094815
8.469529000000001 21.007275 32.539188
9.751741 20.943931 31.926428
10.671359 21.044815 32.944815
8.695044000000001 21.140399000000002 33.885492
12.119815000000001 21.044815 32.944815
8.469529000000001 15.502091000000002 21.036511000000004
9.751741 16.117818 21.01735
10.671359 15.094815 21.044815
8.695044000000001 14.149702000000001 21.072576000000005
12.119815000000001 15.094815 21.044815
8.469529000000001 26.593366000000003 33.013964
9.751741 25.987437 33.125037
10.671359 26.994815000000003 32.944815
8.695044000000001 27.925135000000004 32.775955
12.119815000000001 26.994815000000003 32.944815
39.570101 21.277822 21.378956000000002
38.28788900000001 21.624746000000002 21.888005
37.36827100000001 21.044815 21.044815
39.34458600000001 20.510969000000003 20.264419
35.919815 21.044815 21.044815
39.570101 21.264736 14.751919000000001
38.28788900000001 21.602849 14.236976
37.36827100000001 21.044815 15.094815
39.34458600000001 20.527233000000003 15.886092000000001
35.919815 21.044815 15.094815
39.570101 27.289221000000005 32.663269
38.28788900000001 27.738971 32.242304000000004
37.36827100000001 26.994815000000003 32.944815
39.34458600000001 26.305633 33.592146
35.919815 26.994815000000003 32.944815
39.570101 32.713227 27.329941000000005
38.28788900000001 32.357596 27.832946
37.36827100000001 32.944815 26.994815000000003
39.34458600000001 33.489315 26.221815
35.919815 32.944815 26.994815000000003
39.570101 20.891201000000002 27.372102000000005
38.28788900000001 20.652796000000002 27.940125000000002
37.36827100000001 21.044815 26.994815000000003
39.34458600000001 21.409215000000003 26.122335
35.919815 21.044815 26.994815000000003
39.570101 14.785306 33.209667
38.28788900000001 14.312986 33.605143
37.36827100000001 15.094815 32.944815
39.34458600000001 15.818705000000001 32.336545
35.919815 15.094815 32.944815
39.570101 26.672311 26.74595
38.28788900000001 26.188672000000004 26.364400000000003
37.36827100000001 26.994815000000003 26.994815000000003
39.34458600000001 27.738159000000003 27.579151000000003
35.919815 26.994815000000003 26.994815000000003
39.570101 27.400143 21.004169000000005
38.28788900000001 28.013717 20.949279000000004
37.36827100000001 26.994815000000003 21.044815
39.34458600000001 26.053204 21.130707
35.919815 26.994815000000003 21.044815
39.570101 14.726049000000001 15.267888000000001
38.28788900000001 14.165614000000001 15.523621
37.36827100000001 15.094815 15.094815
39.34458600000001 15.954326 14.700798
35.919815 15.094815 15.094815
39.570101 15.271365000000001 27.361929000000003
38.28788900000001 15.532382 27.919923000000004
37.36827100000001 15.094815 26.994815000000003
39.34458600000001 14.692694000000001 26.139065000000002
35.919815 15.094815 26.994815000000003
27.351094000000003 8.469529000000001 15.292320000000002
27.886637 9.751741 15.596753000000001
26.994815000000003 10.671359 15.094815
26.172009000000003 8.695044000000001 14.628982
26.994815000000003 12.119815000000001 15.094815
32.752651 8.469529000000001 32.585628
32.467895 9.751741 32.039367
32.944815 10.671359 32.944815
33.383341 8.695044000000001 33.782493
32.944815 12.119815000000001 32.944815
14.724920000000001 8.469529000000001 14.924170000000002
14.168349000000001 9.751741 14.66013
15.094815 10.671359 15.094815
15.949785 8.695044000000001 15.498591000000001
15.094815 12.119815000000001 15.094815
27.148255 8.469529000000001 33.322172
27.374161 9.751741 33.895281000000004
26.994815000000003 10.671359 32.944815
26.646545000000003 8.695044000000001 32.065772
26.994815000000003 12.119815000000001 32.944815
32.547973 8.469529000000001 15.186788000000002
31.946396999999997 9.751741 15.31943
32.944815 10.671359 15.094815
33.867801 8.695044000000001 14.889616000000002
32.944815 12.119815000000001 15.094815
21.435641000000004 8.469529000000001 32.829934
22.028491000000002 9.751741 32.662555
21.044815 10.671359 32.944815
20.135315 8.695044000000001 33.203308
21.044815 12.119815000000001 32.944815
32.945889 8.469529000000001 20.637456
32.954117000000004 9.751741 20.021486000000003
32.944815 10.671359 21.044815
32.933834 8.695044000000001 21.990272000000004
32.944815 12.119815000000001 21.044815
15.404916000000002 8.469529000000001 27.258974000000002
15.869551000000001 9.751741 27.663451000000002
15.094815 10.671359 26.994815000000003
14.380577 8.695044000000001 26.375239
15.094815 12.119815000000001 26.994815000000003
15.056536000000001 8.469529000000001 33.350373
14.992075000000002 9.751741 33.963016
15.094815 10.671359 32.944815
15.192113 8.695044000000001 32.004314
15.094815 12.119815000000001 32.944815
32.564093 8.469529000000001 27.139704000000002
31.986034000000004 9.751741 27.352625000000003
32.944815 10.671359 26.994815000000003
33.83149 8.695044000000001 26.666462000000003
32.944815 12.119815000000001 26.994815000000003
21.116852 39.570101 26.593875000000004
21.219282 38.28788900000001 25.986425000000004
21.044815 37.36827100000001 26.994815000000003
20.885972000000002 39.34458600000001 27.926898
21.044815 35.919815 26.994815000000003
33.083985 39.570101 26.611965000000005
33.288224 38.28788900000001 26.030782000000002
32.944815 37.36827100000001 26.994815000000003
32.629780000000004 39.34458600000001 27.886309000000004
32.944815 35.919815 26.994815000000003
26.826405 39.570101 21.415733000000003
26.577758000000003 38.28788900000001 21.979348
26.994815000000003 37.36827100000001 21.044815
27.377965000000003 39.34458600000001 20.180405
26.994815000000003 35.919815 21.044815
20.865363000000002 39.570101 32.579111
20.588075000000003 38.28788900000001 32.029021
21.044815 37.36827100000001 32.944815
21.468944 39.34458600000001 33.789874
21.044815 35.919815 32.944815
14.720675000000002 39.570101 14.933687
14.152308000000001 38.28788900000001 14.696105000000001
15.094815 37.36827100000001 15.094815
15.96655 39.34458600000001 15.460995
15.094815 35.919815 15.094815
15.083081000000002 39.570101 26.587624000000005
15.058735 38.28788900000001 25.97208
15.094815 37.36827100000001 26.994815000000003
15.130536000000001 39.34458600000001 27.939661
15.094815 35.919815 26.994815000000003
20.807791 39.570101 20.713512
20.444002 38.28788900000001 20.216375
21.044815 37.36827100000001 21.044815
21.601853 39.34458600000001 21.80883
21.044815 35.919815 21.044815
32.537767 39.570101 21.060756000000005
31.922507000000003 38.28788900000001 21.091462
32.944815 37.36827100000001 21.044815
33.889241 39.34458600000001 20.999333
32.944815 35.919815 21.044815
15.415431 39.570101 21.296107
15.904326000000001 38.28788900000001 21.670899
15.094815 37.36827100000001 21.044815
14.345429000000001 39.34458600000001 20.468248000000003
15.094815 35.919815 21.044815
27.210943 39.570101 15.440114000000001
27.543359000000002 38.28788900000001 15.958753000000002
26.994815000000003 37.36827100000001 15.094815
26.485987 39.34458600000001 14.297881
26.994815000000003 35.919815 15.094815
18.069815 29.969815000000004 37.395476
11.076365000000001 29.969815000000004 36.96326500000001
24.019815 29.969815000000004 10.644154
36.96326500000001 24.019815 11.076365000000001
37.395476 29.969815000000004 24.019815
10.644154 29.969815000000004 24.019815
29.969815000000004 37.395476 24.019815
10.644154 24.019815 29.969815000000004
29.969815000000004 36.96326500000001 11.076365000000001
37.395476 24.019815 18.069815
18.069815 18.069815 37.395476
36.96326500000001 11.076365000000001 18.069815
11.076365000000001 18.069815 11.076365000000001
24.019815 37.395476 18.069815
18.069815 29.969815000000004 10.644154
29.969815000000004 37.395476 29.969815000000004
37.395476 24.019815 29.969815000000004
36.96326500000001 36.96326500000001 18.069815
29.969815000000004 36.96326500000001 36.96326500000001
11.076365000000001 36.96326500000001 18.069815
37.395476 29.969815000000004 29.969815000000004
18.069815 37.395476 18.069815
36.96326500000001 24.019815 36.96326500000001
29.969815000000004 10.644154 29.969815000000004
18.069815 36.96326500000001 36.96326500000001
18.069815 11.076365000000001 36.96326500000001
24.019815 36.96326500000001 11.076365000000001
29.969815000000004 29.969815000000004 10.644154
11.076365000000001 11.076365000000001 24.019815
18.069815 24.019815 10.644154
24.019815 10.644154 24.019815
29.969815000000004 10.644154 24.019815
29.969815000000004 37.395476 18.069815
24.019815 36.96326500000001 36.96326500000001
36.96326500000001 11.076365000000001 29.969815000000004
36.96326500000001 29.969815000000004 36.96326500000001
29.969815000000004 18.069815 37.395476
29.969815000000004 11.076365000000001 11.076365000000001
24.019815 24.019815 37.395476
36.96326500000001 36.96326500000001 29.969815000000004
29.969815000000004 10.644154 18.069815
24.019815 18.069815 10.644154
11.076365000000001 36.96326500000001 24.019815
18.069815 37.395476 24.019815
36.96326500000001 18.069815 11.076365000000001
10.644154 18.069815 29.969815000000004
10.644154 24.019815 18.069815
10.644154 29.969815000000004 18.069815
37.395476 24.019815 24.019815
18.069815 10.644154 24.019815
37.395476 29.969815000000004 18.069815
12.119815000000001 12.119815000000001 29.969815000000004
12.119815000000001 18.069815 24.019815
12.119815000000001 18.069815 35.919815
12.119815000000001 24.019815 12.119815000000001
12.119815000000001 24.019815 24.019815
12.119815000000001 24.019815 35.919815
12.119815000000001 29.969815000000004 12.119815000000001
12.119815000000001 29.969815000000004 29.969815000000004
12.119815000000001 35.919815 29.969815000000004
18.069815 12.119815000000001 12.119815000000001
18.069815 12.119815000000001 18.069815
18.069815 12.119815000000001 29.969815000000004
18.069815 18.069815 12.119815000000001
18.069815 18.069815 18.069815
18.069815 18.069815 24.019815
18.069815 18.069815 29.969815000000004
18.069815 24.019815 18.069815
18.069815 24.019815 24.019815
18.069815 24.019815 29.969815000000004
18.069815 24.019815 35.919815
18.069815 29.969815000000004 18.069815
18.069815 29.969815000000004 24.019815
18.069815 29.969815000000004 29.969815000000004
18.069815 35.919815 12.119815000000001
18.069815 35.919815 29.969815000000004
24.019815 12.119815000000001 12.119815000000001
24.019815 12.119815000000001 18.069815
24.019815 12.119815000000001 29.969815000000004
24.019815 12.119815000000001 35.919815
24.019815 18.069815 18.069815
24.019815 18.069815 24.019815
24.019815 18.069815 29.969815000000004
24.019815 18.069815 35.919815
24.019815 24.019815 12.119815000000001
24.019815 24.019815 18.069815
24.019815 24.019815 24.019815
24.019815 24.019815 29.969815000000004
24.019815 29.969815000000004 18.069815
24.019815 29.969815000000004 24.019815
24.019815 29.969815000000004 29.969815000000004
24.019815 35.919815 29.969815000000004
29.969815000000004 12.119815000000001 35.919815
29.969815000000004 18.069815 18.069815
29.969815000000004 18.069815 24.019815
29.969815000000004 18.069815 29.969815000000004
29.969815000000004 24.019815 12.119815000000001
29.969815000000004 24.019815 18.069815
29.969815000000004 24.019815 24.019815
29.969815000000004 24.019815 29.969815000000004
29.969815000000004 24.019815 35.919815
29.969815000000004 29.969815000000004 18.069815
29.969815000000004 29.969815000000004 24.019815
29.969815000000004 29.969815000000004 29.969815000000004
29.969815000000004 29.969815000000004 35.919815
35.919815 12.119815000000001 24.019815
35.919815 18.069815 18.069815
35.919815 18.069815 24.019815
35.919815 18.069815 29.969815000000004
35.919815 18.069815 35.919815
35.919815 29.969815000000004 12.119815000000001
35.919815 35.919815 24.019815
16.888288000000003 15.355792000000001 39.998206
14.207315000000001 14.972406000000001 40.53963
13.032348 14.793484000000001 38.05550100000001
27.744561000000004 19.394804999999998 39.998206
26.630272000000005 21.863197 40.53963
26.131454000000005 22.941965000000003 38.05550100000001
32.861183000000004 19.234384 39.998206
32.992814 21.93943 40.53963
33.039801000000004 23.127013000000005 38.05550100000001
14.862515 25.197403 39.998206
15.216255 27.882448000000004 40.53963
15.360790000000001 29.062139000000002 38.05550100000001
27.206242000000003 13.294828 39.998206
26.896923 15.985353000000002 40.53963
26.750466000000003 17.164807000000003 38.05550100000001
16.733052 33.719949 39.998206
14.282159000000002 32.567679 40.53963
13.211222000000001 32.052263 38.05550100000001
34.235429 31.672428000000004 39.998206
32.311525 33.578521 40.53963
31.459662 34.407311 38.05550100000001
13.284217 20.964896000000003 39.998206
15.990115000000001 21.077662000000004 40.53963
17.177098 21.137927000000005 38.05550100000001
28.163173 31.559322 39.998206
26.422373 33.633982 40.53963
25.650191 34.537473 38.05550100000001
33.230524 28.784514 39.998206
32.797003000000004 26.111191000000005 40.53963
32.617411000000004 24.936326 38.05550100000001
21.476797000000005 28.754941000000002 8.041424000000001
20.837753 26.123170000000002 7.500000000000001
20.546836 24.970812000000002 9.984129000000001
28.669043000000002 21.738800000000005 8.041424000000001
26.169772000000002 20.695611 7.500000000000001
25.068858 20.247783 9.984129000000001
14.869974000000001 16.893175 8.041424000000001
15.212571 14.206686000000001 7.500000000000001
15.352211 13.026405 9.984129000000001
31.383031000000003 21.964316000000004 8.041424000000001
33.72021 20.596035 7.500000000000001
34.740386 19.98628 9.984129000000001
28.287314000000002 13.824342000000001 8.041424000000001
26.351241 15.718075 7.500000000000001
25.509177 16.556817000000002 9.984129000000001
33.917658 13.565687 8.041424000000001
32.458301 15.847108 7.500000000000001
31.826978000000004 16.854080000000003 9.984129000000001
25.253913000000004 26.490916 8.041424000000001
27.853516 27.250302000000005 7.500000000000001
28.997328000000003 27.573188000000002 9.984129000000001
34.731546 27.298534000000004 8.041424000000001
32.062724 26.838111000000005 7.500000000000001
30.889727 26.646695 9.984129000000001
13.295167000000001 32.730524 8.041424000000001
15.98362 33.057361 7.500000000000001
17.164699 33.190077 9.984129000000001
19.234936 21.139636000000003 8.041424000000001
21.939814 21.004599 7.500000000000001
23.126261 20.934566000000004 9.984129000000001
8.041424000000001 27.272932000000004 25.203920000000004
7.500000000000001 26.850752 27.879058
9.984129000000001 26.676143000000003 29.054674
8.041424000000001 19.245730000000002 14.875845
7.500000000000001 21.933324 15.209671000000002
9.984129000000001 23.114054000000003 15.345458
8.041424000000001 31.732611 34.292114
7.500000000000001 33.54898 32.283283000000004
9.984129000000001 34.338058000000004 31.394509
8.041424000000001 16.157650000000004 31.476810999999998
7.500000000000001 14.564041000000001 33.666562
9.984129000000001 13.873439000000001 34.633842
8.041424000000001 32.497817 13.338442
7.500000000000001 33.159314 15.96466
9.984129000000001 33.460062 17.114492
8.041424000000001 34.300796 28.1973
7.500000000000001 32.278956 26.395422000000003
9.984129000000001 31.384531000000003 25.612756000000005
8.041424000000001 27.154383000000003 13.289492000000001
7.500000000000001 26.909299000000004 15.986626000000001
9.984129000000001 26.812493000000003 17.171189
8.041424000000001 21.223510000000005 34.748345
7.500000000000001 20.963116 32.052646
9.984129000000001 20.838108 30.870725999999998
8.041424000000001 13.283107000000001 21.093488
7.500000000000001 15.990548 21.027418000000004
9.984129000000001 17.178394 20.987638000000004
8.041424000000001 28.778845000000004 32.625615
7.500000000000001 26.111768000000005 33.096039
9.984129000000001 24.943246000000002 33.313101
39.998206 20.017801 19.551531
40.53963 21.557975 21.77919
38.05550100000001 22.224977000000003 22.762893
39.998206 20.056525 16.614004
40.53963 21.527755 14.340223
38.05550100000001 22.182434 13.348277000000001
39.998206 25.676913 34.188916
40.53963 27.641698000000005 32.32499
38.05550100000001 28.511333 31.514868999999997
39.998206 33.984790000000004 25.510529
40.53963 32.436198 27.732344000000005
38.05550100000001 31.747776 28.701177
39.998206 21.7391 25.320712
40.53963 20.707776000000003 27.824903
38.05550100000001 20.245223000000003 28.919711
39.998206 16.479432000000003 31.775418000000002
40.53963 14.414679000000001 33.527957
38.05550100000001 13.501619000000002 34.288801
39.998206 28.422449999999998 28.111288000000002
40.53963 26.285008000000005 26.448176000000004
38.05550100000001 25.353657 25.709835000000005
39.998206 25.190365 21.213974
40.53963 27.886159 20.954561000000005
38.05550100000001 29.070191 20.851462000000005
39.998206 16.740417 14.335442
40.53963 14.284162 15.476236000000002
38.05550100000001 13.201736 15.967067000000002
39.998206 14.319927000000002 25.356462
40.53963 15.483879 27.801828
38.05550100000001 15.984916 28.879568
25.415440000000004 8.041424000000001 14.205868
27.778793 7.500000000000001 15.528427
28.810637 9.984129000000001 16.118222000000003
33.789397 8.041424000000001 34.548353