134_cspbbr3_4\134_cspbbr3_4.xyz
1.0
44.756956 0 0
0 44.756956 0
0 0 44.756956
Br Cs Pb 
240 112 64 
Cartesian
25.250235999999997 28.433484 13.325721999999999
25.435343 19.492487999999998 34.043713
31.211793999999998 31.412357 22.145798
13.271033999999998 16.48698 13.683488999999998
25.540197 25.232170999999997 10.418434
25.478658999999997 22.206598 13.432935999999998
22.297044 25.470705 13.286802999999999
13.515121999999998 19.290905 10.343145
13.449333 10.747998999999998 31.226637
25.364641 25.23784 16.56885
25.172451 22.219981 19.514307
22.564473 25.231074 19.298252
25.256027999999997 22.246846 25.269675
31.255575999999998 31.198394999999998 16.604347
22.137356 31.15972 13.460009999999999
28.261536 31.481483 19.543401999999997
13.337693999999999 13.207076999999998 34.256569999999996
25.298582 25.525687 28.134377999999998
25.562223 22.420759999999998 31.399706
22.306631999999997 25.535628999999997 31.475103
31.459366 28.290364 19.504378999999997
25.441225 25.536863 34.115025
10.600812 13.614778 31.128804
25.156383 31.206198999999998 10.675346999999999
25.299868 25.547937 22.551357
22.599211999999998 25.481028 25.438450999999997
25.094520999999997 16.349645 31.174915
22.240022 19.411348999999998 31.068346
13.547103 25.296277999999997 22.219407999999998
25.518159 10.327613 19.477566999999997
22.258577999999996 13.230656 19.296179
25.243854 13.333036 22.460465
25.463865 10.722135 25.358912
22.231315 13.473113999999999 25.177701
28.349707 31.182563 31.119664
10.393742999999999 19.280703999999997 19.275825
25.35787 13.339910999999999 28.167628999999998
25.242859999999997 10.331321999999998 31.159218
22.248838 13.557281 31.143435999999998
31.549321 28.333565999999998 31.369259
25.204897999999996 13.54876 34.326323
31.44842 31.249888 28.511875
31.217318 28.377589 25.550006
13.636567999999999 16.572965 19.421533999999998
25.247473 16.159957 13.37657
22.182281999999997 19.223933 13.314756
13.337169999999999 19.424166 16.672712
25.337131 19.589302999999997 16.359246
25.334146999999998 16.619324 19.246351999999998
22.594357 19.304484 19.426731999999998
34.40739599999999 31.429081999999998 25.480000999999998
25.489718 19.553915999999997 22.241141
25.524711999999997 16.312751 25.138695
22.258022 19.529380999999997 25.496481999999997
28.451696 31.148637 25.386643
10.664745 19.316377999999997 13.605882999999999
25.442805 19.276871 28.208923
25.205405 31.093638 16.305125
25.206048999999997 19.596988999999997 10.473818999999999
25.161534999999997 28.355276999999997 19.440608
13.624376999999999 22.346458 25.427677999999997
13.413217999999999 13.585749 28.591082999999998
31.242935 10.224556 31.440488
28.48341 13.420012999999999 31.208807
10.657573 13.276971999999999 19.250485
31.107528 13.486549 34.454263999999995
13.58258 10.633852 19.491519
31.401452 19.238652 10.414667
31.462877 16.532427 13.418669999999999
28.313765 19.429809 13.257546999999999
13.687684999999998 13.640529999999998 16.432805
31.091654 19.543949 16.468533
31.147419 16.377811 19.567418999999997
28.348912 19.333023999999998 19.182455
28.204038 25.495293999999998 25.506415
31.481693 19.572573 22.504158
31.293972 16.228087 25.25389
28.265276 19.214401 25.187178
31.469144 22.454615999999998 25.498395
31.131398 19.322231 28.501701999999998
31.376549999999998 16.210010999999998 31.258575
28.154137 19.22452 31.151514
31.359502 25.444008999999998 22.139022999999998
31.167854 19.534197 34.159133
10.525756 13.325028 13.655187999999999
13.287519999999999 10.37069 13.602101999999999
31.213148999999998 25.199229999999996 10.609478
31.19069 22.50038 13.356817
28.465422999999998 25.458447 13.589445
13.681562999999999 13.524033 10.535264999999999
31.078822 25.441326 16.321347
31.229497 13.649859 28.475468
22.228315 31.462985 19.584442
31.505415 25.467222 28.475702
31.454425999999998 10.324756999999998 25.190834
31.53153 31.184355999999998 34.130027
25.578514 31.337782 22.23944
25.136137 28.297639999999998 25.167981
22.206475 31.367372 25.443769
34.166639 31.445107999999998 31.15374
25.406229 31.129973 28.132331999999998
25.086997999999998 28.286196999999998 31.253866
22.474307999999997 31.468042999999998 31.448078
28.087211 31.34872 13.402632999999998
25.53251 31.423588 34.464955
31.125387 28.482309 13.449362999999998
25.499868 34.127669 13.338324
31.396950999999998 31.156357 10.590255999999998
25.210443 34.379497 19.297617
10.344807 13.415738999999999 25.497456
25.17243 34.10517299999999 25.411312
25.150977 34.448167999999995 31.424460999999997
31.232226999999998 25.139703 34.236352
13.442581999999998 10.582778 25.531083
31.179667 13.203772999999998 10.418536
31.416849 10.524892999999999 13.641974
28.550269 13.370982999999999 13.414662
28.413811 25.194819999999996 31.353595
13.217234 13.560213 22.428929999999998
31.342192999999998 13.424195 16.678303
31.481998 10.597344999999999 19.342901
28.263865 13.587026999999999 19.621955
31.359025 22.496396 31.509966
31.595187 13.462814999999999 22.40828
28.468155 13.428985999999998 25.091091
22.47416 13.311989999999998 13.526209
25.424258 13.630075 16.483400999999997
25.466356 13.206451 10.503416999999999
34.457829000000004 19.27126 31.122723
34.217636999999996 31.574890999999997 13.53575
19.594181 13.387535 16.576173999999998
19.41748 10.640837 19.289421
16.310503999999998 13.425671 19.570929
10.404461 25.288121999999998 13.178246
19.323925 13.613933999999999 22.548283
19.224822999999997 10.468983 25.510991999999998
16.247761999999998 13.447263999999999 25.210127
34.393901 19.549153 25.441546
13.446579999999999 22.578250999999998 13.577138
19.576659 13.237616 28.261483
19.392909999999997 10.274040999999999 31.133202
16.338789 13.712212 13.393336999999999
16.444505 13.444139 31.53039
13.337129999999998 25.314559999999997 10.63145
19.430891999999997 19.211884 10.278364999999999
19.638635999999998 16.417184 13.626128
16.48432 19.540204999999997 13.646134
34.475691999999995 19.550557 19.369342999999997
19.591359999999998 19.388654 16.623578
19.327184999999997 16.29992 19.149902
25.551886 10.462102999999999 13.630474
19.462318999999997 19.201466999999997 22.244024999999997
19.143113 16.547164 25.441278
16.247759 19.241918 25.400926
34.48025799999999 19.465101999999998 13.548725999999998
13.509008 19.243959999999998 34.501166999999995
19.522423 13.324402999999998 34.08065499999999
19.619493 19.360407 28.151730999999998
19.572767 10.664088999999999 13.506224999999999
13.581233 34.439588 31.405248
10.417487 25.546801 25.253483999999997
13.333120999999998 25.542205999999997 28.138689
13.664821 22.224864999999998 31.439176
10.321043 25.526396 31.170095999999997
34.386990999999995 25.302744 31.468676
13.485508999999999 25.602914 34.279512
13.504023 31.122275 10.259410999999998
13.642059 28.406402999999997 13.543714
10.707567999999998 31.354785 13.583573999999999
34.150294 25.566121 25.295768
10.385204 25.512395 19.384237
13.307744 31.436411 16.563319
13.604773999999999 28.337661999999998 19.211817999999997
19.215553 13.611068999999999 10.313657
10.507116 31.232025 19.153001
13.292776 31.264992 22.217429999999997
13.365431999999998 28.238885 25.212025
10.628784 31.196426 25.220308
34.139551999999995 25.547661 19.268477
13.563028 25.343479 16.27884
13.624066 31.135223 28.239423
13.551357999999999 28.187935 31.221543
10.359110999999999 31.459093 31.242887
13.547673999999999 31.502944 34.082486
13.562455 34.115425 13.310146999999999
34.225285 25.497113 13.581328
13.601935 34.164165 19.345825
13.660813999999998 34.228623999999996 25.43257
13.261111 22.232716 19.238564
19.490967 16.426114 31.114354
16.309476 19.230276 19.379202
19.507993 31.117357 16.2947
19.543848 31.517576 10.462789999999998
19.278425 28.293644999999998 13.613135999999999
16.64246 31.282442 13.304701
34.191783 13.440532 13.291051999999999
10.332341999999999 19.242396 25.317575
16.419372 19.417677 31.505497
19.544821 28.347611999999998 19.573748
16.277437 31.113839 19.533951
31.234182 22.235767999999997 19.259933999999998
19.257669 31.214333 22.569050999999998
19.30999 28.196472999999997 25.491277999999998
16.337241 31.488394 25.161145
34.039208 31.396725999999997 19.50245
31.475291 34.09966299999999 31.276426999999998
19.606886 31.228789 28.516163
19.260091 28.222786 31.373324
16.543823 31.156737 31.088162999999998
19.459934999999998 31.457470999999998 34.146619
31.324934 34.165419 25.530407999999998
19.24982 34.49172899999999 13.56876
19.251389999999997 34.365493 19.469136
31.418215 34.15527399999999 19.492411999999998
19.314566 34.36699 25.208794
19.23869 34.52803299999999 31.317995
31.45087 34.327247 13.547526
13.607135 19.473665999999998 22.214554
13.686889999999998 16.577791 25.400736
19.555227 25.413771999999998 34.14170299999999
28.410439 25.537347999999998 19.301379
13.582951999999999 19.540564 28.313392999999998
13.475677999999998 16.572405999999997 31.179237999999998
19.296944999999997 25.573465 16.465235999999997
34.28450699999999 13.250691 19.491162999999997
19.484533 22.483840999999998 13.30505
19.60701 25.538673999999997 10.585996
19.446695 22.521367 19.149232
16.233831 25.456244 19.259409
34.38018699999999 13.593160999999998 25.172983
19.232978 25.261253 22.551499
10.627688 19.343404 31.161088
16.521736999999998 25.528892 13.538597
19.643542 25.362233 28.256408
34.151483 13.535153999999999 31.171623999999998
19.367259 19.281456 34.467648
16.573752 25.307320999999998 25.571130999999998
16.350058999999998 25.197816 31.506659
19.344216999999997 22.459979 25.104725
19.264748 22.369515 31.47108
28.436394999999997 33.965045 22.137407
34.55146499999999 28.437715999999998 16.753601
34.13874 22.705139999999997 34.544516
34.646934 34.183801 16.283040999999997
27.799712 34.105791999999994 16.391694
28.380619 34.495616999999996 10.880249999999998
34.549898 28.033576999999998 22.407117
33.984154000000004 28.287869999999998 10.748047999999999
33.98809299999999 22.414855 28.71401
34.454334 15.855799 16.396881
27.951812 28.191197 33.925264
28.596631 22.658894999999998 22.474224
34.68200999999999 16.428187 28.188333
28.564716 28.556075999999997 16.634759
33.990455 22.396728999999997 22.688857
28.81054 22.563824 34.403785
33.920247 10.609955 16.374259
27.953179 28.084162 10.841971999999998
33.983209 10.153317999999999 22.437422
34.440433999999996 16.635056 34.590999999999994
34.585279 22.229229999999998 10.245370999999999
28.248461 28.006306 28.541821
33.920497999999995 28.453889 33.83671799999999
27.978772 34.355182 34.082257999999996
34.39000899999999 22.118745999999998 16.073985999999998
34.368579 16.097324999999998 22.008858999999998
28.427543 28.015352 22.147538
34.518232 28.496966999999998 28.5613
27.991122999999998 22.593318 28.374634999999998
28.022551999999997 34.659076999999996 28.487354
33.786153999999996 10.836084 28.361368
34.329245 15.941326 10.827409
22.036376999999998 10.027811999999999 34.498205999999996
28.29461 22.955030999999998 10.296854
16.836433 10.821822 16.252260999999997
16.79006 10.433858999999998 22.195518
16.94556 10.38098 28.49352
16.596129 16.800342999999998 10.880771
16.782967 16.579031999999998 16.305577999999997
16.166667999999998 16.493011 22.897268999999998
16.174166 16.653259 28.092297
16.165281999999998 10.463335999999998 10.07941
16.678850999999998 16.239649 34.509343
16.315752 22.848529 16.745237999999997
16.180492 22.569236999999998 22.674941999999998
16.833192999999998 22.488729 27.935468999999998
16.745295 22.043035 34.564690999999996
16.081595999999998 28.045212 10.192703
16.777561 28.557361 16.064662
16.378935 28.152162 22.058390999999997
16.566544999999998 21.924573 10.659495
16.714054 28.273948999999998 28.604288
10.974514999999998 34.23124299999999 28.444145
10.412799999999999 28.177303 34.836073999999996
10.512526999999999 10.960241 16.148432999999997
10.874839999999999 10.415572 22.665868999999997
10.749730999999999 10.190126 28.402981999999998
10.178415999999999 16.809995999999998 10.683827999999998
10.046968 16.228747 16.803611999999998
10.951367999999999 16.664392 22.597717
10.334745 15.903555999999998 28.497023
10.799945 34.27094699999999 16.603682
10.377078999999998 22.457182999999997 10.112132999999998
10.996984999999999 22.116645 22.314668
10.496269999999999 22.053698999999998 27.912492
10.789124 22.713164 34.11185499999999
10.135912 28.054316 10.854479999999999
10.064107 28.499986 16.526435
10.284377999999998 28.098433 22.645568
11.023580999999998 28.523865 28.320290999999997
10.789565999999999 22.223879999999998 16.659817
28.746985 22.247504 16.075711
16.712138 28.709553 34.394504999999995
16.148853 34.439184999999995 16.171221
22.403026 27.957788 28.280784999999998
22.425701999999998 28.457159 34.836366
22.702614 34.627336 10.583169
22.469145 33.77423499999999 16.705723
22.191050999999998 33.75684 22.343293999999997
22.046499999999998 34.40791299999999 27.849777
21.941408 33.91864799999999 34.09848099999999
22.491612999999997 28.614372 22.018739999999998
28.102721 10.797452 10.296508999999999
28.384038999999998 10.847544 22.344444
28.299491 10.050965999999999 28.686515999999997
28.737206 10.772172999999999 34.414697000000004
28.050613 16.411106 16.746256
28.574037999999998 16.890131 22.16777
28.288152999999998 16.013790999999998 28.178058
28.175538 16.157847999999998 34.006372
28.305847999999997 10.902997 16.360214
16.232293 34.548749 10.743217999999999
22.505171 28.675736 16.765169
22.665276 22.627259 28.551883
16.742566 34.719454999999996 22.379363
16.371007 33.974197000000004 28.053483
16.687044 34.617496 34.427938
22.155801 10.191405999999999 10.296028999999999
22.186077 10.264888 16.666959
22.643573 10.240440999999999 22.065023999999998
22.005412 10.679490999999999 27.985536
22.460024 22.021027 34.414193
34.492993999999996 34.148382999999995 22.083659
22.239399 16.972749999999998 16.201594999999998
22.090726999999998 16.155876 22.627391
22.447087 16.915428 28.544821
22.252554 16.095413 34.627759999999995
21.834889999999998 22.447595 10.447913
22.424136 22.247933999999997 16.072483
21.981347 22.684609 22.712923
22.123533 16.198839999999997 10.810452
34.15101899999999 34.726524999999995 28.332767999999998
13.177278 13.643694 13.415871999999998
25.126202 19.57393 13.466124999999998
25.406499999999998 13.67776 31.511781
25.164112999999997 13.704631 25.501796
25.504248 13.240704 19.582127
25.197821 13.762699 13.418295999999998
19.575309999999998 31.47216 31.088334
19.470004 31.023885 19.271797
19.52531 31.145532 13.325216999999999
19.381942 25.524918 31.159938999999998
19.329885 25.33013 25.590638
19.479128999999997 25.340622999999997 19.649762
19.272432 25.536395 13.371186999999999
19.071535 19.334951 31.37006
19.293453 19.408437 25.114911
19.581549999999996 19.148204 19.275021
19.152205 19.364543 13.42756
19.263471999999997 13.289157999999999 31.122588999999998
19.565115 13.607159 25.269921999999998
19.220377 13.680692999999998 19.211974
19.133951 13.460897999999998 13.659918999999999
13.573834999999999 31.510241 31.546727999999998
13.727552 31.199529 25.490264999999997
13.448972 31.075817 19.5488
31.273359 31.481119 31.474988
13.430985 31.314339999999998 13.725922999999998
25.622423 19.579956999999997 19.29275
25.101717999999998 19.528572 31.220595
31.336226 25.383292 19.169452
31.38319 25.440181999999997 13.241954999999999
31.018252999999998 25.54434 25.475922
31.2272 19.142763 31.53203
31.193319 19.251299999999997 25.485104
31.540195 19.443707999999997 19.409695
31.177307 19.511509 13.159987
31.244595 25.126825999999998 31.527603
31.505433 13.589697 31.454268
31.489845 13.479963 25.058583
31.17737 13.373919999999998 19.586353
31.033286 13.254228999999999 13.353273
31.519430999999997 31.280207 13.535418
25.233763 31.110488 31.094184
25.092274999999997 31.189515 25.529025
31.205201 31.470135 19.254821
25.479460999999997 31.625871999999998 19.497372
25.404506 31.617608 13.423513999999999
25.130761 25.43264 31.289861
25.515488 25.321209999999997 25.138164
25.183784 25.405168999999997 19.231938
31.570783 31.167313 25.149252999999998
25.57317 25.327229999999997 13.234763
25.588275 19.158188999999997 25.306729999999998
13.256471999999999 25.145566 31.456353999999997
19.309447 31.512567999999998 25.491175
13.1313 13.487663999999999 31.441319999999997
13.607266 19.22664 31.027003
13.672529999999998 19.304429 13.382698
13.614311999999998 19.321422 19.608614
13.449670999999999 13.620887 19.223339999999997
13.348320999999999 25.372716999999998 19.672563999999998
13.621450999999999 13.647927 25.225666
13.472316999999999 19.250823999999998 25.13209
13.399521 25.50796 25.181371
13.623667 25.390294 13.614678999999999
