125_cspbbr3_3\125_cspbbr3_3.xyz
1.0
38.79703 0 0
0 38.79703 0
0 0 38.79703
Br Cs Pb 
108 54 27 
Cartesian
25.499848 13.485916999999999 16.583845
22.308998 13.602840999999998 13.296264999999998
28.472479999999997 13.346468999999999 19.362012
25.314912 10.236028999999998 13.358581999999998
25.409511 13.618841999999999 10.465679999999999
28.17862 13.532718999999998 25.232805
19.294544 28.560063 25.226618
28.346304 19.575916 13.471105
19.286409 28.4806 19.390805
19.475924 28.486390999999998 13.628483
19.541829999999997 25.587775 28.433788999999997
22.402051999999998 25.594645 19.41029
25.519976 10.623928999999999 19.4684
19.554502999999997 25.461163 22.381667
28.276645 19.21508 19.550922
16.574317999999998 25.380831999999998 19.250031
19.26547 25.560839 16.489137
28.145834999999998 19.203279 25.208658
28.221729999999997 25.363044 13.684390999999998
16.268487 25.486373999999998 13.387049
19.567729 22.444524 13.376957999999998
19.291665 25.438373 10.666970999999998
28.279567999999998 25.487662999999998 19.535418
28.315085999999997 25.491957 25.50609
16.240437999999997 25.405248 25.354452
19.595337 22.167924 25.412179
22.517612 13.597119 19.280195
25.521613 28.240683 25.533417999999998
25.538013999999997 22.353591 19.328287
25.388478999999997 25.219994999999997 16.268614
25.217810999999998 25.190869 22.330013
22.286628999999998 25.499752 13.348571
25.26307 22.209809999999997 13.321627
25.361744 25.62733 10.369693999999999
25.466130999999997 22.428083 25.177884
25.151111 19.435057999999998 28.543134
22.189 25.124048 25.334355
22.47603 19.383983 25.582344999999997
25.479824 16.432184 25.205551999999997
25.428472999999997 19.390881999999998 22.644565999999998
28.492973 13.258676999999999 13.549881
25.204756 25.508538 28.147562999999998
25.510685 16.573038999999998 19.282835
25.196297 19.502648 16.417970999999998
19.220095 19.360667 28.485514
25.227274 28.159198 13.534552999999999
22.341168 19.249205 13.290887
25.268017999999998 16.234391 13.595714999999998
25.495716 19.528965999999997 10.275479999999998
25.196997 28.413536999999998 19.279325
25.466814999999997 13.254316 28.401515999999997
22.603997999999997 13.605395 25.367125
25.576228999999998 10.509096 25.37104
25.485213 13.474739999999999 22.179229999999997
22.241253 19.246114 19.578362
16.353331999999998 19.135202999999997 25.322789
19.411256 22.240107 19.601096
13.237323 25.450255 16.320083
13.498869999999998 16.498048999999998 19.204258
13.332365 13.310521999999999 22.585797
13.615908999999998 28.512196 25.480998999999997
13.424401 28.170890999999997 19.574915999999998
13.502861 28.503995 13.27719
13.272461 10.428284999999999 25.239176999999998
13.203053999999998 25.243693 28.311525
10.606798 13.328852 25.485501999999997
10.592759 25.181905999999998 25.432606
13.393804 22.138776999999997 25.454628
13.277192 25.254801999999998 22.216948
13.272222 13.397912999999999 28.110225
19.256397999999997 10.675462 13.368929999999999
10.450482999999998 25.410297 19.640572
19.533414 16.567605 25.189451
10.385601 25.163919999999997 13.500806999999998
13.538856999999998 22.379722 13.237495999999998
13.316092 25.469585 10.682820999999999
13.559963 19.504553 28.496935999999998
13.412697 19.272664 10.603071
13.588655 16.219949999999997 13.412462
10.333877 19.243394 25.395121
13.200306 16.558937 25.342765
13.451428 19.19066 22.294887
10.646109999999998 19.244947 13.599861999999998
10.695274999999999 19.548538999999998 19.305217999999996
13.557507 22.341217999999998 19.538120999999997
16.229511 13.325133999999998 13.599889999999998
19.259953 13.284820999999999 10.450712
19.554594 13.305603999999999 28.226209
19.544946 19.459353999999998 22.227793
13.169072 13.476396 10.481428
16.312416 19.54583 19.604554
19.502498 16.406588 19.588639999999998
19.549995 19.26923 16.44701
13.615177999999998 10.355002999999998 13.455409999999999
16.609092999999998 19.491348 13.623458
19.460928 16.638866999999998 13.276596
10.608806 13.659476999999999 13.525587999999999
19.369248999999996 19.393275 10.284144
19.543084 13.557763999999999 16.407187
16.649887 13.441035 25.168644
13.487713999999999 19.582728 16.626195
19.524212 10.364102999999998 25.167589999999997
13.317469999999998 13.564644 16.658696
19.278658999999998 10.618753 19.296362
19.582703 13.471651 22.305234
16.362873999999998 13.217830999999999 19.256698999999998
10.360515999999999 13.562323 19.489409
13.363181999999998 10.583858 19.576361
28.522734 16.606257999999997 22.770561999999998
10.878226999999999 10.084831 22.587182
10.78723 16.414019 16.619464
28.565756 22.564329999999998 27.952299999999997
28.557676 10.182963999999998 16.397177
27.90917 22.273601 22.610377999999997
28.80033 16.261927999999997 10.510962
28.067206 22.122447 16.285814
21.950798999999996 28.061895 22.657978
27.902366999999998 16.221244 16.790757
10.266585 16.26636 10.740791999999999
22.406532 28.753814 10.855464999999999
22.003113 28.479899 28.727352999999997
28.250998 22.808723 10.252146
22.039127999999998 28.156233999999998 16.46211
28.059627 16.737859 28.271425999999998
10.315952 10.370712 16.794455
22.542391 21.845315 28.181627
28.005473 10.351636999999998 21.879644999999996
16.650126 16.341364 28.743571
10.608923999999998 16.721426 22.18689
16.215136 22.13523 10.192253999999998
16.343719 16.802042999999998 22.335074
16.84214 22.737561 16.263638999999998
16.18972 16.726053999999998 16.144479999999998
28.499768 28.039724 16.247403
16.224404 22.211492999999997 21.907511999999997
16.800567 16.649611999999998 10.587532999999999
16.726723 10.786537 28.034029999999998
16.760738 22.444606999999998 28.674704
16.661181 27.960027 10.665926999999998
16.198082 28.365909 16.848171
16.316048 28.351571 22.73908
16.42418 10.81711 22.206637
16.366148 27.955776999999998 28.221415999999998
21.97381 10.455003 10.576545999999999
16.880352 10.631184999999999 16.196291
22.147596 10.734183999999999 16.250692
21.962578999999998 22.101511 16.103838
10.717687999999999 16.176046999999997 28.441043999999998
22.435958 21.969828999999997 10.616005
22.787661 16.104928 28.070652
10.544478999999999 22.484268 16.872616
22.686982 16.694656 22.52163
22.311639 22.749021 22.541019
10.690387 22.026114 22.686706
10.0033 22.302971999999997 27.967599
22.437648 16.887089 10.697427
22.393652 10.745997 28.760426
10.771902999999998 28.195375 16.867476
22.449562999999998 10.535509999999999 21.853143
16.778423 10.251143999999998 10.623786999999998
22.813366 16.781276 16.515904
28.022885 27.984786 22.345475999999998
13.649498999999999 13.374379 13.248645
25.50554 25.309023 13.608184
13.532594999999999 25.344104 13.747513
25.291021999999998 19.629789 25.352835999999996
13.231881999999999 25.369372 19.495184
13.211533 25.242258 25.558729
25.294964 19.207707 13.664290999999999
25.240792999999996 13.678814 25.232965999999998
19.44871 13.244933 13.667786999999999
13.638067999999999 19.550548 25.507305
25.192182 13.341396 19.208945999999997
25.55339 13.423193 13.570062
19.081483 13.582778999999999 25.406568999999998
19.247332999999998 19.22479 13.423956999999998
19.306949 25.036192999999997 25.241093999999997
19.149016 25.384464 19.242739999999998
19.650854 19.515727 19.508921
19.291279 25.392968 13.771141
19.370608999999998 19.559921 25.526944
19.144084999999997 13.511824999999998 19.411448
25.288522999999998 25.590640999999998 19.627186
25.545634999999997 19.301766999999998 19.686027
13.695751 19.620049 19.27206
13.242261 13.611569999999999 25.321356
25.609738999999998 25.369886 25.470928
13.202452 13.417095 19.516956999999998
13.671810999999998 19.263889 13.676931999999999
