1_train/38_cspbbr3_methylammonium_3_0.50\38_cspbbr3_methylammonium_3_0.50.xyz
1.0
41.888509 0 0
0 41.888509 0
0 0 41.888509
Br C Cs H N Pb 
108 23 31 138 23 27 
Cartesian
24.0492685 15.0358095 20.7544035
26.926124499999997 11.8747315 20.7113915
27.007364499999998 15.0834555 17.7439695
29.8520105 14.8313855 26.991703499999996
29.6946355 20.7946495 15.145389499999999
24.1169885 15.150126499999999 15.139712499999998
26.988396499999997 12.2479325 14.937223499999998
26.8267555 14.8308255 11.9149435
29.726888499999998 20.8149445 21.0260505
20.9566235 30.003016499999998 26.7080765
30.0109325 20.932487499999997 26.6676565
20.991183499999998 30.0213845 14.906452499999999
21.1357695 26.9325855 29.9212405
21.1607855 23.8360935 26.8705065
20.9749115 26.6581055 24.001114499999996
30.0217115 26.8512485 14.880084499999999
17.8378935 26.672091499999997 20.8425175
20.928958499999997 23.829202499999997 21.1290585
29.750866499999997 27.0293315 21.0087725
21.078296499999997 26.8084505 18.081131499999998
29.638913499999997 26.7362035 26.7875415
18.0908045 26.9488535 14.8206095
20.809274499999997 29.696239499999997 21.0069095
30.0484065 14.847370499999998 20.9963285
23.7429575 26.8582345 21.087708499999998
26.9895595 26.7702725 23.7711565
27.0965595 23.9062365 21.0876995
26.7053795 26.8082215 18.0524345
26.7300485 24.0390795 26.841512499999997
24.1114085 26.9344835 14.8687195
26.8022295 23.717612499999998 15.114473499999999
23.8438515 26.7136265 26.9936695
26.8876805 26.6723465 11.888207499999998
26.8265905 26.758566499999997 30.0422975
26.7824075 21.0928865 29.9768455
24.0565885 21.1452255 26.993104499999998
26.800333499999997 17.755573499999997 27.0669975
26.7022265 21.0890615 23.985700499999997
26.9411265 30.062727499999998 14.826359499999999
23.8193125 20.7329325 20.8367945
21.0988055 24.1271345 15.009765499999999
27.092868499999998 18.037681499999998 21.0301415
27.0392165 21.0130765 18.1832215
27.0429605 29.765911499999998 21.1256595
23.774807499999998 20.877546499999998 15.167156499999999
26.840977499999997 17.8412675 15.114105499999999
27.1064715 21.0578905 12.053529499999998
27.0761335 29.8253225 27.0359055
26.9726455 14.837040499999999 29.6816525
23.7044005 14.8786305 26.919341499999998
30.0191835 15.2457955 14.9503165
26.7094775 14.806322499999998 23.9961745
26.746484499999998 11.9831045 26.6909885
18.045236499999998 26.7161245 27.018334499999998
21.1376955 21.131866499999997 29.8705905
15.167099499999999 26.952744499999998 29.8462185
12.194362499999999 26.8435575 26.8887315
15.188404499999999 24.1042395 26.9065435
14.837273499999998 26.724102499999997 23.848995499999997
12.125211499999999 26.801017499999997 21.1073745
15.213535499999999 24.025905499999997 20.9694405
14.745758499999999 26.8535835 17.842391499999998
11.975754499999999 26.8122445 15.197248499999999
15.2443625 23.7833275 14.9847665
14.7378685 27.0129555 12.0122945
20.8953335 27.084724499999997 11.9556595
12.1483455 21.0563945 26.7009765
15.257568499999998 18.012676499999998 27.017496499999996
14.9706725 21.061300499999998 23.6869045
14.867607499999998 29.9999055 14.835905499999999
12.1711765 21.0382285 20.834006499999997
14.962313499999999 20.7818985 17.8611035
12.120941499999999 20.7780175 15.1143735
15.2588175 17.992056499999997 14.885007499999999
15.104781499999998 20.890849499999998 12.187609499999999
14.8980985 14.858707499999998 29.7487495
11.9122995 14.803253499999999 26.935380499999997
14.796235499999998 11.895271499999998 26.959150499999996
15.2271945 15.0792355 23.8860925
12.1976415 14.912341499999998 20.783892499999997
15.125203499999998 12.180745499999999 21.0007105
14.912509499999999 14.879192499999998 17.8385145
12.2703405 14.8304035 14.988359499999998
15.148595499999999 12.078844499999999 14.9127365
14.753919499999999 14.978012499999998 12.047982499999998
15.0095105 18.0193855 21.157105499999997
14.9009845 29.7033465 21.1192845
14.898557499999999 20.8304285 29.738421499999998
17.7420035 20.7974585 20.827798499999997
21.0508585 15.1182795 29.7713365
17.8214215 14.766008499999998 26.8389785
21.1017585 12.204661499999998 26.8963565
20.8332055 14.825903499999999 24.0519905
21.1001675 20.7167915 11.906246499999998
21.000917499999996 20.8578925 23.710495499999997
21.0969515 18.0779385 15.134039499999998
17.743640499999998 14.875029499999998 20.8502585
21.1248015 18.1579135 21.031992499999998
20.8006015 12.1816275 21.1326315
20.9326005 17.8499345 26.6489855
20.955964499999997 21.1048035 17.877754499999998
17.9280905 21.1359065 27.0298635
18.0979405 14.8060985 14.8622065
20.9840925 11.971947499999999 14.786023499999999
17.730154499999998 21.121457499999998 15.031003499999999
20.8550985 15.164107499999998 12.173561499999998
15.152816499999998 30.0259195 26.805334499999997
20.8341485 15.070169499999999 17.7391555
23.9741625 31.3136865 18.0110035
17.974718499999998 18.0402125 31.3710345
11.027445499999999 17.9631945 30.8305865
23.8608535 10.578277499999999 18.0271285
10.9791195 23.8955845 30.8363105
31.421280499999998 17.9749855 23.8580875
17.9705655 30.8473895 30.866431499999997
30.8539325 18.0162545 10.9177515
30.8460395 10.944066499999998 17.9493555
10.486158499999998 17.9721975 17.8804365
17.922441499999998 31.3026265 23.9564445
30.8989925 18.0482685 30.957883499999998
31.4044885 23.984485499999998 23.9762225
23.8376745 17.983099499999998 10.563680499999998
17.9926435 10.593693499999999 17.9018825
17.9956735 31.408046499999998 18.021056499999997
17.9033995 10.991038499999998 30.8700115
30.9872835 23.9449195 30.8998895
18.0249675 23.9551925 10.486497499999999
23.978169499999996 10.894223499999999 30.9528955
10.9615415 11.020120499999999 18.0267885
11.037611499999999 23.932265499999996 10.9343215
31.4054245 23.9335755 17.9188695
23.610891499999997 30.2483555 30.0925445
17.8269925 23.5483895 23.7308085
11.781751499999999 30.0364215 18.299777499999998
11.691879499999999 11.746621499999998 24.250542499999998
17.6344325 18.0409345 18.3720695
17.5834155 18.277447499999997 24.146886499999997
30.3500895 23.9412055 12.0782365
17.6702445 23.7933195 18.3066135
29.571412499999997 30.3814465 17.8528625
29.849102499999997 29.9358705 23.406348499999996
30.185926499999997 12.153692499999998 23.5613255
12.2796805 18.1760885 11.649586499999998
23.9357285 30.198348499999998 24.2289535
24.321857499999997 18.074340499999998 23.874943499999997
23.7804555 30.1142985 12.278399499999999
18.3065095 11.883543499999998 11.7720565
24.2763195 17.9828515 17.707320499999998
24.3343875 12.235185499999998 23.6980235
12.3841705 24.0439355 23.742384499999996
11.770261499999998 24.149765499999997 17.696606499999998
24.2307545 18.3259215 30.0539095
24.2008615 23.6647875 12.296096499999999
18.3565285 12.1090135 23.5056825
24.318471499999998 11.928668499999999 12.162556499999999
18.1849475 18.077758499999998 11.482904499999998
12.1680955 17.7252385 24.3776825
23.5546835 23.750796499999996 24.042872499999998
18.299272499999997 29.513488499999998 12.3023435
17.565869499999998 23.855792499999996 29.7603495
23.4355695 23.864707499999998 30.1781395
24.0043345 24.3562405 18.0678275
29.4865715 23.5058775 18.825932499999997
29.4623705 23.4214965 24.735425499999998
31.6895655 22.8867205 23.877429499999998
31.700249499999998 24.454506499999997 24.8400815
29.4593275 23.425662499999998 23.101953499999997
29.449896499999998 24.8699415 23.9167285
23.2711985 18.8058305 10.238607499999999
31.6494295 24.462192499999997 23.0402685
12.3236265 22.9993065 12.215216499999999
29.4957335 16.982383499999997 29.7216465
17.1220325 24.2993705 12.424324499999999
12.390559499999998 17.6538145 17.0220095
18.7563945 31.7215475 24.621929499999997
18.1634735 31.682176499999997 22.932381499999998
16.988041499999998 31.640085499999998 24.2434035
17.2744915 29.4625025 23.2733325
29.4670205 23.4098255 17.137583499999998
17.7842955 29.4962295 24.9022005
29.504257499999998 24.8523595 17.9588905
30.4478925 17.620934499999997 31.8174285
31.7560555 17.3005455 30.594810499999998
31.238321499999998 19.000189499999998 31.012431499999998
30.2396715 18.3425995 28.9365725
29.102486499999998 18.5854865 30.1245285
18.892494499999998 29.487636499999997 23.5757485
24.9056115 18.139062499999998 10.2092365
17.4796025 10.231402499999998 17.0391335
24.4821565 17.2193835 12.4087795
18.0389095 9.988594499999998 30.438854499999998
17.2266685 11.8743755 29.188553499999998
18.870323499999998 12.0309105 29.347018499999997
17.895289499999997 12.935775499999998 30.3075345
31.000870499999998 22.861876499999997 31.2637595
31.8257785 24.2910165 30.438004499999998
16.9978925 11.024941499999999 31.460859499999998
30.5686045 24.5849725 31.7344135
28.9480945 23.585875499999997 30.2705715
30.1531295 23.328873499999997 29.0729445
10.1827145 16.9675075 17.768185499999998
10.1945255 18.2575205 18.959355499999997
10.185257499999999 18.637658499999997 17.218369499999998
12.3585935 18.8888195 18.1719495
29.7349055 24.8427895 29.4551895
18.7893675 11.1426305 31.589809499999998
31.6702525 24.380733499999998 17.0745225
18.709345499999998 29.5169945 18.633031499999998
22.9872355 17.8056685 12.427828499999999
24.2433205 18.8775075 12.427551499999998
31.7007545 22.8862085 18.036281499999998
18.0717695 22.9985705 12.412022499999999
19.010311499999997 10.1832675 17.9551765
17.441971499999998 10.188884499999999 18.8370745
18.4500085 12.367113499999999 18.8206715
17.0236825 12.378902499999999 17.983479499999998
18.4327805 12.3900665 17.124166499999998
31.661181499999998 24.455260499999998 18.8191205
17.730569499999998 31.6901945 19.0082535
18.949046499999998 31.7119645 17.673540499999998
17.211034499999997 31.656408499999998 17.2940255
18.177486499999997 29.4756265 17.058200499999998
17.0411915 29.4782045 18.232788499999998
23.552345499999998 17.0318465 10.186230499999999
18.7202515 24.4558485 12.3669245
29.363400499999997 12.062918499999999 17.1127635
17.8362415 24.9209665 10.216545499999999
29.4686435 18.667378499999998 23.2992145
29.5072805 18.155119499999998 24.8282245
29.4673175 17.034415499999998 23.6545285
10.0679965 24.2883885 30.4545985
10.802928499999998 22.8883515 31.274299499999998
11.347913499999999 24.5440875 31.702232499999997
31.7047255 18.9759845 24.2663525
12.8949305 23.5287035 30.2112145
11.727953499999998 23.364533499999997 29.0730765
12.518967499999999 12.061952499999999 18.8467935
31.201462499999998 19.013460499999997 10.7704235
31.7569525 17.372873499999997 11.2994235
30.5024385 17.5518635 10.054127499999998
29.506555499999997 16.9949065 12.223920499999998
12.222989499999999 24.8474885 29.5072935
31.6560165 17.7182085 22.8899645
31.6501865 17.2076925 24.594962499999998
23.7670675 12.418788499999998 18.9303295
11.6320375 24.326495499999996 12.9184735
12.8070715 24.480469499999998 11.700090499999998
11.415249499999998 23.522412499999998 10.089993499999999
24.3834475 11.362922499999998 31.783236499999997
22.9133715 10.7462375 31.1393655
24.428111499999996 10.0886795 30.539758499999998
23.434868499999997 11.724527499999999 28.9941805
24.9086095 12.3208785 29.6234775
23.446615499999997 12.8832385 30.2061715
10.6754465 24.9268795 10.7899035
24.7439675 10.196019499999998 18.6564955
22.9705655 10.231190499999999 18.3410415
24.103906499999997 10.232144499999999 16.9140855
23.204585499999997 12.399447499999999 17.3167145
24.790016499999997 12.3693645 17.631302499999997
29.0484805 18.481802499999997 11.7152585
30.2019605 18.3500575 12.875511499999998
12.7260175 11.843038499999999 17.183780499999997
10.654897499999999 18.9818215 31.0783295
10.289486499999999 11.225957499999998 18.8084055
17.993660499999997 31.8682205 30.4474105
17.0851525 30.7979915 31.4686015
18.8571105 30.7635345 31.5711025
17.9546325 28.9533105 30.313688499999998
18.848905499999997 29.9358135 29.310850499999997
17.1486905 29.9352305 29.277133499999998
11.435618499999999 10.0389255 18.1053255
31.6427995 11.207690499999998 17.167260499999998
31.400094499999998 11.0169325 18.9119815
30.4103195 9.979711499999999 17.7904655
29.1528955 11.8514205 18.749484499999998
10.162699499999999 23.3432775 11.323940499999999
30.229172499999997 12.959234499999999 18.108727499999997
17.1224675 23.340569499999997 10.194120499999999
17.3526305 18.7011325 29.4745115
18.8928335 23.521765499999997 10.1907895
18.907074499999997 18.2023415 29.5129585
18.6313265 17.1758255 31.691515499999998
10.1447335 17.366124499999998 30.5509395
11.438879499999999 17.597876499999998 31.811186499999998
12.348068499999998 16.9977305 29.6759895
12.7842355 18.5718475 30.133024499999998
11.626184499999999 18.3109525 28.981747499999997
11.628852499999999 12.950801499999999 17.8646495
24.9075595 31.6771745 18.0959705
23.5334695 31.674850499999998 16.976574499999998
23.2753635 31.6700375 18.7727115
22.9672515 29.4791805 17.8814435
24.2739315 29.5154015 18.8636365
24.5133295 29.5088685 17.2333945
10.497770499999998 11.0389705 16.9943795
18.3205605 18.9791265 31.6914525
16.910372499999998 17.742344499999998 31.6916525
17.686618499999998 17.0876645 29.4999255
12.408370499999998 17.3437965 18.6530465
18.0358055 12.0796175 29.8567185
29.804311499999997 17.9024075 12.0337775
18.0158255 29.828242499999998 29.8313195
11.993100499999999 23.8702525 29.8161645
23.9733155 29.9468255 18.015645499999998
17.8995405 17.978941499999998 29.8118135
29.844056499999997 18.0511365 29.892660499999998
29.9611895 17.9464825 23.8843145
12.0381945 23.9956835 12.024035499999998
17.9291895 29.941878499999998 18.0148755
29.8059865 23.9978445 29.875604499999998
29.856360499999997 11.957798499999999 17.9358945
29.7890025 23.9356155 18.032026499999997
23.8713315 11.984731499999999 17.915417499999997
18.0000395 23.963847499999996 12.082763499999999
11.926717499999999 12.001895499999998 17.993781499999997
23.9996275 12.005151499999998 29.9251255
23.8439755 17.9615315 12.0223135
17.9127725 29.8162335 23.849763499999998
12.1032245 17.992768499999997 18.0002755
17.9378235 11.9691935 17.9283465
12.070253499999998 17.9009155 29.8806765
29.7839915 23.9543675 23.9695665
15.230440499999998 14.9601805 15.131285499999999
26.5820625 26.9426745 21.0816725
15.126984499999999 27.2192725 15.058207499999998
27.071336499999997 26.8239185 14.735161499999998
14.771766499999998 27.0834285 21.0526575
27.0369615 20.901905499999998 26.6252205
26.876336499999997 20.8369325 21.1673545
27.0521325 20.8266775 14.801426499999998
20.9432865 14.804563499999999 15.1673695
14.891083499999999 20.7390485 26.904091499999996
26.812336499999997 14.808216499999999 26.7321135
26.7900405 15.226025499999999 20.8196865
20.8023815 15.219835499999999 27.0075115
26.6316295 15.187938499999998 15.1086745
20.685068499999996 20.8120485 14.938103499999999
20.711913499999998 20.7853885 20.8373225
21.114047499999998 27.052562499999997 26.7241875
21.0506705 21.166488499999996 26.6907515
20.941080499999998 26.6038355 20.9078815
20.8334935 15.311860499999998 20.9878905
26.940840499999997 26.5412935 26.8464745
15.1539355 26.9057875 26.5894535
20.8151545 26.7595755 15.1812425
15.0460435 21.2383215 20.9642175
14.8161765 14.740553499999999 20.8905275
15.2530425 20.788331499999998 15.185972499999998
15.089291499999998 14.7304815 26.666348499999998
