1_train/47_cspbbr3_methylammonium_3_0.60\47_cspbbr3_methylammonium_3_0.60.xyz
1.0
41.873391999999996 0 0
0 41.873391999999996 0
0 0 41.873391999999996
Br C Cs H N Pb 
108 28 26 168 28 27 
Cartesian
24.129801999999998 15.118301999999998 27.029898000000003
27.079599 11.957555999999999 27.021554000000002
26.843002 15.072894999999999 23.735096
21.011608000000003 27.044317999999997 17.790563
20.824323 23.818894 20.778336000000003
18.079029999999996 26.829818000000003 21.062621999999998
24.086981 15.007760999999999 21.161772999999997
20.756546999999998 29.80274 21.112855000000003
20.666041999999997 26.945316 24.007615
27.029452999999997 15.028787999999999 18.186242999999997
20.985543 23.86553 26.685563000000002
18.142079000000003 26.797601999999998 26.983866999999996
23.838115000000002 15.071233999999999 15.202497
21.173242000000002 26.940979 29.823856999999997
26.933165000000002 12.21754 14.984081999999999
27.027909 14.915971999999998 11.887436
20.786568000000003 29.696415000000002 14.986426999999999
21.095323999999998 29.946557999999996 26.806855999999996
26.923564999999996 11.805896999999998 20.849086
27.029919 17.841116999999997 21.081401999999997
27.109537000000003 21.071483 11.870472999999999
29.672108 26.910989999999998 26.936293
29.671365 26.846682 20.79318
29.684554 27.041096000000003 14.923566999999998
29.708942 20.982239999999997 27.033392999999997
29.904657 21.117407 20.864842000000003
30.045012999999997 21.105972 15.019217999999999
29.969518 15.011914999999998 26.729297000000003
29.742602999999995 14.879229999999998 20.747357
29.989826 14.849478 14.860238999999998
26.808611 29.783943999999998 21.091682
26.944119999999998 29.679938 15.144471999999999
26.847579000000003 27.141455999999998 29.858272999999997
24.056601 26.751351 27.053995999999998
26.925202 24.032409 26.728467000000002
26.791269999999997 27.155841000000002 23.839714999999998
24.013584 27.039444000000003 20.972569
26.727618 24.108537 21.069093000000002
26.80755 27.078867000000002 17.783062
24.049017 26.752856 14.900353999999998
26.853321 24.200398 14.967608999999998
26.703885999999997 27.026041999999997 11.971385999999999
27.009576000000003 21.079507 29.985172999999996
23.701949 21.114932000000003 26.804504
26.677462 17.879978 26.73601
26.71956 20.910604 24.125887999999996
24.028222 21.146042 21.091932
26.870264 20.789309000000003 18.14756
23.804577000000002 21.036202000000003 14.827225999999998
26.820216000000002 17.760928999999997 15.084843
26.833419 15.148867999999998 29.688221
18.089754999999997 27.034844999999997 15.146852999999998
26.774034999999998 29.943956999999997 26.687689
21.128950000000003 27.063311 11.869336999999998
14.844069 11.862889999999998 26.741293999999996
14.831911999999999 27.021292000000003 30.052635000000002
14.806968 15.047068 17.946001
11.984784 26.867454000000002 27.122985999999997
15.202558999999999 24.087666 26.813187
15.259008 26.982390000000002 23.883128999999997
14.865504999999999 12.145369999999998 20.837243
11.963856999999999 26.906416 21.158822999999998
15.038706 23.878414999999997 20.699170000000002
15.175716 27.042793000000003 18.038961
11.846476 14.901693 20.789836
11.905513999999998 26.690564000000002 15.094295999999998
15.148516999999998 29.724913 21.070717000000002
15.183734 23.824671000000002 14.955619999999998
14.872855 20.723433 29.984086999999995
15.155114 14.849162999999999 23.730781999999998
11.835686999999998 20.965572 26.730359
14.781227 17.770034 26.848433
15.163420999999998 21.035165999999997 23.749482
11.951642999999999 21.136165 20.805732999999996
15.130534999999998 17.726639999999996 20.951566
14.969138999999998 20.861040000000003 18.165149
12.129839999999998 20.958027 14.846400999999998
15.116563999999999 17.788230999999996 14.814146
15.010008999999998 20.804181 11.771256
15.035341999999998 15.161226999999998 29.974804
14.874241 27.045240999999997 12.143146999999999
14.944657999999999 30.011884000000002 26.720768999999997
15.036395999999998 29.671898999999996 15.206207
20.748379 14.869233 12.009193999999999
20.836503999999998 24.044924 15.071725999999998
20.82842 21.019810999999997 29.743741999999997
18.166282000000002 20.824941000000003 26.787374
20.997714000000002 17.876934999999996 27.081966
14.981042999999998 15.220794 11.972307999999998
21.126011 21.140976000000002 23.805850999999997
17.844316 21.056283999999998 20.821405
21.052703 17.982625999999996 21.121159
20.852645000000003 21.118702999999996 18.181112
14.996014999999998 11.859428 15.203846999999998
20.979017 17.977413999999996 14.719926999999998
20.871146000000003 21.064712 11.888205
17.971227999999996 20.830768999999997 14.839191999999999
18.059942999999997 14.817943999999999 20.980933
20.921250999999998 12.172821999999998 14.897884999999999
17.971041 15.222942999999999 15.103681
20.958382999999998 15.175475999999998 17.802681
20.832199000000003 12.002809 21.171470999999997
11.949673999999998 15.149472 14.892223
21.054367999999997 15.056132999999999 24.111176
12.231912999999999 14.887808999999999 26.729222999999998
17.950082000000002 14.862398999999998 26.733325
20.754624 15.057984 29.666925999999997
21.060674 12.086996999999998 26.733597000000003
10.910893999999999 30.864438999999997 18.011136
11.019115999999999 18.008786 11.012313999999998
23.933014999999997 17.86887 10.567863
23.853811 23.941017000000002 10.477203
23.881946 10.476277999999999 23.965767
10.522291 17.887057 17.907986
30.959007999999997 18.038719999999998 10.951642999999999
17.971074 23.990688999999996 31.280600999999997
18.041654 11.017527 10.915968999999999
10.588807 18.014153999999998 23.847623
23.864849999999997 18.017908999999996 31.320220999999997
17.998674 10.898541 30.838288999999996
23.941254 10.602832 17.8917
23.960152 31.403795000000002 23.912968999999997
11.024220999999999 30.82692 23.863717
30.896014 30.981567 17.942478
23.937151 30.820796 10.927596999999999
18.042032999999996 17.918628 31.286408
11.026145999999999 11.025474999999998 17.996968
18.027952 10.518564999999999 23.828027999999996
17.895061 30.876609000000002 11.044571
31.346303 18.029375 23.839198000000003
30.865054999999998 10.91184 23.949343
23.939225 30.89783 31.005530999999998
17.996808 30.932040999999998 31.000014999999998
17.902794999999998 31.320226999999996 17.921537999999998
17.985436999999997 10.609625999999999 18.002584999999996
11.021657999999999 17.928483 30.862682
29.523769 23.667014 24.295892000000002
29.500175999999996 18.331955 18.027608
29.733773 11.587250999999998 17.761663999999996
11.668990999999998 11.881851999999999 23.592498999999997
29.769109999999998 17.416885 29.769477000000002
29.608306 23.62426 11.601014
30.036664000000002 24.147306 30.118269999999995
29.683296 23.563271999999998 17.768512
30.200079000000002 29.638472999999998 23.87043
24.112665 29.57347 18.309944
17.779927999999998 23.6961 11.547429
17.826726999999998 23.569989 24.356563
18.097305999999996 17.813001999999997 24.470948999999997
17.682887 18.189127999999997 18.205813999999997
24.183861 12.501860999999998 12.104479
17.92844 17.515257999999996 11.68001
23.614562999999997 12.168890999999999 30.079651
18.238062999999997 23.769134 18.365471
23.493054 17.704935 18.044964
12.064226 23.565562 23.670336
24.113549 18.329091 23.786108999999996
11.695564 24.280906 17.746007999999996
12.329467 23.942884 11.691972999999999
23.663553 24.177951 18.218665
24.292724999999997 23.639739 23.685101000000003
12.317519999999998 23.967460000000003 30.064853999999997
11.352554999999999 17.351264999999998 31.717976
10.173309999999999 18.306753999999998 24.865409999999997
12.385411 17.358962 24.611632
12.359411 18.939169999999997 18.032162
23.926626999999996 12.384388 22.938982000000003
12.365281999999999 18.884124999999997 24.094552999999998
12.360905999999998 17.604985999999997 23.007618
10.056339 17.499131999999996 30.437137
10.777340999999998 18.974193 31.168
10.196343999999998 16.956716999999998 23.703412
10.224982999999998 18.503048999999997 17.119853
10.224986 18.621654 23.138686
24.812361000000003 10.175092999999999 23.342045
12.854975999999999 18.376765 30.228336999999996
11.705118999999998 18.474007 29.064175999999996
23.113815000000002 12.364527999999998 24.422587999999998
12.378837999999998 17.471967999999997 18.766370000000002
12.410367999999998 17.562809 17.102818
24.754527000000003 12.358389999999998 24.365502999999997
23.913189000000003 10.216482999999998 24.992289
10.229940999999998 16.914353999999996 17.894191
10.183065 18.415194999999997 18.909368999999998
23.019816999999996 10.214422999999998 23.445095000000002
12.182839999999999 17.013765999999997 29.564709
24.779215 24.388139000000002 12.374153999999999
18.212987999999996 18.967594999999996 31.696306
11.247046 18.650207 10.192390999999999
12.144937999999998 18.932764999999996 12.415695999999999
12.903649999999999 17.647081999999997 11.596976999999999
11.74298 17.36479 12.780183
23.006186999999997 23.384374 10.229249
23.926022000000003 24.95364 10.234746999999999
24.821028 23.352682 10.190097999999999
23.856730999999996 22.951092000000003 12.405872999999998
23.090536999999998 24.43817 12.369739
31.706803999999998 17.040123 23.472676
31.680844 18.807995999999996 23.284196
31.702729999999995 18.03403 24.920175
29.510498 18.855918000000003 24.286969999999997
29.509461 17.166795999999998 24.439976
29.497884 17.917429999999996 22.940432
17.726498999999997 31.683158 16.924512
17.212899999999998 31.650318 18.651795999999997
18.96528 31.628099 18.252055
18.214836999999996 29.477711999999997 18.929187
10.059969999999998 18.260593 11.408572
10.864982 16.950542 10.618042999999998
11.642743 12.957379 18.150188999999997
12.728036 11.858433999999999 18.680923999999997
16.926969999999997 17.68965 31.669933
17.276027 18.623146999999996 29.493046
17.684306 17.069105 29.520192
18.874308999999997 18.164102999999997 29.491217999999996
18.19088 10.220415 22.862038
18.752952999999998 10.217405 24.579113999999997
16.973349999999996 10.222107 24.20682
17.802963 12.379238999999998 24.842623000000003
17.259166999999998 12.350883 23.267356999999997
18.712013 17.203632 31.684036
18.852019999999996 12.375003999999999 23.637455000000003
23.867502 10.182692 18.971232
23.048107 10.242671 17.399530999999996
23.083989000000003 12.370745999999999 18.365522
23.963351000000003 12.417081999999999 16.994571
24.716295000000002 12.415524 18.51791
10.479538 10.986233999999998 18.969276999999998
10.223294999999998 11.254850999999999 17.209125
11.43156 10.026711999999998 17.722855
12.529347999999999 12.068502999999998 17.057246999999997
24.852887000000003 10.221459 17.538109
28.923733 11.590933999999999 24.173350999999997
28.918729 17.906663 11.569809999999999
29.774558 12.437181999999998 22.955264999999997
17.221345999999997 23.214263000000003 31.640723
18.928236 23.640966 31.647404
17.673471 24.898885 31.685724
18.631633 24.600428 29.446187000000002
17.057170999999997 24.141033 29.456266
18.203161 22.955655 29.523024999999997
11.055781999999999 31.465801999999996 17.025301999999996
10.021551999999998 30.388883 17.971499
11.131695999999998 31.512243999999995 18.888063000000002
18.628932999999996 29.505792 17.284022999999998
11.982703999999998 29.302259999999997 18.797308
11.936411 29.236931999999996 17.110962
17.562236 10.041436999999998 11.402092999999999
17.321446 11.278557 10.19052
19.030357000000002 10.843359999999999 10.599404999999999
18.279387 12.930006999999998 11.673744
18.591645999999997 11.724220999999998 12.797562
17.039009999999998 12.192118999999998 12.395285999999999
18.714559 11.269409 31.643439
16.991191999999998 10.975235 31.376776
12.967567999999998 30.271541 17.897104999999996
18.166247999999996 10.047184999999999 30.415753000000002
29.960277999999995 17.14423 12.675830999999999
31.880859 18.072318000000003 11.475853999999998
17.207323 30.688747 31.630648
18.968626 30.950851 31.345202
17.718654 31.885669999999998 30.417395999999997
18.661032 30.093092 29.121826
17.033174 29.784112 29.429715
18.153163 28.897824 30.279705
23.24845 31.737688999999996 30.542608
23.522895 30.496409 31.826755999999996
24.956781 31.209362 31.018243999999996
29.881301999999998 18.820465999999996 12.543895999999998
24.477781 29.040976 30.14488
22.947628 29.511907 29.729580999999996
17.620416999999996 10.183417999999998 17.015082
19.023058999999996 10.193969999999998 18.144709
17.311738 10.217021999999998 18.740156
18.271769 12.373078999999999 18.90153
17.020673 12.364854999999999 17.753583999999996
18.594462999999998 12.362495999999998 17.262665
30.810026999999998 16.986477 10.400163999999998
30.725926 18.79775 10.340169
24.243693 30.230620000000002 28.998204
17.274183999999998 11.844574 29.158977999999998
18.851148000000002 12.046973 29.40627
17.779966 12.963133999999998 30.261156
22.870900999999996 17.890302 31.700244999999995
24.447384 17.064436 31.660165999999997
23.500726 17.085386999999997 29.490446999999996
24.828227 18.0004 29.498185
23.410995999999997 18.729340999999998 29.466924
24.951517000000003 17.670828999999998 10.191272999999999
23.132243000000003 17.274124 10.182803999999999
23.656429000000003 18.997135999999998 10.224790999999998
23.021096 18.234957 12.405781999999999
24.355710000000002 18.914360000000002 31.692068999999996
24.631852000000002 18.637211 12.39843
30.75146 31.512239 17.023521
30.788488 31.537540999999997 18.869439999999997
31.894943999999995 30.434257000000002 17.936676
29.926662999999998 29.22148 18.763461
29.923975999999996 29.248061 17.095511000000002
28.948982 30.264344 17.931055999999998
30.981730999999996 10.527503 24.892007
30.613376000000002 10.203399 23.207319
31.830446000000002 11.463562 23.666809999999998
24.144309999999997 17.053148999999998 12.423825999999998
11.835078 29.113858 24.637648
12.088071999999999 29.362988 22.995708999999998
12.917186 30.237868999999996 24.121843
23.452436999999996 31.678781999999998 24.871473
24.986044999999997 31.664439 23.859361
23.370088000000003 31.650295999999997 23.025258
24.383058 29.476822 23.032339999999998
22.985886 29.466026 23.958039
24.409334 29.500107999999997 24.743246
24.916919999999998 31.183270999999998 10.77389
23.457357000000002 30.464272 10.106407999999998
23.309435 31.731524999999998 11.365426
22.933177999999998 29.506707999999996 12.202353999999998
24.346873000000002 30.241808999999996 12.887452999999999
24.491054 29.064779 11.728832999999998
17.438584 30.472468999999997 10.080671999999998
17.460825999999997 31.752162999999996 11.336464999999999
19.024982 31.147934 10.763637999999998
18.401626999999998 30.174394 12.838909
18.440865000000002 29.046573000000002 11.682968999999998
17.009650999999998 29.564454999999995 12.243523999999999
10.024548 30.445501 23.729785999999997
10.977269999999999 31.347232999999996 24.877673
11.218056999999998 31.667954 23.118645
30.077754999999996 12.739602 24.62637
17.025807999999998 29.480407999999997 17.731707999999998
29.778908 29.876019 18.01645
12.08705 17.982745 29.800545
23.966203999999998 17.903694 29.922351
17.968724 29.813555 17.887849
17.887957 11.965610999999999 29.81559
29.843199999999996 12.080276 23.905884
11.978485 17.90567 23.968974000000003
23.952286 29.818067999999997 23.867770999999998
17.961869 11.95295 11.936075999999998
12.051502999999999 29.917249999999996 23.94878
23.838064000000003 12.064360999999998 23.959220000000002
17.901677999999997 12.062235999999999 23.97421
17.92174 29.910741 29.945526
23.96472 29.885394999999995 11.960982999999999
17.888382 29.834462000000002 11.951287999999998
17.987985000000002 18.005958 29.787689999999998
23.855089 12.037957999999998 17.876607
23.929723000000003 29.81389 29.938530999999998
12.056887999999999 12.060163999999999 17.997642
17.964675999999997 23.943648000000003 29.950820999999998
29.896572 18.02337 23.959125
18.040593 12.055916999999999 17.963931
12.001468 18.047973 17.977659
11.995942 29.802104999999997 17.894641
29.922525999999998 18.007953 11.967064999999998
12.061240999999999 17.876347 11.978152999999999
23.956269 23.911177000000002 12.082759999999999
23.910365 17.886451 11.936756999999998
14.860762999999999 15.027895999999998 15.181467999999999
27.222792 26.867545 27.017812999999997
21.046897 21.192051999999997 15.155607999999999
20.885998999999998 14.834864999999999 15.204519
26.701583999999997 26.827666999999998 20.679532000000002
26.623364000000002 14.921382 21.134465999999996
15.055952999999999 27.083436 14.752978999999998
27.114067 26.96573 15.128801
21.088853999999998 14.995921999999998 27.170419000000003
15.073288 26.755117 21.137242999999998
27.047870000000003 15.172617999999998 26.958695
27.036983999999997 21.028291000000003 27.022830999999996
21.050026000000003 14.850965999999998 21.089064
14.940152999999999 27.143535999999997 26.855645000000003
21.154411000000003 26.886423999999998 14.762426
27.059483 20.945515 21.138799
27.050417000000003 14.80298 14.986194
15.012478 21.168273999999997 20.671644
15.120491 21.113205999999998 26.753303000000002
26.721200000000003 21.045907999999997 15.153227999999999
15.323028999999998 21.058861999999998 14.967552999999999
20.797237000000003 20.801375999999998 21.073348000000003
21.100065999999998 26.932785000000003 21.217474000000003
14.909707999999998 14.838159999999998 21.079196000000003
15.261688999999999 14.966453999999999 26.680861999999998
20.646789 26.750762 26.870379
21.133699999999997 20.990571000000003 26.667305999999996
