148_cspbbr3_5\148_cspbbr3_5.xyz
1.0
50.720938000000004 0 0
0 50.720938000000004 0
0 0 50.720938000000004
Br Cs Pb 
450 200 125 
Cartesian
28.221313000000002 13.34375 37.151897
31.365136999999997 10.731011 37.329368
31.462249999999997 13.548242 34.052815
13.47505 19.614169000000004 28.33697
37.304635 28.432605000000002 31.066813000000003
28.158878 13.242785 31.388612000000002
31.337438 25.186064000000002 10.72058
31.281943 10.580914 31.146286000000003
31.126192000000003 13.669694 28.316200000000002
31.180194999999998 16.264181999999998 37.429974
34.168699 31.34767 31.069391000000003
28.456648 13.402459 25.51177
31.331415 10.619355 25.158003
31.176929 13.55759 22.27312
31.190536 22.388685000000002 13.684598
10.571285 19.523512000000004 31.063893
28.473867 25.503131000000003 13.60646
28.268028 13.622798 19.474328
31.353575 10.341301 19.298959000000004
31.214343 13.336225 16.542377000000002
40.29054 37.12009200000001 31.493687
13.384217 16.327801 19.577551
37.036443 31.184593999999997 28.268538
13.350463 16.533887 31.523587
10.2786 19.441632 19.268694000000004
28.459668 19.589118 37.415249
37.47762 31.477553999999998 22.367587
31.16874 19.373596 34.063194
37.109215 28.355514 25.473598000000003
28.111072 19.293593 31.342681
31.455201000000002 16.338471 31.159027000000002
31.245918000000003 19.423068999999998 28.563539
13.373185000000001 19.487316 22.593731
31.38868 19.585343 40.119026
34.356436 31.280876 25.170989
28.474973 19.489796 25.268938
31.412535 13.55095 40.099309
31.315163 16.206542 25.167679
13.602031 16.535755 25.232505000000003
28.164985 19.376645000000003 19.273531
40.109396 37.19285300000001 37.148126
31.089509 16.503368000000002 19.590052
28.465182 13.514272 13.596986
31.465648 19.494144 16.395884000000002
10.461396 19.648699999999998 25.405915999999998
28.493671 19.375163 13.365223
31.333982 16.603102999999997 13.307037
31.075733999999997 19.427121 10.319634
31.172885 19.634543999999998 22.295462999999998
13.519387 37.509100000000004 10.513947
25.192093 40.139802 37.309716
31.103074999999997 13.582332 10.582531
25.104849 34.422467000000005 13.40257
25.30722 37.418672 10.680598
13.452786 25.200921 10.393577
37.224634 37.298035000000006 16.670035
25.415266000000003 31.08048 40.22811
37.176375 34.560291 19.472193000000004
22.230714 31.456449 37.359927000000006
25.538519 28.162104 37.255788
25.415975000000003 31.195179000000003 34.471038
13.336586 22.205637000000003 13.656445
34.095007 37.185991 19.199043000000003
22.456753 31.169794000000003 31.449536000000002
25.509484999999998 28.512597 31.456969
25.194004 31.117767999999998 28.405296
10.398208 25.282089 13.30343
22.174049000000004 31.385814000000003 25.269234000000004
25.570431 28.535083 25.288208000000004
25.21031 31.112386 22.312304000000005
22.119801000000002 31.398142 19.517636000000003
25.344 28.219738 19.148799000000004
25.452139000000003 31.198709 16.57616
13.443 25.466046 16.263952
37.177691 37.073918 22.185042000000003
25.178303 28.225797999999998 13.499707
25.460273 31.536903000000002 10.568025
13.484749 22.202939 19.538027
37.448407 34.463169 25.229066000000003
22.255575 37.176776 13.245872
31.507564000000002 10.385638 13.348302
40.179359 37.370562 25.224153
25.403527000000004 34.146337 19.527754
13.430558 19.62023 34.201408
37.198876000000006 31.30545 34.556271
37.384791 28.520843999999997 37.247649
31.053024 25.271145000000004 16.45554
34.118874 31.518425999999998 37.194184
25.535826999999998 40.403395 31.289336
25.171943 40.281298 25.538423
37.100426000000006 31.242593 40.413047
25.130366000000002 40.155385 19.293122000000004
25.309860999999998 40.328522 13.245653
13.709952 16.547259000000004 37.272306
25.387585 37.112506 40.387059
37.432885000000006 37.362849000000004 10.314216
22.214748 37.491222 37.246616
25.446738000000003 34.162869 37.138422
25.318497 37.20303500000001 34.071071
10.275424000000001 19.503157 37.161934
37.409322 34.279454 13.670060000000001
22.148631 37.16186 31.270898000000003
25.504980000000003 34.482691 31.300410999999997
25.526544 37.289702 28.577630999999997
34.300073000000005 37.400073 13.649082
22.482167000000004 37.386953 25.453941999999998
25.198937 34.33938800000001 25.457917000000002
25.450385000000004 37.476235 22.212102
13.663448 19.495984 40.367742
22.285875000000004 37.439634000000005 19.222516
25.237959000000004 37.337813000000004 16.586818
31.374313 22.540308000000003 19.237966
31.183239 22.513469999999998 25.517702
34.230444 31.460309000000002 19.237510999999998
34.325101000000004 13.752005 31.320836
37.10320600000001 10.485968 31.470232000000003
37.336839000000005 13.575533 28.458785
13.317583 13.320881 22.220693000000004
34.296529 13.339080000000001 25.155901
37.402264 10.595369 25.34234
37.471458000000005 13.530662 22.549514000000002
13.596407000000001 10.512807 25.188063
37.106632 25.461146 22.51789
34.312085 13.638374 19.344246
37.396993 10.332667 19.522866
37.190269 13.25491 16.484474
10.401067 13.341439 19.241481999999998
10.659456 13.428753 25.512451
34.212032 13.284312 13.579573
37.248113000000004 10.487820000000001 13.643726
37.139106000000005 13.687421 10.532054
34.183197 25.431435 25.522356000000002
31.566352000000002 40.338635000000004 37.310307
13.317201 13.321747 28.443587
31.179496999999998 40.367797 31.107678
37.043228000000006 25.364432 28.479692999999997
31.108628000000003 40.071424 25.222928000000003
37.365988 22.420286000000004 31.159143
31.161610000000003 40.140053 19.273308999999998
34.450487 25.410514 31.147686
37.419508 22.432791 25.543799
37.463714 13.349942 34.111977
37.133453 10.373848 37.194909
34.085853 13.646463 37.292872
37.168504000000006 19.553974000000004 40.007641
37.202119 22.518115 13.261422
34.179583 19.343826 37.40201
37.215736 16.305653 37.420388
37.407731000000005 19.459106 34.40672
13.440547 13.624207 10.658772
34.149295 25.527208 13.643261
34.047915 19.501458 31.455108000000003
37.162102 16.215153 31.243810000000003
37.416481 19.427647999999998 28.142608000000003
13.616594000000001 10.390826 13.626062
34.101525 19.571402 25.273749000000002
37.397471 16.562008 25.578497
37.46782 19.246411000000002 22.353028000000002
10.402492 13.602925 13.286576
34.214339 19.290229000000004 19.588141999999998
37.178693 16.502533 19.568852
37.450531000000005 19.433410000000002 16.229917
13.590145 13.301572 16.592042
37.240306 25.592471000000003 16.545834
34.05548700000001 19.539756000000004 13.382109999999999
37.377153 16.590063999999998 13.465456
37.295749 19.234546 10.316033000000001
13.496061 10.658199 19.329048
37.09144 22.292585000000003 19.629438999999998
37.306451 13.343536 40.457194
34.21975 25.313123000000004 19.166049
31.143161 40.396111 13.633911
31.371803999999997 37.415365 40.32309
13.64024 10.659149 31.188333999999998
28.185899999999997 37.429257 37.39022000000001
28.415377999999997 31.089577 25.379169000000005
31.534489 28.148857 25.425950999999998
31.265639 31.385449 22.111059000000004
37.395194000000004 28.353575999999997 13.198155
28.435568000000004 31.175033 19.260249
31.437852999999997 28.450014000000003 19.299970000000002
31.582113999999997 31.242458999999997 16.520090000000003
13.43015 19.646255000000004 10.464978
34.299808000000006 31.45807 13.587903
28.473003 31.124473000000002 13.627513
31.150917999999997 28.223498999999997 13.305229
31.476115999999998 31.393981000000004 10.26903
13.593611000000001 16.342276 13.642105
31.206666 25.099263 40.143397
10.352364 19.457311000000004 13.206672
28.233123 25.319301000000003 37.493888000000005
31.302916000000003 22.368316 37.010279000000004
31.196027 25.247816 34.155009
37.115333 31.162573000000002 16.560753
28.251061999999997 25.551412 31.386265
31.115294 22.41664 31.109001999999997
31.472493 25.377405000000003 28.250393000000003
37.338553 28.211902000000002 19.227714
28.508572 25.192584000000004 25.350082999999998
25.230840999999998 25.506508000000004 40.217297
31.494281 25.270452 22.483878000000004
13.295524 19.210185000000003 16.334443
37.089227 31.180996 10.416267
28.485397 25.499632 19.317289000000002
31.118611 31.499978 28.400484
28.52512 31.163804 31.327303999999998
31.244231999999997 34.51831000000001 37.430372
31.404533999999998 37.413891 34.474926
10.427262 13.278492 31.508324
37.42237 25.280824000000003 34.339986
28.215525 37.186103 31.422722
31.537049000000003 34.412514 31.208861
31.387942000000002 37.149035000000005 28.472907999999997
37.160514 22.231273 37.249953
28.473276 37.407528000000006 25.443905
31.451786 34.400394 25.218277999999998
31.578268 37.22673 22.376925
34.177036 25.198970000000003 37.166981
28.380088 37.03428400000001 19.372519000000004
31.106015 34.285657 19.571809000000002
31.05299 37.261484 16.411239000000002
13.592251 13.284579 34.263835
28.23162 37.351987 13.576593
31.251254000000003 34.425955 13.618365
31.407566000000003 37.325578 10.700904
13.597367 10.506893 37.396288000000006
37.070388 25.50132 40.138489
31.109249 31.197830000000003 40.18930700000001
28.148148 31.169524000000003 37.109247
31.450999000000003 28.217022999999998 37.18263
31.527537000000002 31.273418999999997 34.194267
10.367938 13.38321 37.432263
13.31328 13.450884 40.129884
31.517508999999997 28.265306000000002 31.126264
34.069448 37.180866 25.380336
22.257872 31.451102 13.521769
25.218505999999998 22.586499000000003 37.24044
40.139552 19.579418000000004 19.426166000000002
16.603457 25.374141 25.487519
19.520424 22.393524 25.208803000000003
19.222965000000002 25.316069 22.591597
16.539728000000004 25.431662000000003 19.601478999999998
19.552908000000002 22.170937000000002 19.390285
19.576262 25.514349000000003 16.599626999999998
13.583049 31.546632000000002 22.271006
40.226665000000004 19.263427999999998 25.148814
16.399727 25.170436000000002 13.380107
19.301896 22.410515000000004 13.607572
19.371175 25.563781 10.40877
13.629482000000001 28.341053000000002 25.244767000000003
19.520739 19.541683 40.096394000000004
16.302281999999998 19.408203999999998 37.091351
19.378232000000004 16.249944 37.440097
19.213105 19.512665 34.391666
10.621551 31.343136 25.119288000000005
40.088683 19.293497000000002 31.109603
16.334788000000003 19.523854 31.411566999999998
19.541544000000002 16.298578 31.417955
19.296293 19.259974 28.521248999999997
40.414993 31.435420999999998 31.300137999999997
16.467463000000002 19.581882 25.450627000000004
19.626198000000002 16.470238000000002 25.559314
19.410052999999998 25.462094999999998 28.532747
19.424106000000002 22.192487 31.382655999999997
16.307643 25.579421000000004 31.434897999999997
10.34784 31.234206 19.257458
16.515473 31.18839 37.46093
19.632117 28.471474999999998 37.227588000000004
19.251466 31.176949 34.452239
10.615373 31.303849 13.2946
16.560212 31.439546 31.15676
19.200402000000004 28.254747000000002 31.482401000000003
19.363008 31.102725999999997 28.155264000000003
40.255089000000005 31.064008 37.26744300000001
40.038222 13.333544 31.382232000000002
16.266123 31.310296 25.500958000000004
22.416794000000003 25.282291 37.443429
19.573123000000002 31.462189000000002 22.333208
19.289819 19.248077000000002 22.241821
16.267302 31.473101 19.409393
19.415900999999998 31.539645 16.431509
13.604582 31.413946000000003 16.309994000000003
40.388983 13.600293 37.135978
16.201332999999998 31.132514 13.494107
19.496375 28.276268 13.610566
19.43161 31.18005 10.238969
13.226279 28.412664999999997 19.389763000000002
19.335993000000002 25.485871000000003 40.440688
40.148544 19.217658 13.382152
16.590936 25.288535000000003 37.111978
19.591939000000004 22.478934000000002 37.124716
19.273145 25.471560000000004 34.226404
19.184136000000002 28.237867 19.297441
40.223629 13.587826 25.541473000000003
40.170230000000004 19.28922 37.072611
19.241295 16.299823 19.587643
40.040910000000004 25.246251 31.259425999999998
13.300685 40.366313 25.234113
13.327109 40.375181000000005 19.636254
40.073724000000006 25.473022 37.350669
13.364165999999999 40.296289 13.672618
13.679521 37.37430200000001 40.141873
10.485452 37.215566 37.526827000000004
13.540741 34.12433600000001 37.293606000000004
13.59913 37.240985 34.53164400000001
10.642583 31.214458 37.462928
10.559607 37.060166 31.169123
13.236704 34.211581 31.325863
13.403117 37.139634 28.487519
40.103410000000004 31.493465 25.233283999999998
40.286565 31.261038999999997 13.254087
10.578896 37.115293 25.422434000000003
13.254557 34.158181000000006 25.380933
13.594307 37.099469000000006 22.321003000000005
13.362392 31.275363 40.416279
10.638319000000001 37.236491 19.281696000000004
13.630579 34.431073000000005 19.314917
13.328765 37.443477 16.581272
39.992944 31.389291 19.309123
10.294081 37.190014 13.259014
13.565095000000001 34.49671 13.45455
13.591378 40.260898000000005 31.064301999999998
13.241211999999999 40.071811000000004 37.382661000000006
40.507267000000006 25.271666000000003 25.372235000000003
13.422958 28.161898 37.402269
19.287114000000003 19.536884 16.516233999999997
13.352379 31.401795 28.454079999999998
16.278184000000003 19.261027 13.386058
19.553411000000004 16.360951999999997 13.569613
19.433495 19.186447 10.297872
13.610284 28.187485000000002 31.471787
19.201223 13.441547 40.413878000000004
40.083267 25.209529000000003 13.351571
16.445658 13.321827 37.377333
19.587580000000003 10.380543 37.079618
19.679172 13.449897 34.367269
10.452551 31.203758999999998 31.123241
16.539983 19.616374 19.38006
16.303851 13.641962000000001 31.445151000000003
19.459236000000004 13.6521 28.545315000000002
40.321255 25.136122999999998 19.354307
16.221310000000003 13.570825000000001 25.184739999999998
19.180219 10.368118 25.387584000000004
19.510761000000002 13.231095999999999 22.494041000000003
16.36103 13.304765 19.549083000000003
19.356157000000003 10.642183 19.297134
19.280806 13.63918 16.451324999999997
13.369389 31.181722999999998 34.181845
16.321562 13.296944 13.551061
19.257034000000004 10.327715 13.571734000000001
19.44757 13.67103 10.409801
19.542668 10.355432 31.426180000000002
19.313269 31.238798000000003 40.093817
19.474792 28.143714000000003 25.162543
25.140176000000004 13.333178 34.209064000000005
22.571970999999998 19.248755000000003 25.203060999999998
25.516423000000003 16.457783 25.526209
25.484299999999998 19.271099 22.380257999999998
13.58447 22.489176999999998 31.086955000000003
37.305984 34.445709 37.399702
22.511155000000002 19.401774000000003 19.56035
25.26804 16.326737 19.545227000000004
25.555023 19.526356 16.575034000000002
10.635352 25.366504 31.488459
37.222717 25.485901 10.250088
22.398255 19.299754 13.229286
25.599028000000004 16.303426 13.396708
37.373179 37.401506000000005 34.466972000000005
25.23901 19.445881 10.22844
25.511256000000003 13.278784 40.401213000000006
37.250040000000006 37.471183 40.186252
22.223322000000003 13.372184 37.312942
25.220323 10.374514 37.48451
13.281371 28.183362000000002 13.341813
22.608959 13.393827 31.464257000000003
25.562419 10.645434 31.175716
25.151649 13.288334 28.288926000000004
13.203206 25.433928 34.262453
22.230391000000004 13.3746 25.134030000000003
25.267986 10.354004 25.457285
25.514786 13.334756 22.400832
40.084516 37.160422000000004 13.30118
13.230162 22.374053000000004 37.327771000000006
13.583181 25.463632000000004 28.191628
25.447828 16.592723 31.406841999999997
25.253363 25.23623 34.120870000000004
10.368669 25.480976 19.501558000000003
22.197332000000003 25.265376000000003 31.519533000000003
25.230885999999998 22.417593000000004 31.533285999999997
25.095299000000004 25.406657000000003 28.375731000000002
40.394416 37.339187 19.288485
22.398295000000005 25.299609000000004 25.179656
25.381186 22.238326999999998 25.616278
25.557022000000003 25.313857 22.586274000000003
13.60307 25.221994000000002 22.393771
37.387377 37.030139 28.453597000000002
22.339567000000002 25.384294000000004 19.158926
25.530659 19.330681 28.231223999999997
25.213621000000003 22.298199000000004 19.51182
13.575477000000001 22.151822000000003 25.263075999999998
37.075553000000006 34.483256000000004 31.366763
22.244141 25.471941 13.451084
25.489318000000004 22.489147000000003 13.333785
25.404767 25.487864000000002 10.665901
10.699945 25.269567000000002 25.403071000000004
34.246517000000004 37.255113 31.101014
25.482523999999998 19.325627000000004 40.338922000000004
22.411788 19.624993000000003 37.31829200000001
25.103442 16.356638 37.368666
25.247657000000004 19.275953 34.241224
22.542839999999998 19.297756 31.27888
25.488725000000002 25.221733 16.564051
22.278417000000005 13.480274 19.597043
34.125135 37.42217 37.198533000000005
16.539175999999998 37.236483 37.478010000000005
19.383425000000003 37.116244 22.250011
37.237417 40.035599 25.45917
19.185234 34.330995 25.367131
19.602487000000004 40.061522000000004 25.322060999999998
16.236931 37.414078 25.418553000000003
40.103056 13.314872 13.3263
19.263179 40.353799 19.442610000000002
37.207322 39.979723 31.440326
16.373860999999998 37.106615 19.212386000000002
19.162278999999998 40.2244 13.522859
19.557705 37.501494 28.25076
37.441781 40.335534 37.34649700000001
25.298623 10.317066 19.466725000000004
19.332212 34.503080000000004 31.171157
19.375833 34.096768000000004 37.147969
19.571637000000003 37.151098 34.345089
16.648803 37.262081 31.381082999999997
13.652487 25.202797000000004 40.268163
19.518485 37.126795 40.344989000000005
19.331090000000003 34.152081 19.282853000000003
19.293473 40.206906000000004 31.093032
37.037336 40.169602000000005 13.305803
16.606499 37.315488 13.38747
19.509928000000002 37.397109 10.419481
19.190477 34.280376 13.572449
25.250171 13.350191 16.326349
37.353123000000004 40.004892000000005 19.352781999999998
19.295937000000002 37.535676 16.413366
10.591389 25.493116999999998 37.378572
19.598016 40.24093 37.206787
25.525669999999998 10.422447 13.310528
22.263217000000004 13.53557 13.617648
25.257473000000005 13.249279 10.649041
13.33736 31.179569 10.556136
40.048325 13.359591 19.519425
34.687134 22.696133000000003 16.52062
39.904439 22.176236000000003 34.162226
40.50468300000001 34.346793 40.569448
34.618797 34.74231700000001 28.113044000000002
40.221823 28.456251 22.919621
40.455989 22.536296999999998 40.553904
39.648081 10.461491 34.245723000000005
40.499864 28.330562 40.618746
39.859812 27.987133 16.287222
34.603487 34.508162000000006 22.161684
40.121862 28.467793 10.905992
33.863324 28.74655 22.467074000000004
34.557587000000005 34.037098 34.17843800000001
39.970474 10.241316 28.770522
40.591508 10.758331 16.36553
40.457048 34.414465 22.801334000000004
33.983453000000004 28.700423999999998 28.413458
40.292563 22.009464 28.735083000000003
34.634865 22.753543 39.944944
34.404891 40.025454 39.934863
40.699663 16.615009999999998 28.244318
34.170861 39.803601 10.638032
34.406449 27.937361000000003 10.437579
40.010218 16.861598 34.544198
33.796773 28.503206 40.191418000000006
40.396621 39.912886 22.600348000000004
34.103746 28.016529 34.039449
40.078047000000005 34.004529 10.680019
33.948585 34.080809 10.059551
34.627007 40.08015700000001 16.45574
40.121933000000006 16.971691 22.404678000000004
40.299713000000004 16.088848 40.481533000000006
34.556722 34.594275 40.615296
34.436719000000004 21.946961 34.016352000000005
39.777034 40.296049000000004 16.568998999999998
34.566168 39.981199 22.109621000000004
40.155833 21.879798 10.670803
40.28664800000001 34.814153 34.078659
39.871243 34.028335000000006 16.646950000000004
34.77532 28.371797 16.677207000000003
39.991836 16.601868000000003 10.173515
39.888563 22.544207999999998 22.359517000000004
34.514408 33.856271 16.124578999999997
34.266584 22.477780000000003 21.977062000000004
34.490175 40.308525 33.971795
40.366683 16.314943 16.114053
40.116111000000004 22.791332000000004 16.754033
33.988637000000004 22.552353000000004 27.866429000000004
40.467104 34.681066 28.670527999999997
34.544468 40.08899400000001 28.670045000000002
40.006053 27.954926 33.97395100000001
40.06812 28.389929000000002 28.829003
40.019634 10.280834 22.074556
22.252381 28.578902999999997 39.79013
33.87073 16.302565 40.239168
16.833727000000003 28.561101999999998 39.932792
16.969818000000004 28.53064 34.069694000000005
15.962935 28.466251 28.353088999999997
16.079470999999998 28.067231999999997 22.049889999999998
16.388928 27.814891000000003 16.392511
16.434666999999997 28.062511 10.071033
16.294331999999997 33.947954 10.77166
16.322888 22.25345 40.633054
16.269053 22.278738000000004 27.938841000000004
16.400517999999998 22.441180000000003 22.01202
16.106382 21.91032 16.386189
16.681916 16.086801 39.845525
16.702255 16.181511 34.214998
16.175313000000003 16.270622000000003 28.107115
16.868551000000004 22.509306000000002 34.404548
16.068676 16.21527 22.046734
16.911227000000004 34.094526 16.418708000000002
16.635359 34.502028 28.639736999999997
22.427115999999998 16.136896 16.665109
21.982226000000004 16.120243000000002 10.333454
22.746669000000004 10.846307 40.040189000000005
22.091486000000003 10.10947 22.361847000000004
22.615514000000005 10.075935 16.687751
22.783417 10.279422 10.139207
15.939588 34.240055000000005 22.574457000000002
16.876055 40.018064 40.427039
16.364176999999998 39.926219 28.788805000000004
16.21479 39.983168 22.627215
16.057341 39.815627 16.525432000000002
16.580140999999998 39.793495 10.571742
16.131475000000002 34.016768000000006 39.909108
16.653075 33.967031 34.557754
15.909645 40.074109 34.425407
16.630515000000003 16.007418 16.166525
16.832357000000002 16.156477000000002 10.374907
16.778486 10.725627 39.88352
10.655717000000001 28.399653999999998 10.903269
10.67994 22.623776 40.633057
10.666658 22.140297000000004 33.844479
10.944078 22.502271999999998 28.016298
10.643873000000001 21.996240999999998 22.093822000000003
10.145501 22.709238 16.533023
10.329747 28.654318000000004 16.767490000000002
10.67948 22.682990000000004 10.692469000000001
10.114286 16.545598 33.833612
10.183967 16.296059 28.530431
10.879895 16.550693000000003 22.172316000000002
10.7461 16.702049000000002 16.343462000000002
10.819361 16.301355 10.214023000000001
10.083547 10.434626 34.676928
10.804918 16.661450000000002 39.848224
10.125708 28.226357 22.078079000000002
10.439472 27.875704 27.977026000000002
10.586291000000001 28.046005 33.931245
16.623632999999998 10.638014 33.873898000000004
16.434914 10.455112 28.826880000000003
16.68542 10.622901 22.660058
16.542540000000002 10.913758 10.771418
10.678082 40.182109000000004 34.651109
10.620869 40.57641 28.34961
10.275279 40.516082000000004 22.829812000000004
10.2297 40.550997 15.990572
10.211043 34.582997 40.535482
10.142507 34.667312 34.472549
10.789642 33.785312 28.409262
10.218361 34.040095 22.482115999999998
10.323582 34.04089 16.738716000000004
9.978725 34.497016 10.438224
10.749899000000001 27.872039 40.342965
22.178962 16.740723000000003 21.961803000000003
21.873741000000003 16.685435 28.530079
22.004432 16.572611000000002 34.090559000000006
22.762304 16.121996000000003 40.230715000000004
28.244331000000003 33.94355 28.039012999999997
28.311249000000004 34.709622 21.975783
28.058436 34.443368 16.128406
28.450344 34.049122000000004 10.179604
28.562545 28.662070999999997 39.98842
27.990412 28.454281 34.637666
28.610107999999997 34.405007000000005 33.992473
28.627575999999998 28.203023 28.132682000000003
28.287678 28.82918 16.51101
27.930767000000003 28.007238 10.674705
28.260126999999997 22.109267000000003 39.914808
27.944176 22.528249000000002 34.381255
28.677104999999997 22.277061000000003 28.147067999999997
28.135346 21.940928 22.246887
28.491124999999997 28.843643999999998 22.419894
28.567814 34.006103 39.991232000000004
28.278723 40.424127000000006 10.807015
28.201760999999998 40.77085400000001 16.286735
34.139112000000004 16.749211000000003 34.450026
34.60945400000001 16.150375 28.314483000000003
34.167973 16.113699 22.530787000000004
34.033573 16.324824 16.08869
33.960536 16.179713999999997 10.413219
34.516061 10.192552000000001 39.989533
34.304595 10.265671 34.642133
34.597022 10.087692 28.666375000000002
34.051286 10.929571000000001 22.425963000000003
34.205812 10.092751 16.447740000000003
34.676588 10.260247 10.526067
27.870191 40.023293 40.350035
27.994599 40.234801 33.993496
28.126109999999997 40.479915 27.925919999999998
28.681297 40.435081000000004 22.362291
28.404097 22.845698 16.271003
34.62821400000001 22.566883000000004 10.671098
28.034733000000003 22.599465000000002 10.421488
28.605176 16.526888 33.990745
22.449766000000004 34.574464 16.139682999999998
22.033796000000002 34.540534 10.725186
40.63792 39.789443 28.234344999999998
22.598802 28.129514999999998 34.526358
22.126832 28.357008 28.631026
22.353954 28.824446000000002 22.392939
22.298873999999998 34.38948800000001 21.920524
22.414046 28.790846000000002 16.212151
22.036763999999998 22.786217999999998 40.391142
22.642234000000002 22.472332 33.850351
22.32474 22.723367000000003 28.051949999999998
22.089202 22.295066 22.797921000000002
22.141043000000003 22.633138000000002 16.202928
22.757758000000003 22.801043 10.319189
22.660258 27.994905000000003 10.194162
22.081139 33.95721700000001 28.203333
22.602639000000003 34.65273 34.33168
22.891046000000003 34.291387 40.39014
28.704231 16.755415 28.533271
28.100830000000002 16.710355999999997 22.033502
28.299028999999997 15.979926 16.271746999999998
28.845418000000002 10.695724 40.409544000000004
28.546073999999997 10.886548 34.145638
27.908841000000002 10.58154 28.007562
28.623874999999998 10.14889 22.682868
27.983607 10.285781 16.281027
28.116408999999997 10.280758 10.067008
22.474199 39.96502400000001 39.996832000000005
22.057944 40.648422000000004 34.103493
22.042085999999998 40.520887 28.001316000000003
22.784678 39.795866 22.259751
22.13678 39.96323400000001 16.630408000000003
21.865569 40.230519 10.619542000000001
28.581947999999997 16.337813 40.52373600000001
40.544228 39.984439 34.081303
13.681747 13.401202 13.658808
19.445769 37.063786 37.12847300000001
25.260843 13.410531 13.245534000000001
25.220568 13.357247 19.262786
25.147649 13.248321 25.321149
25.375899000000004 13.505889999999999 31.614240000000002
25.259088 13.229757000000001 37.253438
25.454442999999998 19.748936999999998 13.430290000000001
25.414272000000004 19.069775 19.33692
25.132047999999998 19.194279 25.511696
25.495051000000004 19.262285 31.564079
19.302239 37.024826 31.464947000000002
37.341081 37.421903 37.53901200000001
25.238545000000002 25.215253000000004 13.344542
25.22909 25.208433 19.645116
25.387151000000003 25.395440999999998 25.107069000000003
37.102845 37.110613 31.172352000000004
25.10935 25.291292 31.400129999999997
25.45539 25.188428000000002 37.404079
25.416215 31.069789999999998 13.350491
25.469258000000004 31.139167999999998 19.190324000000004
37.423853 37.4474 25.221715000000003
25.532137 31.141024 25.207178
25.254687000000004 19.551416000000003 37.531793
25.427494000000003 31.558926 31.165731
19.638469999999998 37.219556000000004 25.538406000000002
19.433889999999998 37.108432 13.679122
13.464905 37.087228 31.091692000000002
13.41943 37.373598 37.474548000000006
19.206885 13.504605 13.235412
19.300394000000004 13.594834 19.717451000000004
19.227218999999998 13.276611 25.283022000000003
19.628593000000002 13.57379 31.489027
19.322971000000003 13.262914 37.511509
19.143325000000004 19.512483000000003 13.555724
19.236351 19.256584000000004 19.64139
19.204017999999998 19.315886 25.190046000000002
19.415074000000004 37.573159 19.551018
19.184001000000002 19.595185999999998 31.484842999999998
19.326887 25.16762 13.346966
19.479425 25.16406 19.666672
19.42024 25.44762 25.137263000000004
19.629562 25.201467 31.108916
19.547524000000003 25.12836 37.353289
19.275404 31.085867 13.671476
19.584274999999998 31.208692999999997 19.639471999999998
19.160832 31.320979 25.198246000000005
19.367567 31.084578999999998 31.102586000000002
19.10102 31.319305999999997 37.45318
19.462930999999998 19.247323 37.507305
25.42071 31.130083 37.381709
25.561219 37.42582 13.314148000000001
36.994648000000005 37.427485 19.348174999999998
31.187607 31.510457000000002 31.208681
37.251406 31.19433 13.258668
31.572208000000003 31.165543 37.246303000000005
31.2836 37.101639 13.310944000000001
31.054071 37.105463 19.244533000000004
31.374471 37.454221 25.094921
31.200904 37.187466 31.006736000000004
31.213738999999997 37.083037 37.504518
37.453790000000005 25.303583000000003 37.08017400000001
37.133928000000004 25.534785 31.150191
31.393219000000002 31.662067999999998 25.396478000000002
37.447163 13.501284 13.303211
37.256114000000004 13.256304 25.186085
37.425589 25.399523000000002 25.193159
37.486368000000006 13.480704000000001 31.54678
37.282680000000006 13.425578 36.917211
37.492584 19.192737 13.402356
37.174518 19.531483 19.247276
37.179524 25.693489 19.315021
37.449209 19.363522000000003 25.557647000000003
37.191173 19.218674 31.173975
37.11586500000001 19.190193999999998 37.435666000000005
37.021052000000005 13.701758 19.501276000000004
31.087088 31.172355000000003 19.439075000000003
31.492541000000003 31.345329 13.305426
37.23857 31.604391999999997 19.411859
25.303007 37.044703000000005 19.633051000000002
25.656555000000004 37.268437 25.231869000000003
25.189571 37.099011 31.123978
25.555507 37.155771 37.529705
37.197544 37.453808 13.375206
31.231259 13.388052 13.701565
37.462672000000005 31.451411999999998 37.175324
31.467303 13.311524 19.563271
31.150784 13.231944 25.179491
31.328166000000003 13.333857 31.117764
31.025922 13.502007 37.218399
31.240637999999997 19.687035 13.246351
37.455450000000006 31.132126 31.192998000000003