1_train/53_cspbbr3_methylammonium_4_0.20\53_cspbbr3_methylammonium_4_0.20.xyz
1.0
47.821723000000006 0 0
0 47.821723000000006 0
0 0 47.821723000000006
Br C Cs H N Pb 
240 17 95 102 17 64 
Cartesian
26.9619125 32.6378905 17.8910205
32.756144500000005 35.730785499999996 27.0325095
35.939073500000006 20.7532045 20.8103665
23.863157500000003 27.1182295 14.862637500000002
26.8656705 26.7524645 17.7351585
27.154685500000003 23.8987385 20.8575815
32.885900500000005 35.72563650000001 32.560145500000004
35.7956525 21.1169675 14.7737835
24.0945685 27.073763500000002 20.902003500000003
23.7325315 32.8304515 15.1546455
35.7400375 15.2319635 32.8333665
26.6105585 26.8811205 23.828195500000003
27.1464945 29.7900265 15.0757135
27.0939115 23.9766055 26.7512125
35.7543795 15.1586145 26.931196500000002
26.6422875 23.9920325 14.9327445
23.6879275 26.8080675 26.9097165
35.7328495 14.7355655 20.895159500000002
26.997858500000003 26.9228865 29.6927485
27.0486385 32.651191499999996 12.1066845
26.9903095 24.1771085 32.8673735
35.6703845 14.963895500000001 15.2053695
24.057623500000002 26.7952745 32.7284765
27.0993035 26.9976215 35.85467750000001
26.776986500000003 27.1046635 12.1574325
33.055209500000004 24.0180855 32.886187500000005
26.9787335 21.0825485 35.945173499999996
26.965322500000003 12.194475500000001 20.7911685
35.9336375 32.6764355 32.8369855
24.0732135 15.152278500000001 21.0533655
35.83355950000001 33.1180045 26.8604705
26.6790385 15.0687165 23.9935155
26.722096500000003 11.859884500000001 26.8718955
24.0450695 15.218390500000002 27.0053565
35.918704500000004 32.862496500000006 20.693722500000003
26.692560500000003 14.910790500000001 29.799916500000002
26.8660155 11.8416545 32.7095965
23.7137595 15.114023500000002 32.924389500000004
26.854250500000003 14.7867335 35.8744645
27.011091500000003 20.721229500000003 11.9943025
35.8113015 33.0059045 14.810142500000001
35.63320850000001 20.8150005 26.820504500000002
26.8260545 17.8051475 15.1160225
35.8307825 27.172933500000003 32.8098165
26.836582500000002 21.033977500000002 17.7686755
35.6345185 26.7840915 26.8882935
26.8999195 17.8395455 21.2086015
23.9054755 20.6933015 20.972524500000002
35.900315500000005 26.6824505 20.8217035
26.7290545 20.8437845 24.0861935
26.8243055 17.8371785 27.023505500000002
24.1690675 21.0067205 26.9802335
35.636129499999996 26.694685500000002 14.9750455
26.9239035 21.1155575 29.8907675
35.804173500000005 20.6848925 32.7407095
26.941637500000002 17.8228315 33.0369265
23.8865915 21.0287225 33.000414500000005
23.738098500000003 20.9974005 15.067849500000001
27.0002335 29.759556500000002 20.680689500000003
24.0375645 32.6714725 26.9623155
32.9034815 36.0377065 20.852919500000002
29.7189745 32.7790655 20.822859500000003
33.0178445 20.9232705 18.1283565
33.0286965 18.0986825 21.082262500000002
29.994135500000002 21.0726105 21.0717645
33.0051965 29.9954535 20.9895965
32.9498685 21.0976025 23.786867500000003
32.9221945 32.8692995 18.1942355
32.8179825 17.7917145 27.0788285
30.0761065 20.7708115 26.7803295
32.9366605 21.1842925 29.9075665
33.0100545 17.885026500000002 32.998315500000004
29.9607605 20.767864499999998 32.6734035
32.9564285 21.1445385 35.9115855
29.6663025 21.0647805 14.9218775
29.8667225 32.6088675 14.8653385
32.6869935 26.7319065 11.8511185
32.8837975 24.1471785 15.134059500000001
29.9475245 26.676448500000003 15.0872265
32.8091765 32.7636465 11.7912785
32.763197500000004 26.908738500000002 18.1874625
32.9644495 24.077379500000003 20.8518375
30.1105545 26.840867499999998 20.8588525
32.6487965 26.9562535 24.0015695
32.913266500000006 23.9398075 26.6060595
32.6153095 26.979070500000002 35.88587150000001
30.038995500000002 26.920777500000003 26.7682165
29.727957500000002 27.0401165 32.9572025
32.7437775 26.9205575 29.6730115
32.864815500000006 29.7701555 15.2253015
32.9817355 17.9656575 15.173775500000001
33.010748500000005 21.0273425 11.9424975
32.931439499999996 14.839602500000002 35.6488695
26.9766525 32.7402875 24.143155500000002
26.8241975 29.793557500000002 26.7160835
33.0383645 35.8091615 15.0419675
32.645497500000005 32.7635485 35.833481500000005
26.6956885 32.7546635 29.719617500000002
23.8031945 32.8349045 32.9964335
27.0760115 32.9830745 35.892396500000004
29.948259500000002 32.8575975 32.667038500000004
26.971798500000002 35.650501500000004 14.774525500000001
27.046557500000002 35.9041675 20.9212295
26.7358675 36.0390625 27.0047665
27.0005795 35.685584500000004 32.6391925
32.929724500000006 29.7837635 32.9840105
32.8870405 14.8839775 11.7795655
33.056304499999996 12.163370500000001 14.8960725
29.8983315 15.086071500000001 15.204183500000001
32.7367385 32.9542925 29.7493675
33.0022935 14.934254500000002 18.0959945
32.692051500000005 11.8818525 20.8500465
30.0767415 14.7928985 20.8895425
30.0656195 32.855686500000004 26.8598025
32.8133095 14.771938500000001 23.8233535
32.736956500000005 30.0986175 26.760016500000003
32.9215065 12.2514085 26.897002500000003
26.9790305 14.8676635 17.801371500000002
32.686094499999996 14.8316725 29.7755885
33.0224065 32.6246485 24.0003475
32.7677695 12.0690775 33.104746500000005
29.8949205 14.8886325 32.9960205
23.751154500000002 32.9569495 20.7629785
29.9583625 15.1436755 26.8427885
27.0575295 29.856589500000002 32.6969345
23.9686455 15.1423175 15.2290705
20.9397665 12.221481500000001 14.8175345
18.1277665 15.176253500000001 15.1198385
12.200698500000001 20.9823415 26.7713015
21.1488145 14.8318215 17.989030500000002
20.8576325 11.8247975 21.0475695
18.068258500000002 14.7657635 20.8999965
20.976391500000002 14.7821525 23.8959545
20.8825165 11.878849500000001 27.0003395
14.9039955 17.804852500000003 27.028706500000002
17.7693985 15.043081500000001 26.7097215
15.0584205 20.7405205 23.726602500000002
20.7614315 15.1621165 30.0005925
21.067163500000003 12.0759705 32.636210500000004
21.1166535 14.8485095 12.145782500000001
17.7969185 15.1170215 32.7434595
20.872819500000002 15.1307585 35.899161500000005
15.1404745 18.1067125 20.7842355
15.017129500000001 20.712685500000003 18.1463765
20.9393365 20.7270085 11.8420585
21.1381145 18.082698500000003 15.1478365
11.8504225 20.8033325 15.047558500000001
17.8656045 21.1442885 14.9655895
14.858470500000001 17.9750695 15.1405045
20.8229705 21.1029115 18.1363835
20.7557905 17.9563395 20.9275735
15.063980500000001 23.827309500000002 27.1082965
15.0926115 21.003304500000002 12.1572505
21.113278500000003 20.8713385 23.681314500000003
12.080063500000001 20.8044945 20.8206855
14.9032835 35.58283850000001 32.9410885
15.172852500000001 20.8431295 29.9140075
14.7772395 35.6634035 26.915140500000003
15.1312475 26.8048945 30.003003500000002
14.9310565 23.758291500000002 32.975721500000006
12.0328665 26.941198500000002 33.0133515
15.076387500000001 26.8477315 24.1390195
12.0344455 27.0986735 20.7507675
15.227227500000001 26.830440499999998 35.711138500000004
15.0618665 23.8932435 20.7151465
14.9743925 32.6312915 11.8957305
15.0741235 29.7993965 15.182820500000002
11.9666425 32.8666275 14.8009015
14.8899495 26.9929305 17.7252885
15.1205955 32.6873455 17.807990500000002
15.1517365 30.0666575 20.859842500000003
12.060026500000001 26.652901500000002 15.1626525
11.779801500000001 32.6930835 20.844608500000003
14.922007500000001 24.1624105 14.925313500000001
14.8765195 33.0264025 24.0721525
15.1424695 29.8115895 27.0753045
11.8193195 32.6535935 26.9817235
14.878213500000001 26.816541500000003 12.192799500000001
14.995496500000002 32.7597775 30.0447615
14.804585500000002 29.9944575 33.014756500000004
12.1896485 32.7390735 32.973363500000005
15.1089055 20.777023500000002 35.96795350000001
14.984785500000001 33.0531505 35.7507315
15.1038125 35.647923500000005 15.129399500000002
11.8696085 20.8893525 32.7266645
15.088684500000001 35.9678725 21.0807385
15.0408945 17.8763265 32.6114415
20.9520095 17.8245465 26.7361535
17.864310500000002 21.0610755 26.7809875
17.814035500000003 20.9808395 20.7843425
20.8842375 32.9436155 12.2198045
15.141061500000001 11.8925535 26.8366465
14.8938895 15.149022500000001 24.0888835
21.0056785 26.6253505 35.9288995
20.9283065 21.1431705 29.9810975
20.7096255 29.723951500000002 14.9170245
17.7962165 32.883362500000004 14.905796500000001
21.0782865 32.9570585 18.0943325
20.9768235 30.0659575 20.9908785
11.852479500000001 15.1177205 21.0385885
17.8026985 32.7599055 21.031731500000003
21.0914835 32.9258425 24.044044500000002
21.1065535 29.8582375 27.0164475
14.8097665 12.128937500000001 21.0414175
18.1183115 26.984195500000002 32.785137500000005
17.909952500000003 33.1288995 26.897036500000002
20.7722425 29.8984215 32.7222535
15.1251785 14.8773025 17.908317500000003
17.8130065 32.632309500000005 32.864433500000004
21.0853005 32.9691545 35.8020255
21.1092865 35.642075500000004 15.1570845
11.9849645 15.004575500000001 14.755767500000001
21.053542500000002 35.726295500000006 21.1091635
14.832078500000001 11.856386500000001 14.911618500000001
14.8177445 15.0921895 11.8796055
20.7926085 35.8852285 26.7839005
20.6784055 35.8185795 32.952507499999996
26.9163655 14.8703155 11.776438500000001
26.7082545 12.1817335 15.0361445
20.7252815 32.920854500000004 29.981952500000002
21.0194525 23.9606185 32.6396895
11.9974985 26.735889500000003 26.7602465
20.829849499999998 24.0003865 14.7522745
21.0607855 23.790416500000003 20.8359205
17.864290500000003 26.8874625 20.7572005
20.8136505 21.0123905 35.5908275
18.1293265 26.8446635 15.158095500000002
14.8234435 14.8529215 30.0492695
11.8976085 14.9680145 32.9994085
15.1087185 14.831454500000001 35.716519500000004
20.7994405 27.0062835 29.7222975
17.8959815 20.7800905 32.659450500000005
21.1110005 26.9270815 12.136653500000001
21.0498965 26.6899455 23.9172295
20.751269500000003 24.0835725 26.7689185
17.7574595 26.9629935 26.7002305
20.8086375 17.922515500000003 32.9750665
12.1394225 15.1399085 26.9582245
21.0729635 27.0439075 18.1439645
15.171905500000001 12.0792575 32.9410085
23.8832755 37.35010150000001 29.9296605
10.512472500000001 23.9765185 23.9650505
29.9075435 10.5838785 29.8104495
10.964135500000001 10.9195325 18.034855500000003
29.8071865 23.9323735 37.3348345
36.84430450000001 23.9532875 36.9484525
29.8276145 17.9357545 10.6094085
17.981209500000002 36.779171500000004 36.8161875
29.834415500000002 10.8833935 11.025239500000001
36.8157295 23.9831745 11.028042500000002
10.5216445 17.9223775 18.0526665
29.9242855 10.9204665 36.8876015
36.7790555 10.991844500000001 23.9648195
29.829238500000002 10.4653945 23.9316235
10.9826905 17.8946635 36.8095835
36.7761215 36.83505650000001 29.8123235
36.843365500000004 17.9581545 36.773219499999996
35.3975025 29.6176475 18.331553500000002
29.5423565 35.3359435 23.728355500000003
30.2637785 29.7119095 29.6040135
36.135296499999995 12.0163785 30.193697500000003
30.1275585 29.9092825 11.6804915
35.7876935 29.4336005 35.69122250000001
35.3477405 36.125133500000004 17.861093500000003
35.55529250000001 35.4527695 23.512270500000003
29.5794265 35.86922150000001 36.331779499999996
12.5740175 23.936774500000002 17.7524395
29.4975565 36.084447499999996 29.9297755
30.1966375 35.7768945 17.682686500000003
29.4508115 29.9721635 17.5572135
36.1048335 18.1023775 29.4968575
36.183394500000006 18.2338075 23.9307555
35.7412415 23.475071500000002 17.9611765
11.6968575 17.7245265 30.2949025
12.401514500000001 18.1481375 24.2561175
11.9537265 11.7442145 23.5963155
12.4092865 12.148345500000001 29.4233665
35.553970500000005 24.108556500000002 24.1661465
36.1478695 17.7874045 18.127578500000002
29.7673215 30.2952815 24.0622255
29.4816155 30.2473485 35.754056500000004
35.6653915 24.1770265 29.4195415
23.7484785 11.5954575 17.7033405
12.1214805 24.3009005 12.2962875
35.5095125 30.2460165 11.891628500000001
35.84084850000001 17.8333015 11.5276905
12.060377500000001 18.1303735 11.5478965
30.0403455 36.1508925 11.9196115
11.9126455 23.5131085 29.5575785
24.1978555 30.169169500000002 17.692221500000002
17.7105125 18.2515845 36.2575885
23.7043765 29.6110325 11.792452500000001
18.0946195 23.5590295 12.0230645
24.1397535 24.3486955 29.7523925
17.7115035 24.2268515 17.9435565
23.779913500000003 23.5693385 24.2843895
18.2572705 23.6954555 23.9844755
24.245998500000002 24.289276500000003 17.7737775
17.556248500000002 24.127440500000002 29.5953825
23.9861415 24.4446525 12.2880105
17.6979535 24.332341500000002 35.5849855
24.171686500000003 18.1525965 36.233138499999995
17.9252565 29.3964325 12.2425905
23.6616355 17.8482175 29.584239500000002
18.2722725 30.1239925 18.1297925
23.4165905 18.243147500000003 24.084077500000003
18.3593775 30.0277775 24.2325615
23.9058615 18.4044595 17.7326815
18.1098685 29.7784905 30.2276285
24.1603625 18.212443500000003 11.766367500000001
23.6302135 11.7534715 35.6381985
17.9700385 36.1600035 17.5201895
23.8608145 12.085591500000001 30.425027500000002
17.7164965 35.9173375 23.6110455
17.768342500000003 35.974267499999996 30.3687695
24.0646435 12.3497935 23.5012295
24.1814195 12.063263500000001 11.6328185
30.0506515 23.9170555 30.2577295
18.2834705 17.8253075 30.013147500000002
23.5599215 30.154131500000002 23.967095500000003
23.5885855 23.7555015 36.11765150000001
24.2159945 29.493371500000002 29.9331055
29.8325025 24.0615755 24.4017345
12.041747500000001 23.7469225 35.4566935
12.307422500000001 30.0244855 11.729644500000001
30.1672205 23.6449295 17.9438375
12.040159500000001 29.3281965 18.1135945
30.2863745 23.8039275 12.1250105
29.5062825 18.0062465 36.1920545
11.9546395 29.6306675 23.5967145
29.6849595 17.442294500000003 29.6045735
17.800324500000002 18.2547825 24.4103305
30.049636500000002 17.9020845 23.5520745
11.7709395 30.0992515 36.0719065
30.1391415 18.2645205 17.8279175
12.0326555 35.87376450000001 17.4968805
12.021114500000001 36.1417395 24.104309500000003
12.0264135 29.9731855 29.3643805
17.6732015 11.9606285 11.646748500000001
17.5576825 18.1077435 17.616432500000002
12.2604395 35.3999735 29.7787075
23.550787500000002 29.8999475 36.1409575
23.5721725 35.4535355 12.075243500000001
24.378017500000002 35.648326499999996 18.1236865
23.9462215 35.57981550000001 23.4477095
18.4215965 18.218767500000002 11.7115255
23.9300355 36.0939415 35.5280915
17.9854245 12.4671245 29.5864695
29.8075395 11.597499500000001 17.8036645
18.2262405 11.859471500000001 24.2857555
17.9867895 11.7531785 17.598164500000003
18.1814455 12.3043195 35.83816950000001
35.21379350000001 24.7605215 35.8235605
10.1601225 17.336890500000003 36.5197235
29.941284500000002 11.5809855 12.9740175
30.6616755 12.673220500000001 11.9104525
28.9918035 12.531771500000001 12.0156585
29.7451935 11.4623115 9.9722945
11.394203500000001 17.5684495 37.7331995
12.368830500000001 18.8370105 18.3451635
30.8003755 10.378137500000001 11.0363325
10.2214635 17.0429445 17.4809645
10.6754835 19.0180855 37.0417985
10.2140695 18.0527525 18.9726965
10.2133625 18.7961435 17.3930335
12.4077125 17.1545765 18.482084500000003
12.3951375 17.9180075 16.9891545
12.8172995 18.5511255 36.118508500000004
28.9764425 10.2974715 11.127396500000001
29.3354475 18.8173645 10.1947235
29.403115500000002 17.0168375 10.189732500000002
30.9192395 10.801723500000001 37.1115185
29.2663215 11.3488045 37.673047499999996
28.9643705 12.3923775 29.4632955
29.9332745 12.376499500000001 30.8478865
30.6220815 12.4213185 29.3226225
30.8119055 10.205517500000001 30.267526500000002
29.7658805 10.235929500000001 28.8100865
30.2890315 12.8561685 36.17452850000001
29.026636500000002 10.193184500000001 30.4902825
28.915277500000002 12.2605175 35.4833235
30.9355075 18.017955500000003 10.181615500000001
24.869785500000003 35.46061350000001 30.1119525
23.6720545 35.43364650000001 28.9645335
22.935282500000003 37.6483645 29.6191255
24.617708500000003 37.58448750000001 29.1296115
24.213819500000003 37.62178350000001 30.8387995
30.4016095 11.7215775 35.01219450000001
36.1933155 23.831741500000003 34.8505435
30.3744745 17.1324805 12.4163975
30.2709905 18.820498500000003 12.4095255
28.9024705 17.9165825 12.423972500000001
29.4090355 10.0504025 36.45767550000001
23.2298175 35.4708995 30.5686095
35.1273465 23.119982500000003 35.92607050000001
10.0469305 11.4180845 17.5041185
36.34368550000001 24.0103635 37.79401750000001
12.376895500000002 23.2650675 24.6609635
12.366371500000001 23.5741945 22.973222500000002
12.3883355 24.8639645 24.1222745
10.167810500000002 24.577444500000002 23.1335035
10.174115500000001 24.2371245 24.9164205
10.2207995 22.9163385 23.7365435
28.994809500000002 12.3857535 23.4578415
29.9564205 12.3893755 24.8866105
30.626130500000002 12.4079855 23.3758625
30.8009625 10.2153115 24.3903295
29.7930345 10.175624500000001 22.8936355
28.9952625 10.2304575 24.5220685
34.88180750000001 18.240361500000002 36.21308450000001
36.061411500000006 18.5757145 35.00600250000001
35.6485385 17.0040305 35.3872925
37.78739950000001 17.6535465 36.430775499999996
36.5114825 17.2663845 37.67368950000001
36.978418500000004 18.9934425 37.2382415
36.146836500000006 34.93070850000001 29.3792175
35.5215115 35.52917550000001 30.8184805
34.9309755 36.1467255 29.3627705
36.48328550000001 37.751472500000006 30.3774665
37.0629795 37.1016425 28.851796500000003
37.7021675 36.429330500000006 30.3842635
11.6896105 18.3591295 34.9200175
10.823066500000001 10.6948065 18.9977105
11.3440195 10.0971005 17.3901105
12.2168975 12.291562500000001 16.9955425
12.8934545 11.6389885 18.398170500000003
37.506819500000006 24.7286745 36.668045500000005
36.150005500000006 24.3796395 12.878481500000001
34.9589285 24.338987499999998 11.697625500000001
35.545916500000004 22.9591925 12.321094500000001
36.4485985 23.3680285 10.134199500000001
37.7190415 23.4416275 11.3772645
37.053171500000005 24.9706435 10.6913245
17.0107575 35.4822595 35.632388500000005
18.3779875 36.13117650000001 34.9107295
18.4686165 34.9605045 36.1145975
18.9783215 37.166902500000006 37.0538895
17.543491500000002 36.4328045 37.78442750000001
37.38394050000001 22.9920025 36.7418935
17.3905485 37.7203375 36.473020500000004
34.934846500000006 11.6610335 24.2436565
36.09675750000001 12.7888125 24.4998135
36.984035500000005 10.5818305 24.9186695
37.8091395 11.419047500000001 23.5205575
36.5436775 10.169916500000001 23.2803935
29.9658185 24.894683500000003 35.4276005
30.6397155 23.345261500000003 35.4553475
28.9930405 23.5216745 35.4095245
29.7509495 22.9090375 37.6347655
29.0111305 24.5381215 37.593736500000006
30.8540815 24.3202015 37.5938125
11.719682500000001 12.853817500000002 18.473039500000002
35.6634595 12.3651405 22.9973615
12.3169915 16.9843495 35.6260645
29.8438625 12.039091500000001 35.88001250000001
11.961168500000001 17.8967465 35.815019500000005
29.9459455 23.9742415 35.80587250000001
18.0033495 35.876675500000005 35.743452500000004
23.9549115 35.7662325 29.9080285
29.796208500000002 11.966195500000001 11.9579105
11.985331500000001 12.0472585 18.0537865
35.814856500000005 12.085152500000001 23.9334975
35.84806350000001 35.87887450000001 29.7909765
35.814439500000006 23.8252655 12.0395365
35.781617499999996 18.0255325 35.7495395
29.913107500000002 17.9737215 11.957907500000001
12.0706375 23.896341500000002 23.8551155
11.9299175 18.0088795 17.9270165
29.9165595 11.9765975 23.9866285
29.8197695 11.9639515 29.8151955
35.859131500000004 23.8579155 35.8475035
14.9000385 14.8096195 14.704869500000001
26.722687500000003 32.8851255 33.0838655
20.7562815 20.723942500000003 14.920279500000001
32.8963405 14.984039500000002 14.722300500000001
20.9027425 14.9497745 32.5352915
32.8088135 15.0110325 20.6409475
21.0147435 15.293473500000001 26.7649395
32.780752500000006 14.815095500000002 27.0707175
20.7860745 14.860235500000002 21.1484935
32.7722585 15.1779165 33.0143245
20.7083695 15.052794500000001 14.959152500000002
32.8379345 20.7671335 15.1796485
32.918377500000005 20.7304135 20.8907215
32.5662145 20.9923825 26.9100545
14.988001500000001 33.0618135 32.6822055
32.6647125 21.154477500000002 32.7214715
14.9916055 33.0446455 26.6049695
32.6068265 26.8501745 14.9115055
14.776369500000001 32.7289065 20.7868335
33.0235885 26.8327675 20.6895105
14.812589500000001 32.639979499999995 15.1366785
32.7133305 26.6102545 26.8934055
20.7885405 20.7031275 20.8286945
14.7477485 27.0685475 32.7679555
27.0911645 32.7743155 26.9886915
27.0395315 32.8485625 21.1283615
26.8879335 14.793418500000001 15.193910500000001
27.1267185 15.0152765 27.130910500000002
26.9089215 15.3245535 32.9208795
26.6967895 20.8415825 15.123995500000001
21.1233095 33.0173325 32.9556325
27.0005415 20.801955500000002 20.708506500000002
21.1640735 32.673814500000006 26.9124945
26.7577885 21.0615415 27.1986695
21.1165555 33.0854865 20.7931995
26.7705185 21.126185500000002 32.6032595
20.7715655 32.6376405 14.9301145
26.9604645 27.0966825 15.0750715
20.872259500000002 26.9565515 32.492343500000004
26.7145185 26.9977185 20.6738215
21.0356175 26.7563375 27.081395500000003
26.8443435 26.640791500000002 26.6798805
20.8558555 27.0625205 20.765576499999998
27.0957785 27.1368875 32.9468435
21.1586045 26.7668235 15.000640500000001
26.759329500000003 33.016994499999996 15.1054595
20.794604500000002 20.819377499999998 32.708310499999996
21.0899215 20.8037965 27.0949975
32.8970895 26.8924955 32.5167865
26.6744965 15.0851825 20.8004855
32.952250500000005 32.7019325 27.070394500000003
14.8368905 20.6323575 20.9540295
15.1042055 20.6342925 32.938111500000005
14.809955500000001 15.024423500000001 32.6987995
15.2965885 15.126217500000001 26.842686500000003
32.5599585 32.737238500000004 32.7050845
15.0835355 26.9948355 14.8112565
32.8712005 32.5894495 21.0563665
15.1060275 14.9587575 20.6655775
15.2162295 26.811692500000003 20.9221985
15.2329825 21.097397500000003 26.686214500000002
15.134268500000001 20.9907965 14.8280165
14.9772505 27.0178955 26.5881315
32.7069305 32.9376135 14.8137345
