1_train/43_cspbbr3_methylammonium_3_0.60\43_cspbbr3_methylammonium_3_0.60.xyz
1.0
41.886679 0 0
0 41.886679 0
0 0 41.886679
Br C Cs H N Pb 
108 28 26 168 28 27 
Cartesian
17.9688345 26.615135499999994 21.016454499999995
24.083969499999995 14.858427499999998 15.023635499999997
26.7500815 12.146286499999999 14.904858499999998
21.1178575 26.919495499999996 11.979853499999997
26.925433499999997 14.786132499999999 12.145423499999998
20.986194499999996 24.0757755 15.165328499999998
18.0806015 26.741528499999994 15.166757499999997
21.147795499999994 30.060111499999998 20.844049499999997
20.7437525 29.857184499999995 14.784570499999997
21.018589499999997 27.171944499999995 29.849267499999996
17.971596499999997 26.799390499999994 26.6692265
20.9332815 24.009370499999996 26.7240415
30.033348499999995 14.880291499999998 14.967279499999998
20.937245499999996 26.7298975 17.723594499999997
20.9206905 23.808006499999998 21.143224499999995
29.6583385 15.093007499999997 21.106156499999997
20.9629105 29.792030499999996 26.644867499999997
20.997257499999996 27.081638499999997 23.7543485
26.689606499999996 12.077096499999998 26.914266499999997
26.629748499999998 12.075086499999998 21.043432499999994
26.746368499999996 24.0001525 27.010217499999996
23.773963499999994 26.7673615 21.067880499999994
26.657777499999995 23.871120499999996 21.121717499999995
26.782878499999995 26.659477499999994 17.897029499999995
23.906743499999997 26.776188499999996 26.6917945
23.853879499999998 26.717207499999994 14.832188499999997
27.0638285 23.881776499999994 14.844347499999998
26.775343499999998 26.972103499999996 12.244811499999997
27.118402499999995 20.9350375 29.903237499999996
26.7474055 27.044797499999994 30.021899499999996
23.743570499999997 21.062253499999997 27.052431499999997
27.136422499999995 18.0378975 26.880858499999995
26.819933499999998 21.024654499999997 24.137265499999998
27.018395499999997 29.937982499999997 14.846965499999998
24.0751585 20.860971499999998 20.842353499999994
26.693288499999994 17.972235499999996 21.1327025
26.993970499999996 21.022364499999995 17.7957575
26.747569499999997 30.0738495 21.002080499999998
24.069008499999995 20.9991165 15.137644499999999
26.806366499999996 18.074183499999997 14.851301499999998
27.046138499999998 21.048492499999995 12.151741499999998
27.0836325 14.990475499999997 29.973077499999995
26.792032499999998 29.858878499999996 27.0761385
23.997839499999998 14.824269499999998 26.726361499999996
20.9244535 21.1508105 29.8898995
26.963585499999994 15.086182499999998 23.675026499999994
24.079029499999997 14.992752499999998 20.730838499999997
26.909932499999996 14.768986499999999 18.105403499999994
29.8282965 14.909888499999997 26.724748499999997
21.126996499999997 17.749168499999996 21.0083195
21.029402499999996 18.182131499999997 26.824938499999995
15.109854499999997 26.684844499999997 17.807481499999998
12.125431499999998 26.906575499999995 14.820415499999998
15.133129499999997 24.101980499999996 15.092855499999997
14.844790499999998 26.6579105 11.918175499999998
15.029780499999998 21.0628685 29.595775499999995
12.092220499999998 20.784758499999995 26.839989499999994
15.008692499999997 18.153164499999995 27.042108499999998
15.050256499999998 20.896764499999996 24.120338499999995
29.7488715 27.0313515 15.036828499999999
12.254891499999998 20.8686035 20.955087499999998
15.085820499999999 17.878173499999995 21.0695835
14.814153499999998 20.958330499999995 17.789858499999998
11.986699499999999 21.165268499999996 14.818291499999999
15.251423499999998 17.8660005 14.924537499999998
14.902067499999998 21.183057499999997 11.873612499999998
29.845797499999996 27.004484499999997 20.6996525
14.974705499999997 15.044840499999998 29.673734499999995
12.156358499999998 14.914448499999997 27.0625315
14.884430499999999 12.169237499999998 27.110919499999994
15.101404499999997 14.820554499999998 23.8652175
30.012516499999997 26.8236425 27.0628575
12.173032499999998 15.194433499999997 20.930549499999998
15.099363499999997 11.895286499999997 20.840211499999995
15.184358499999998 15.069915499999999 18.089499499999995
12.166469499999998 15.102979499999998 14.973426499999997
14.946835499999997 12.132187499999999 15.172606499999999
15.085892499999998 14.760954499999999 11.916049499999998
15.182789499999998 23.773664499999995 21.0610645
18.1588025 21.086217499999997 26.722602499999994
11.921117499999998 27.1300515 20.847587499999996
15.120624499999998 24.0007745 27.0325085
20.886303499999997 20.956615499999998 23.635746499999996
29.721993499999996 20.976037499999997 14.797985499999998
17.7344535 20.7915645 20.9053835
20.7667675 20.962386499999994 17.7381975
29.719851499999997 20.7963885 20.757696499999994
17.853584499999997 20.9290625 14.797649499999999
21.032203499999994 18.1623235 15.127009499999998
20.874553499999998 20.9055105 12.236573499999999
21.124833499999994 14.868095499999997 29.7244655
29.735375499999996 21.075079499999994 27.0406025
17.9911095 15.113272499999999 27.0459015
15.170166499999999 26.8937375 24.1052835
21.075276499999994 14.837062499999998 23.922447499999997
21.0833285 12.237463499999999 26.8229015
20.852482499999994 12.065707499999998 20.780168499999995
11.894157499999999 26.968041499999998 27.001574499999997
15.135276499999998 26.9093405 30.035847499999996
15.262845499999997 29.939218499999996 15.094051499999997
15.165517499999998 29.9858165 21.105548499999998
18.0682925 14.817100499999997 20.835243499999997
14.921608499999998 29.7400345 26.7659855
27.0521435 26.8144645 23.978506499999995
21.010496499999995 11.925609499999998 14.751973499999998
17.911235499999997 14.978015499999998 15.275873499999998
20.876591499999996 14.883467499999998 18.0970595
20.9241355 15.105705499999997 11.795733499999997
30.949608499999997 23.9526295 11.035260499999998
31.3839555 23.841720499999994 23.914910499999998
24.000624499999994 10.488348499999997 23.9601755
10.950478499999997 30.867582499999997 18.0251095
23.9113835 30.828793499999996 30.8788325
11.033298499999997 17.9191725 30.839144499999996
17.922413499999998 10.562784499999998 23.9865565
10.907109499999999 23.846591499999995 10.930711499999997
23.8494915 18.035842499999994 10.594374499999999
18.0192805 23.910082499999994 31.4186355
30.950658499999996 18.0285405 10.929682499999998
23.9746435 11.054061499999998 10.926510499999997
10.455219499999998 23.906034499999997 23.9829875
17.968183499999995 11.034546499999998 11.041272499999998
10.546838499999998 23.852529499999996 18.0032955
17.9997945 30.854530499999996 11.035796499999998
23.859661499999994 31.422531499999998 17.9551065
17.989368499999998 10.469792499999999 17.909749499999997
30.841379499999995 23.983182499999998 30.8933515
30.9322455 30.813123499999996 23.8781715
31.3807895 23.8311955 17.946138499999996
11.008742499999999 23.9848875 30.895889499999996
18.014422499999995 31.261900499999996 17.976767499999998
23.8843095 23.9071505 31.2716615
23.823724499999997 31.3407805 23.956363499999995
10.593554499999998 18.0293255 18.0007685
23.850412499999997 23.880903499999995 10.590920499999998
31.4246445 17.963783499999998 18.025025499999998
30.052719499999995 11.524999499999998 23.783005499999994
29.867810499999997 17.716700499999998 23.560700499999996
30.2396345 29.6646985 17.7148155
30.4079025 11.924874499999998 18.106765499999995
30.3170785 18.1977355 29.780890499999998
24.200615499999998 30.086789499999995 12.305916499999999
24.095363499999998 24.117123499999998 18.246393499999996
23.442998499999995 23.9092955 23.8234455
11.564804499999997 12.092371499999999 23.778857499999994
12.309487499999998 17.765922499999995 12.224741499999999
12.147465499999997 17.6769355 23.7057705
11.814949499999997 30.086696499999995 24.3070575
18.305809499999995 11.911427499999999 29.595451499999996
18.3218635 18.092682499999995 11.832420499999998
17.6366345 17.9935755 18.1701585
18.518302499999997 18.072142499999998 23.8079555
11.618319499999998 12.106274499999998 17.775619499999998
17.928644499999997 24.024742499999995 18.5246005
18.271739499999995 18.070009499999998 30.0587205
23.5787785 17.8436885 23.9776405
23.4772525 18.351729499999998 18.059960499999995
24.261767499999998 18.3151175 30.0761095
23.590548499999997 11.708681499999997 17.5594105
18.2348815 29.492633499999997 29.723119499999996
17.7454555 23.835447499999994 24.245965499999997
24.4518845 12.288210499999998 29.8453035
29.4129395 17.0166045 12.087257499999998
31.6556765 18.851836499999997 17.381120499999998
31.6916035 18.057436499999994 19.004403499999995
31.7011125 17.0164105 17.4990625
29.1208775 18.6542355 11.851382499999998
31.385194499999997 18.987588499999994 10.983090499999998
30.2316425 18.181472499999998 12.919894499999998
29.519974499999996 17.169202499999997 18.5132525
11.065354499999998 31.4519465 18.878708499999995
30.402375499999998 17.7467605 10.007124499999998
10.039626499999999 30.4008745 17.915423499999996
10.968447499999998 22.9702105 31.362457499999998
29.509224499999995 17.8817655 17.021942499999998
29.4630085 18.8009785 18.390162499999995
11.866072499999998 23.207652499999995 29.1873625
11.958087499999998 29.3177885 17.1386295
12.943190499999998 30.271040499999998 17.984671499999997
12.045860499999998 24.8100545 29.412491499999994
12.971273499999997 23.704775499999997 30.2841125
11.201648499999997 24.6714895 31.650555499999996
11.150315499999998 31.584528499999998 17.0773025
11.898223499999999 29.255410499999996 18.7481225
10.015941499999998 24.141921499999995 30.3940525
31.6669275 17.218735499999998 11.221847499999997
23.002059499999994 17.6679095 12.422519499999998
23.8344015 31.663607499999998 16.962773499999997
23.226183499999998 30.0331665 29.1695645
23.747302499999996 28.9473105 30.238851499999996
24.817987499999994 29.838477499999996 29.364780499999995
31.8219395 30.499120499999997 23.559093499999996
30.6095405 31.7391175 23.263721499999996
30.9946495 31.2866985 24.955155499999996
28.9303235 30.254988499999996 24.249157499999995
30.139348499999997 29.122108499999996 24.5399685
29.700644499999996 29.4654405 22.944252499999997
31.0016045 22.904448499999994 31.3174535
31.8133355 24.2479935 30.435447499999995
30.557165499999996 24.5799855 31.702782499999998
29.7633595 24.8345845 29.490970499999996
28.9728165 23.5577275 30.251017499999996
30.152421499999996 23.264939499999997 29.092915499999997
10.218005499999999 17.671690499999997 18.949530499999995
10.182667499999997 18.966385499999994 17.7583985
10.173922499999998 17.300873499999998 17.174698499999998
12.384582499999999 18.2481035 17.0433145
22.921896499999995 30.9431905 31.3631625
24.1396685 31.861006499999995 30.400794499999996
24.673464499999994 30.661246499999997 31.6582235
29.463905499999996 23.561116499999997 24.834117499999998
23.0468495 31.649832499999995 18.569627499999996
23.034238499999994 29.5055465 17.5059515
23.947112499999996 29.517269499999998 18.9169815
24.709106499999997 29.5076045 17.477245499999995
18.823569499999998 11.157432499999999 10.342493499999998
18.019679499999995 9.974327499999998 11.453822499999998
17.0781225 11.091085499999998 10.402067499999998
17.135403499999995 11.951375499999997 12.643129499999999
17.910985499999995 12.944433499999997 11.630095499999998
24.8360135 31.6690445 18.459298499999996
18.8501925 11.982623499999997 12.621131499999999
24.886705499999998 18.324071499999995 10.228591499999999
23.7075095 16.977745499999997 10.242147499999998
24.613555499999997 17.3450395 12.371813499999998
24.114441499999998 18.9260545 12.354667499999998
31.641225499999997 24.589974499999997 24.744370499999995
31.6571395 22.869589499999996 24.078117499999998
31.696704499999996 24.310104499999994 22.976085499999996
29.507335499999996 23.344655499999995 23.202938499999995
29.482957499999998 24.8977175 23.7948745
23.131361499999997 18.6188195 10.189393499999998
24.8963695 24.0753955 12.395793499999998
29.3315645 24.757240499999995 12.008669499999998
23.5465405 22.9965245 12.407249499999997
11.264781499999998 23.168603499999996 10.258093499999998
10.056258499999998 23.685053499999995 11.439173499999997
10.982142499999998 24.9426135 10.520639499999998
11.856904499999997 24.6123785 12.747848499999998
12.950670499999998 24.144932499999996 11.588432499999998
12.084757499999998 23.0487275 12.483732499999999
11.477354499999999 17.784923499999998 31.848372499999996
10.461646499999999 18.9634145 30.863651499999996
10.253653499999999 17.125218499999995 30.685706499999995
12.389641499999998 17.0459855 18.122057499999997
11.588445499999997 18.106495499999994 28.959858499999996
12.717493499999998 18.7429895 30.046513499999996
17.496987499999996 10.207768499999998 23.032210499999998
19.013017499999997 10.186482499999999 23.9099485
17.452371499999998 10.209892499999999 24.7836625
18.462670499999994 12.396855499999997 24.788835499999998
16.9911545 12.399984499999999 23.859067499999995
18.476988499999997 12.359274499999998 23.106118499999994
18.4898515 23.000679499999997 31.6488965
18.467510499999996 24.837779499999996 31.713697499999995
12.551947499999997 17.0858565 29.8143405
16.9189905 23.921001499999996 31.6413545
29.2016815 23.1498135 11.918625499999997
31.4996375 22.982299499999996 11.063250499999999
22.8500595 24.078025499999995 31.6602435
24.3377725 22.979668499999995 31.655595499999997
24.532388499999996 24.707052499999996 31.6638435
24.897709499999998 23.813684499999994 29.482088499999996
23.553284499999997 24.8166235 29.5233105
23.307376499999997 23.1619825 29.514396499999997
24.4303465 31.6570415 24.8589305
24.492983499999994 31.643415499999996 23.036598499999997
22.834245499999994 31.669189499999995 23.884249499999996
30.2936785 23.876132499999997 12.984120499999998
23.4826245 29.4710975 23.0572655
24.9101815 29.500930499999996 23.9399795
18.814885499999995 31.6415485 18.533447499999994
18.044489499999997 31.6839545 16.8989445
17.037488499999995 31.6664835 18.408679499999998
17.1889915 29.4845665 17.486661499999997
17.9401395 29.4679625 18.9540655
18.8072745 29.524640499999997 17.529270499999996
30.4303885 23.971360499999996 10.024977499999999
31.519440499999995 24.776632499999998 11.149588499999998
23.444473499999994 29.461898499999997 24.744124499999998
17.4376355 24.738086499999994 29.4710885
17.4943485 23.121394499999994 29.4965885
18.944677499999997 23.9312015 29.5320495
16.938295499999995 10.184243499999997 17.9099655
18.5365605 10.230487499999997 17.136399499999996
17.572883499999996 12.423974499999998 17.085168499999998
18.901217499999994 12.384192499999997 18.018241499999995
17.430080499999995 12.369544499999998 18.737126499999995
24.967600499999996 10.187861499999999 24.113781499999995
23.252705499999998 10.239959499999998 24.736047499999998
23.597046499999998 10.220285499999997 22.956774499999995
23.005846499999997 12.382300499999998 23.722696499999998
18.3916895 10.216296499999999 18.886756499999997
24.5738025 12.391918499999997 23.219889499999994
17.353896499999998 30.5913835 10.167937499999997
17.561983499999997 31.828480499999998 11.378323499999999
19.033927499999997 31.0470575 10.643771499999998
18.516766499999996 30.163991499999995 12.799363499999998
18.312095499999998 28.9938475 11.687911499999998
16.995475499999998 29.6751785 12.390243499999999
24.3426945 24.879037499999995 10.239712499999998
24.5234635 23.0763045 10.216168499999998
22.8556745 23.7749995 10.221623499999998
24.208488499999994 12.417234499999998 24.829938499999997
12.384418499999997 24.291456499999995 24.8185285
12.418683499999998 23.001730499999994 23.833651499999995
12.391629499999999 24.448010499999995 23.1551165
24.334082499999994 11.417104499999999 10.043836499999998
24.510263499999994 10.109263499999997 11.374458499999998
22.9109245 10.645019499999998 10.801341499999998
23.526540499999996 11.699610499999999 12.906274499999999
23.345470499999998 12.824742499999997 11.728869499999998
24.849368499999997 12.356590499999998 12.240947499999997
10.181982499999998 23.892183499999994 18.990424499999996
10.222416499999998 24.848114499999994 17.4899895
10.230088499999997 23.0490985 17.414986499999998
12.409288499999997 23.917771499999994 17.0439755
12.430568499999998 23.078114499999998 18.448375499999997
12.369378499999998 24.753691499999995 18.477286499999998
31.680583499999997 23.671167499999996 19.017577499999994
31.652285499999998 23.118577499999994 17.256220499999998
31.645940499999995 24.8877295 17.665615499999998
29.4607665 24.144670499999997 17.045765499999998
29.471276499999995 24.603466499999996 18.6017705
29.462228499999995 22.988068499999997 18.230666499999998
10.211055499999999 23.335143499999994 24.7335785
10.241183499999998 24.9626095 24.030308499999997
10.226596499999998 23.498611499999996 22.946478499999998
23.323327499999998 24.690609499999994 12.424317499999997
12.370173499999998 18.5721875 18.683373499999995
29.8314855 23.852576499999998 29.8522045
29.7831775 23.891890499999995 23.894377499999997
23.975329499999994 29.845003499999997 23.964028499999998
12.002242499999998 18.0350495 18.041548499999998
17.9047245 23.927480499999994 29.920561499999998
23.997899499999995 23.890907499999997 12.051374499999998
23.829933499999996 18.011391499999995 11.997622499999999
23.903476499999996 12.099874499999999 12.083459499999998
12.073498499999998 23.859170499999998 23.901492499999996
12.036416499999998 23.863514499999994 29.821822499999996
17.915510499999996 11.949176499999998 12.077444499999999
23.862564499999998 23.849793499999997 29.8095845
12.081399499999998 23.862562499999996 18.028763499999997
23.947224499999997 29.9253985 18.046760499999998
29.951187499999996 17.999446499999998 12.020689499999998
18.030758499999997 11.966760499999998 17.9348205
29.871818499999996 17.901374499999996 18.029625499999995
17.900409499999995 12.010583499999997 23.948665499999997
29.870425499999996 29.914959499999995 24.010054499999995
12.084632499999998 23.8791345 11.966503499999998
23.9267525 11.912510499999998 23.9217625
29.7799335 23.938947499999998 17.998281499999997
23.8790105 29.865466499999997 29.942046499999996
29.920052499999997 23.9182925 12.075602499999999
12.015374499999998 17.9197185 29.814454499999997
12.083429499999998 29.818602499999997 17.978941499999998
17.920129499999998 29.843596499999997 17.9046395
17.884984499999998 29.8542395 12.042842499999997
14.898760499999998 14.802475499999998 15.094465499999998
21.180080499999995 15.181276499999997 14.934598499999998
26.765600499999998 15.027778499999998 27.091750499999996
15.177290499999998 27.040390499999994 26.7978515
26.7655465 14.863319499999998 15.188085499999998
20.734706499999994 15.206135499999998 21.1160395
15.027043499999998 27.114898499999995 21.1664745
27.095885499999994 20.7481705 14.894880499999998
14.987358499999997 26.8365515 14.777530499999997
21.198362499999995 14.840369499999998 26.7594645
27.064324499999998 20.844710499999998 21.1371915
14.730185499999997 21.130463499999998 26.800081499999997
20.7548265 26.968219499999996 26.7369225
15.062796499999997 21.047613499999997 21.1329985
26.800985499999996 21.1645555 27.1421875
20.978804499999995 20.875387499999995 15.232633499999999
27.129532499999996 15.042934499999998 21.081573499999998
21.105959499999997 26.7935345 14.809224499999997
20.9580275 20.904467499999996 26.666928499999997
26.552670499999998 26.896122499999997 14.962086499999998
21.0016185 26.8997435 21.281235499999994
14.776948499999998 15.214026499999997 26.707131499999996
20.772360499999998 21.1130875 21.076465499999998
15.235222499999997 15.253917499999998 20.9881715
15.023880499999999 20.792984499999996 14.754252499999998
27.102026499999994 27.019944499999994 20.7414225
27.0752185 26.9022175 26.7511315
