1_train/59_cspbbr3_methylammonium_4_0.20\59_cspbbr3_methylammonium_4_0.20.xyz
1.0
47.77769 0 0
0 47.77769 0
0 0 47.77769
Br C Cs H N Pb 
240 17 95 102 17 64 
Cartesian
26.936906999999998 29.593134 21.052853
24.080196 26.713 14.989568
35.795536999999996 20.635968 20.837192
26.847021999999996 26.669998999999997 17.821927000000002
26.660568999999995 23.755995999999996 20.978361999999997
26.813612999999997 33.082684 18.027566
32.835655 35.95881 32.915805999999996
24.032863999999996 26.636806 20.981122999999997
35.957663 21.010776999999997 15.019091999999999
26.955779999999997 27.044446999999998 24.045344999999998
27.071779999999997 23.831652999999996 26.972958999999996
24.05073 32.806485 15.176534
26.968593999999996 29.807226999999997 15.112484
35.977356 15.138625 32.946725
23.780737000000002 26.674259999999997 27.027012
27.064785 23.693852999999997 15.057112
35.676013 14.826013999999999 26.757976
26.746474999999997 26.656984 29.946748999999997
26.841023 23.996404 33.007883
35.654448 14.849749999999998 20.797008999999996
23.878014999999998 27.086543 32.857200999999996
26.921631999999995 26.740910999999997 35.554522999999996
35.982054 15.080938 14.945942
26.677856999999996 32.699222 11.798335999999999
35.826704 20.957411999999998 26.614744
32.721976 23.616552999999996 32.897051
35.547126999999996 20.801288 32.806409
24.072077999999998 14.918740999999999 21.058287999999997
35.704762 32.959369 32.693091
26.965722999999997 15.200413 23.91588
26.93269 11.798119999999999 26.718137999999996
35.86842299999999 32.680133 26.667285999999997
23.958923999999996 15.120097 26.965511999999997
35.93182 32.927692 20.706964999999997
27.092404000000002 14.883531999999999 29.761282
26.713715999999998 11.754432999999999 32.760479
23.954749 14.832775999999999 32.682318
27.047739 14.832096 35.693844
35.952377 32.955266 15.02158
27.050393 20.866161999999996 11.837719
26.737086999999995 18.088126000000003 14.882238
27.054864000000002 26.973483 12.149547
23.706517999999996 21.050982999999995 14.790764
26.763433999999997 17.828333 20.811014
35.868711 26.79614 32.624738
23.978989 21.072206 20.889207
35.96355199999999 26.973906 26.867472999999997
26.807353 20.802369 23.719391
26.801733999999996 18.072747999999997 26.972578999999996
35.932505 26.723044 20.844979000000002
23.687686 20.988417999999996 26.985109
26.912304 21.074953999999998 29.962274
27.045153999999997 18.040636999999997 32.944399
35.966406 26.902039000000002 15.062949
23.664392 20.798341 32.756791
32.666351 35.582402 26.971402999999995
27.058048999999997 21.058861 35.964847999999996
26.699863 20.932639 17.742458999999997
23.956111 32.539625 20.838538999999997
23.717069000000002 32.705802 27.049118999999997
27.089616 32.781891 24.054902999999996
29.725592999999996 21.024046 15.068427999999999
29.613135999999997 32.768026 20.995897
32.929283 21.061774 18.122262
33.041286 17.968685999999998 20.959525999999997
29.680388 21.05858 21.112359999999995
33.012482 29.853333999999997 20.750240999999995
32.909463 32.679242 17.837936
32.634245 20.702737999999997 23.902442
32.882976 18.145556999999997 26.978336
29.781398000000003 20.748325 26.631194999999998
32.813869 20.980903999999995 29.590144000000002
32.95854 17.852912 32.623587
29.907998999999997 20.949633 32.982658
32.596126 17.869825 14.974027999999999
29.668390000000002 32.69028 14.862912
32.635347 29.774994999999997 15.123852999999999
32.701073 26.935195 12.138295999999999
32.957578 23.969473 14.79027
32.799317 32.965267 12.212733
29.896900000000002 26.819882 14.70693
32.886457 26.827987999999998 18.129993
32.889801999999996 23.950897999999995 20.692282999999996
29.716561 26.727776 21.085456
32.990603 26.733579999999996 35.818850999999995
32.710791 26.866590000000002 24.114832999999997
32.626984 24.070693 26.735650999999997
29.817559000000003 26.666222999999995 26.92678
29.676204 26.892662 33.016424
32.859997 20.826031999999998 35.55198
33.039377 35.87302699999999 21.069682999999998
32.768828 20.800379999999997 11.783831
32.673719 32.956859 24.002845999999998
26.795783 29.942658 26.662272
32.885381 35.931392 15.095858
32.884083 27.086205 29.866805999999997
26.876089999999998 32.55177 29.723922
26.953249 29.623534999999997 32.773302
32.917988 32.660659 35.668858
23.968558 32.95675 32.704033
27.044992 32.690267999999996 35.602435
27.058909 35.744245 20.977790999999996
26.6162 35.776478 26.768048999999998
29.996493 32.934202 32.615338
26.996401999999996 35.576800999999996 32.812909
32.648282 29.677261 32.922366
32.76729 15.043006 35.607642999999996
32.745639 15.145106 11.940204999999999
29.901806999999998 15.018393 14.787306
33.016236 32.845756 30.057768000000003
32.97656 14.958266 17.79988
33.000762 11.993314 20.760343
29.764943000000002 15.139291 20.84433
29.664842999999998 32.984114 26.973998
32.757733 15.154247 24.105325999999998
32.873181 12.253708999999999 26.786710999999997
30.042234 14.810265 26.964543
32.918932 29.883777000000002 27.034363999999997
32.711180999999996 14.764867 29.693289999999998
32.694749 12.144466999999999 32.836976
29.995979 14.851184 32.855861
32.974753 12.178374999999999 15.085994999999999
26.653078 11.950016999999999 21.111604
26.650064 35.612981 14.869318
21.049130999999996 17.931914999999996 21.089045
21.022883 12.013698999999999 14.766955
18.015748000000002 15.127111999999999 14.974027
14.765811 17.805087 26.806630999999996
14.997765 20.670015 23.922032
20.815747 14.878062 17.699714999999998
21.034473999999996 12.110355 20.993696999999997
17.796591 14.813709 20.930844
12.089777999999999 20.729625 21.111427
15.122072 18.063121000000002 20.982127999999996
20.807635999999995 14.977158999999999 23.716673999999998
20.809309999999996 12.096150999999999 27.068283
17.914364 14.990561999999999 27.089905
15.032137 21.050128 17.732025999999998
20.763087999999996 14.751650999999999 29.702422
21.011268 11.996502999999999 32.998883
17.815592000000002 14.780527 32.735804
20.675841 14.955974 35.671383999999996
27.079957 14.810697 17.827218000000002
11.867013 20.904693 14.820798
21.110661 20.838592 12.060749999999999
20.828147 18.066722999999996 15.187205
15.10672 17.847220999999998 15.124075
15.217835 20.815554999999996 11.961431
18.025843000000002 20.771439 15.084700999999999
21.055602 20.959229999999998 18.107078
12.094486 27.020828 20.734117999999995
18.111607999999997 21.059446 21.028546999999996
14.824141 15.011346999999999 35.529301
21.112584 21.018656 23.969315
20.842315 14.983158999999999 12.256025
12.149859 21.126165999999998 26.970776
14.732795 35.939716 32.79057
14.819256 35.929745 26.951704999999997
15.025502 27.060468999999998 18.079436
14.958765 27.060086 23.825172000000002
14.81912 23.716623999999996 26.774279999999997
11.760582999999999 26.935269999999996 26.743752999999998
15.118878 26.769019 29.964135999999996
11.883336 26.741040999999996 15.056485
14.940495 24.026928999999996 32.685857999999996
12.113133999999999 26.974511999999997 32.703312
14.90838 24.081317999999996 15.164102999999999
15.139774 27.027544999999996 35.933991999999996
14.850615 27.042901999999998 11.778167999999999
14.778833 32.934404 12.100368999999999
14.800509 29.704057 14.994008
12.011721 33.03665 14.975336
21.043973 18.137763999999997 27.014910999999998
15.177165 21.020216999999995 35.67599799999999
14.960544 29.643361999999996 20.911727999999997
12.133122 32.706002 21.061642999999997
11.854030999999999 21.133643 32.731429999999996
14.800942 32.902994 23.861457
15.006749999999998 30.035426 26.958334999999998
11.823216 32.801546 26.754846
14.880059999999999 32.850153 29.594448999999997
15.231978999999999 17.903317 32.928937
14.958530999999999 29.644702000000002 32.890328
11.843748999999999 32.8901 32.659169999999996
15.012941 32.930582 35.630651
14.813311 35.673289999999994 14.772871
14.787023 20.848421000000002 29.964385999999998
14.917097 35.532990999999996 20.876773
14.832417999999999 33.047083 17.89996
18.155710999999997 20.825173 27.018228
15.077796999999999 23.744839 21.043760999999996
12.186821 14.949675 32.919308
21.085958999999995 32.836223 35.722114
17.936290999999997 26.934455999999997 32.527013
20.687979999999996 35.786390999999995 26.709027
20.753785 26.987288 35.82567
14.912172 15.153277999999998 24.041337
20.67839 32.918811 11.853519
21.048786 29.649484 15.029501999999999
17.781297000000002 32.694415 14.752092
14.874457999999999 12.11603 14.869234
11.987561 15.191937999999999 20.859178
21.14145 32.740446 17.943219999999997
21.164198 26.926561 29.756158
20.731597999999998 29.924798000000003 20.792479
17.832225 32.654923 21.059233999999996
14.832635999999999 12.189532 21.070040999999996
15.057238 14.900431 18.102753
20.986725999999997 32.83314 23.685629999999996
21.042428 30.000721999999996 27.057076000000002
18.131805999999997 32.975121 26.707
11.981181999999999 15.137648 15.080681
20.814791999999997 32.671175 29.946191999999996
20.718542 29.70901 32.983547
17.84901 32.674914 32.886947
21.104512 35.811963999999996 15.076452
20.674887 35.73378099999999 21.047435
15.152859999999999 12.20443 26.929888
20.929193999999995 23.790472 32.618964
17.824913000000002 26.947873 26.71967
20.85297 20.677507999999996 29.858508999999998
20.858950999999998 17.994538 32.649574
18.131268999999996 20.811163999999998 33.011995999999996
23.761477 15.124965999999999 15.095704
15.044934 12.08678 32.966154
21.135315999999996 20.894154999999998 35.659369
26.87175 11.751303 14.865722
20.780674999999995 26.721378 12.041545
21.154536999999998 24.039888999999995 14.911275
15.089744999999999 15.114123 12.100802
26.721911 14.813314 12.127028
14.91927 14.879688999999999 30.032156999999998
17.998114 26.754616 15.094156
21.067116 26.883493 18.157030999999996
21.103259 23.723444999999998 21.066342999999996
21.051311999999996 35.679581999999996 32.925517
20.916534 23.653667 26.757559
17.968456 27.018304999999998 21.127977
21.013992000000002 26.862079 23.720092
11.87307 15.014 26.998537999999996
10.89495 36.794285 29.799127999999996
23.969167 37.276281 23.951323000000002
23.826575999999996 11.000368 10.932844999999999
10.589913 29.859121000000002 29.776119
10.908413 36.795446999999996 23.793169999999996
18.012662999999996 23.893586999999997 37.213148
10.918650999999999 11.02769 23.87545
17.875273 23.901173999999997 10.457308
36.910807 36.870844 17.934786000000003
29.882514 37.22933999999999 29.897117
23.808251999999996 37.302946 29.778564000000003
37.330675 17.898992999999997 23.836227
10.979386 29.93284 36.829226
36.777103999999994 17.894464 36.813338
37.347427999999994 23.923330999999997 29.877318000000002
29.769474000000002 36.832835 10.995184
29.793709 17.86995 10.526178
11.865013 23.658775999999996 17.428314
12.338864 23.578154999999995 12.109338
35.91188699999999 36.179023 30.063643999999996
35.934365 30.195155999999997 23.764204999999997
35.452298 30.118943 35.789970999999994
30.264589 29.696745999999997 12.301288
35.59660099999999 35.957187 23.625211
35.479273 30.277912 29.998115
30.063522 29.682586999999998 17.665124
11.62229 17.592990999999998 35.784626
35.995458 24.183830999999998 24.162484
12.15734 11.756886999999999 17.654009000000002
35.423716999999996 11.689425 18.072063999999997
35.696625999999995 11.651591 29.613145000000003
11.823819 18.047783000000003 11.647509
29.763067999999997 36.261064 35.890851999999995
30.025368 35.839932 24.276517999999996
35.663083 18.326034 18.200524
12.033259 18.025326 17.499381999999997
11.608808999999999 12.061288 29.650886
35.990346 29.565368999999997 18.196070999999996
29.939349 29.380542 36.109333
35.89207999999999 23.753878 11.442363
35.448342 24.052678999999998 17.65318
29.460316999999996 29.874902 29.470584000000002
35.410641999999996 12.41323 23.826313999999996
11.982519 18.294897 29.480029000000002
36.137061 23.858925 35.92815
35.290425 30.073675 12.051592999999999
29.530802 29.610509 23.964186999999995
35.923514999999995 18.092388 29.484769
23.496688999999996 11.791824 17.565564000000002
29.552101 36.108934 18.157750999999998
12.135584999999999 23.467118 23.677861999999998
18.218452999999997 17.673096 29.770868999999998
24.327303999999998 30.057343000000003 17.786406999999997
18.329676 18.335217 35.697413
23.569753 23.557634 36.07328
17.729718 24.189433 18.240645999999998
23.711883 23.544119000000002 29.721099000000002
18.337908999999996 23.866251999999996 23.98408
23.727244999999996 23.760281999999997 23.576628
18.184204 24.103248 29.645721
23.622622 23.633207 18.321804999999998
17.971745 29.758828 11.453767
23.895595 23.653236999999997 11.538967999999999
24.193080000000002 17.599994000000002 35.946403
23.560685999999997 30.266844 23.945062999999998
17.472687 29.832645 17.682411000000002
17.678156 29.947601999999996 23.523871999999997
24.158456 17.671898 23.482388
17.503044 29.991438000000002 29.880316999999998
23.869164999999995 17.53064 18.380054
17.440362 35.858509999999995 11.806235
24.173356999999996 17.553941000000002 11.68389
23.734412999999996 12.357521 35.749318
17.586985 36.004366 23.466733999999995
18.133927999999997 36.001594 30.185629999999996
24.318183999999995 12.105421 30.20964
17.557302 35.854297 36.199015
23.796248999999996 12.344907 23.480950999999997
29.880839 23.483064 35.853412
23.792161999999998 18.148184 29.542341
17.892725 18.065177999999996 24.25927
17.675722999999998 35.819486999999995 18.197252999999996
17.824029 18.477987999999996 18.089352999999996
23.496882999999997 30.18132 29.645570999999997
29.882796999999997 23.665203999999996 30.158900000000003
12.25576 23.421619999999997 30.012302
29.997175999999996 24.079662999999996 24.366808
12.164159 24.183904 35.54689
30.114908999999997 23.665931999999998 18.246741999999998
12.241417 29.414381 12.167774999999999
30.033608 24.032421 12.290803
12.411556 29.702872999999997 17.656816
30.20301 17.854455 35.425152999999995
29.913840999999998 17.513755 29.843220000000002
29.576261000000002 17.792453000000002 24.375096999999997
30.095868000000003 17.671643 18.415472
11.796605999999999 36.069689999999994 17.569299
12.0231 29.887076 24.467090999999996
30.109969 12.163599999999999 36.20822
24.39983 29.879053999999996 36.086766
23.339324999999995 35.662921999999995 12.053749999999999
18.12608 12.049151 11.470989999999999
17.996435999999996 17.830632 11.463154999999999
23.711812000000002 36.071101 36.142165
29.963848 12.399844 12.29656
30.189676999999996 12.2445 17.681525999999998
23.486587 36.028791999999996 17.68757
29.579309000000002 11.694685999999999 23.753651999999995
18.26838 11.759428 23.888818
29.564624000000002 12.11643 29.536467000000002
17.428088000000002 11.855210999999999 18.106215999999996
17.669793 12.300125999999999 29.630637999999998
34.929401 36.153265 18.373334
35.41105 16.973542000000002 35.676970999999995
35.53288 35.471875999999995 17.009529999999998
29.371024 37.706963 11.390462999999999
37.693737 36.418302 17.439771
29.266582999999997 36.48898 10.112079999999999
36.437816 37.713544999999996 17.361427999999997
30.272714999999998 34.895241 11.656729
30.363028 36.089967 12.830636
30.894469 36.98454099999999 10.670361
28.903874000000002 35.559993999999996 12.325394
36.10218 34.929472 18.487617999999998
37.034745 37.084295999999995 19.009195
24.584449999999997 35.411559999999994 23.294421
23.429890999999998 10.032216 11.397105999999999
29.366296 17.129984999999998 12.38614
28.82727 17.952244 10.155249999999999
30.370558000000003 17.006058 10.174168
30.35541 18.804724999999998 10.159319
34.995823 18.590721000000002 36.049683
24.078187999999997 35.457454 24.816463999999996
22.946850999999995 35.434246 23.566811
23.120109 37.631303 24.607808999999996
23.696737 37.630855 22.856353999999996
24.893369 37.5823 24.239275999999997
11.619842 12.900711 23.673280999999996
12.408351 12.096745 24.823856
24.917913999999996 10.800625 10.599397
12.708058 11.798478 23.202843
10.525267 10.874736 22.900923
10.217158999999999 11.249155 24.607312999999998
12.372033 30.806454000000002 29.941432999999996
12.32988 29.270108 30.575556
12.375454 29.454228 28.974463999999998
10.143187 28.807116999999998 29.696339000000002
10.205684 30.489866999999997 28.997279999999996
10.196648 30.20364 30.783389
24.421003999999996 11.724815 12.784775999999999
24.259611999999997 12.877021 11.602793
22.957653999999998 12.209396 12.314801
23.317295 11.315902999999999 10.140488
11.426133 9.957023 24.150278999999998
36.19197199999999 18.269207 34.887896999999995
10.016473999999999 36.375034 23.437388
37.593631 17.269823000000002 36.492402999999996
18.696348 24.483514999999997 12.396548
17.023562 24.246899999999997 12.39893
18.103101000000002 22.946439999999996 12.338204
17.146444000000002 23.263610999999997 10.158449
18.86772 23.528081 10.186408
17.787005 24.932488999999997 10.217877
24.700294999999997 35.441427 29.283729
23.935989 35.435287 30.788040000000002
22.995841 35.393009 29.436517000000002
22.998208999999996 37.609050999999994 30.432735
23.845571 37.58495 28.790445
24.857504999999996 37.590834 30.279235
35.383427999999995 17.58614 24.771392
35.383494999999996 18.902025000000002 23.763799999999996
35.422798 17.393574 23.103073000000002
37.619468 18.334806 22.961438
37.595523 16.936106000000002 23.996581
37.612919 18.573673999999997 24.746397
35.400334 24.266222 28.926811
35.409085 22.929288 29.951458000000002
35.37666899999999 24.472343000000002 30.577246000000002
37.613133 23.480688 30.837865999999998
37.579925 24.928503 29.713248
37.579475 23.216434 28.999347999999998
29.377105999999998 18.803592000000002 12.387894
10.781269 37.174696 24.894719000000002
11.320477 37.693387 23.311726
12.168787 35.430032999999995 22.933819
11.690049 35.00557499999999 24.431720999999996
36.339416 17.591465999999997 37.752615
30.583582 35.376219 30.463824000000002
28.967948999999997 35.440326 30.143278000000002
30.016365 35.442277 28.931371
29.031007000000002 37.614318 29.134383999999997
30.845183 37.584042999999994 29.503757
29.622974 37.57410899999999 30.854430999999998
18.821438999999998 23.503839 35.435293
17.15954 23.323034999999997 35.419816999999995
17.857371999999998 24.857859999999995 35.378096
17.039540000000002 24.350212999999997 37.57393
18.818126999999997 24.454234 37.572905999999996
37.194132999999994 18.951169999999998 36.893612
18.009330999999996 22.870086999999998 37.569434
12.155763 28.92282 35.412857
11.700674 30.462317 34.982168
10.008882999999999 29.445994999999996 36.395664
10.829358 30.837949000000002 37.151357
11.252089999999999 29.209398999999998 37.626442999999995
12.226604 35.528931 28.873095
12.867002 36.108886999999996 30.289699
11.665706 34.940478 30.352752000000002
10.701965 37.093866 30.848187000000003
10.0464 36.459289 29.307471999999997
11.361028 37.734713 29.301811
12.853897 36.163903 24.252252
12.859675 30.154012 36.148972
30.769483 17.949146 12.37222
12.044825 29.898068000000002 29.827740999999996
12.070397999999999 35.797872999999996 23.823769
35.75230499999999 17.849531 35.792277
18.002048000000002 23.881174 35.827274
11.927919 12.050703 23.922255
11.926658 29.857537999999998 35.72104
18.006403 23.869622 12.003881
29.779666999999996 17.954434 11.933404999999999
35.746463999999996 35.786154999999994 18.01748
12.059403999999999 35.77444199999999 29.786076
29.775255 35.782959 11.922744
35.82560599999999 17.985838 23.934129999999996
23.829437999999996 35.82854999999999 29.874921
23.956569000000002 35.755397 23.942012
29.802138999999997 35.848372 29.779746000000003
23.844716 12.048814 11.9741
35.793186 23.868048 29.917017
14.885904 14.671324 14.780519
21.008370999999997 21.042457999999996 15.145809999999999
32.633031 14.758045 15.17449
20.733621 15.075588999999999 32.906183999999996
32.900648 14.852139 20.646189
20.885112999999997 15.169277 26.706818999999996
32.974592 14.910289 27.056306999999997
26.899623 15.176248 20.703105
32.594483 14.969327999999999 32.691786
20.616180999999997 15.062434 14.954735999999999
32.910283 21.130269 15.164755
32.957907 21.072704 21.092318
32.624908 20.782097999999998 27.019095
15.176167 32.648141 32.72149
14.840567 32.901964 26.661054999999998
32.770387 20.73981 32.656494
15.154397 32.687987 20.966195
32.590709 26.681869999999996 14.972320999999999
14.859295 32.985311 14.840612
32.687785 26.646898999999998 20.984842999999998
33.048732 26.946849999999998 26.63044
15.061259 26.690745 32.989045
20.915354999999998 20.762268 21.087026
26.758215 32.647555 32.547436
21.042715 21.041018 26.681922999999998
27.18501 32.852991 27.010975000000002
27.189774999999997 14.880125 26.846187999999998
26.781382 14.73418 14.853140999999999
26.732847999999997 14.704773999999999 32.798034
26.981467000000002 20.710603 15.053954
26.766701999999995 20.902155 20.648936999999997
21.092362 33.056011 32.727201
27.002089999999995 20.989748999999996 27.186813
21.078325 33.0002 26.999494999999996
26.984448999999998 21.169601999999998 32.82783
20.740828999999998 32.987929 21.107236
33.054598999999996 27.088496 32.93912
27.068823000000002 26.786729 14.758545
26.784006999999995 26.769661 21.184157
20.735006999999996 26.677825 32.931778
26.998781 26.875154000000002 26.666525
20.623514 26.995137 26.706057
26.610098999999998 26.834626999999998 32.634457
20.860141 26.606665 21.156577
26.804817 32.634956 14.749754999999999
21.144174 27.011882 14.997207
26.684981999999998 33.064621 20.892398999999997
21.214208 21.004573 32.85968
21.073135999999998 32.524456 14.954303999999999
14.837100999999999 26.971179 27.069455999999995
20.732258 15.136002 20.991309
33.034014 32.808538 26.978426999999996
15.132961 20.749268999999998 32.924351
14.948385 15.277143 26.932615
15.100049 15.03258 32.49469
32.785313 32.561454 32.901777
15.013767 21.069958999999997 26.587548999999996
33.017082 32.748229 21.141978
14.969147 26.639134999999996 14.978753
32.737462 32.603043 14.725537999999998
15.054481 15.107944999999999 20.771391
15.281792 20.930082 14.851709
14.732076999999999 21.018820999999996 20.968897999999996
14.786273 26.719792999999996 21.080363
