138_cspbbr3_4\138_cspbbr3_4.xyz
1.0
44.645607 0 0
0 44.645607 0
0 0 44.645607
Br Cs Pb 
240 112 64 
Cartesian
31.255464500000002 34.3136815 31.0374085
34.1247655 19.424899500000002 25.1092665
34.0517515 19.4130915 19.2367615
31.4450095 34.059340500000005 25.2700655
22.1430325 31.1819965 13.3031085
25.4412685 25.429744499999998 10.2369385
25.4571685 22.1727255 13.2589535
22.5685025 25.293318499999998 13.2438815
34.1214175 19.2018805 13.2895575
25.0623625 28.2375335 13.4650935
25.3165105 25.3827255 16.6118345
25.1918395 22.536164499999998 19.241339500000002
22.2400315 25.4658465 19.403299500000003
25.5036105 31.3668675 10.5250395
34.1176815 13.624975500000001 31.231071500000002
33.9852295 13.3509425 25.4747185
25.2021395 25.4981215 22.2718095
25.097714500000002 19.5024625 34.1756185
25.1822425 22.136235499999998 25.501459500000003
22.5185045 25.2185495 25.3359275
34.0151175 13.319988500000001 19.1519335
34.086839499999996 13.4590605 13.6499815
25.1315755 25.3833075 28.1414095
25.4149625 22.223406500000003 31.0445095
22.2899125 25.3579915 31.484475500000002
25.323507499999998 25.138478499999998 34.0977345
31.1458005 22.4875985 31.0793675
34.3240915 19.4608245 31.0398775
25.3091605 16.568825500000003 31.3616655
25.3902745 10.6298665 13.376428500000001
22.291335500000002 13.5553275 13.1913505
33.997746500000005 31.101661500000002 31.1303875
25.3469795 13.541054500000001 16.5495635
25.4388505 10.5547495 19.2502145
22.1244985 13.4109125 19.5394655
34.039865500000005 31.2567175 25.2715915
25.4214845 13.2544435 22.4890305
25.0993875 10.5692255 25.1828795
22.4438095 13.3195305 25.4456925
34.0664955 31.1748655 19.2377195
25.1035865 13.3763725 28.4974095
22.2196585 13.2311335 31.2063485
25.3384875 13.550057500000001 34.4320175
22.4123945 19.472272500000003 31.3910065
34.2510245 31.3227255 13.2232005
25.1118285 16.5013365 13.426284500000001
22.4901565 19.3287255 13.4809385
34.3219225 25.1988495 31.0435445
34.1143305 25.1405785 25.4405625
25.1315005 19.5075995 16.4105375
25.486414500000002 16.4927275 19.3946355
22.2198415 19.2092005 19.2673365
34.3337635 25.1045465 19.1470445
34.3321235 25.4889885 13.2522335
25.2791285 19.4733395 22.1431265
25.4656695 16.2294905 25.236650500000003
22.2979765 19.524137500000002 25.3404895
25.3522955 31.0303395 16.5234665
25.330158500000003 19.5556015 28.4270095
25.1538355 19.1917495 10.2498485
31.2696045 34.1724505 19.5387335
31.1326005 31.1722895 34.0974615
22.3517365 31.1231335 19.4824045
31.044870500000002 16.3393715 13.2551725
28.1925085 19.5266945 13.5321475
28.167299500000002 31.1464485 19.2089095
31.2556285 19.163065500000002 16.5644265
31.1425235 16.5687235 19.4717005
31.384141500000002 28.2693955 19.1368145
28.1200145 19.3497075 19.5705775
31.1049125 31.143756500000002 16.5373315
31.3933595 19.4785085 22.5006965
31.1928715 16.1870125 25.4774065
28.4193355 19.5337575 25.2604505
28.2582995 31.3359435 13.2379925
31.095198500000002 19.1675495 28.4262315
31.0247995 16.4964955 31.3625035
28.1697025 19.6149315 31.2468545
31.165854500000002 19.4754855 34.3552385
31.345039500000002 28.4896945 13.220543500000002
31.4288585 25.393040499999998 10.5701795
31.3705225 31.0778865 10.272830500000001
31.402638500000002 22.4267085 13.6025955
28.1194825 25.4386515 13.2142895
31.0472995 25.434064499999998 16.3349415
31.3643185 22.3601265 19.2017905
28.3734875 25.1461865 19.3478815
31.3734735 25.1953015 34.3182265
31.0305645 25.5036175 22.3228455
31.3033765 22.3390685 25.5842495
28.2940645 25.233728499999998 25.5682225
28.1140635 25.1769805 31.200415500000002
31.1163305 19.4870275 10.2607865
25.370109499999998 28.0724975 19.488339500000002
31.2141845 13.2137095 34.443503500000006
31.0281505 10.5538345 31.2908475
31.0960825 34.4120145 13.4180235
25.3639195 31.0077025 22.1625655
31.0695315 25.510839500000003 28.3596625
25.1606235 28.4972165 25.2454965
22.375218500000003 31.1232415 25.1304965
25.1940945 31.1281655 28.1616095
28.4524425 31.4415665 31.1618205
25.1424735 28.155237500000002 31.022969500000002
22.1771315 31.0609145 31.1319155
25.132065500000003 31.4235645 34.217766499999996
25.200475500000003 34.0911105 13.523483500000001
25.410300499999998 33.9831335 19.3806815
25.4470615 34.3251655 25.3472885
31.093985500000002 28.3305245 31.0538785
25.165121499999998 34.080524499999996 31.206833500000002
31.2113005 31.0878705 28.1048315
31.4001275 13.5484945 10.4862145
31.3916845 10.3418205 13.591243500000001
28.188032500000002 13.2218215 13.2190665
31.1614335 13.5879495 16.4884405
31.3070655 10.2242385 19.3815885
28.1703655 31.108770500000002 25.134162500000002
28.114203500000002 13.210624500000002 19.184608500000003
31.0243095 28.0869535 25.3202085
25.2509635 13.6060975 10.3718185
31.1888805 10.2848875 25.493185500000003
31.218940500000002 31.1270025 22.1570015
28.1507845 13.6032515 25.3874695
31.4569955 13.521202500000001 28.2574955
28.3412605 13.343984500000001 30.9895465
31.3972495 13.3672675 22.1359855
25.3929075 10.4579155 31.4904295
13.4720635 34.322291500000006 25.4802185
19.259407500000002 10.5961865 13.251611500000001
16.5082945 13.400391500000001 13.6158885
13.4636815 16.2873765 25.5529815
19.3984605 13.1572365 16.468484500000002
19.1200435 10.492143500000001 19.2494285
16.2677435 13.5973225 19.4383185
13.639038500000002 19.2265595 22.4396615
19.4819935 13.609070500000001 22.1577085
19.5134155 10.5190415 25.1507345
16.2844225 13.3067595 25.117064499999998
10.3190985 19.2032405 19.4480185
13.2684555 16.640075500000002 19.3353385
13.5120895 19.449281499999998 16.4997225
19.449566500000003 13.5085355 28.1465705
19.2183395 10.5330615 31.3716545
16.222109500000002 13.5137265 31.0997115
10.610326500000001 19.3943465 13.5883585
19.116108500000003 13.2477795 34.2729075
13.3428965 16.188523500000002 13.3758655
19.2107585 19.425211500000003 10.3154065
19.0602935 16.3381465 13.4182565
16.3626525 19.6159845 13.4091295
13.461847500000001 19.102467500000003 10.4987805
19.5469045 19.271711500000002 16.2599015
13.5096615 22.5100815 25.2245305
16.2109005 19.2343255 19.5052705
19.2718665 19.3532145 22.5041055
19.235470499999998 16.1105005 25.2120665
16.5173335 19.3781045 25.1688695
19.2584225 13.5682155 10.6083905
13.413925500000001 13.191824500000001 34.1466115
10.633449500000001 19.5079595 25.417002500000002
13.5950015 19.4827665 28.311615500000002
13.536927500000001 25.107440500000003 22.4891705
13.2692215 25.4721025 28.1930665
13.5060365 22.5678895 31.3043345
10.2389875 25.0708765 31.2020095
13.4517655 25.4240425 34.3696595
10.1844065 25.2330945 19.5130185
13.4746255 31.156336500000002 10.6077825
13.4493635 28.0448945 13.4175015
13.538766500000001 22.4343175 19.2770365
10.3591815 31.3803375 13.271062500000001
13.337518500000002 25.447191500000002 16.2278065
13.3852545 31.4505165 16.315704500000002
13.2330055 28.0881495 19.241791499999998
10.254860500000001 31.2655435 19.5547705
13.5606005 31.3428705 22.4762275
13.3520535 28.373068500000002 25.4433745
10.4502175 31.1071075 25.175867500000003
10.6399755 25.2907645 13.5497855
13.3868015 22.1216605 13.3857125
13.5307525 31.2370905 28.4118555
13.5316895 28.2953565 31.0984945
10.398725500000001 31.3648905 31.0484385
13.451904500000001 25.0754145 10.6165065
13.1703925 19.2602675 34.235999500000005
13.384477500000001 31.0650085 34.2657325
13.3904155 33.9840005 13.4731845
13.453865500000001 34.027285500000005 19.2419145
10.299459500000001 19.253795500000003 31.0896535
13.482397500000001 16.5447005 31.314874500000002
13.5600625 34.3259965 31.0665325
19.5489175 19.2258305 28.1982755
19.1283125 16.332359500000003 19.4496915
19.2425195 28.072875500000002 13.331993500000001
19.241910500000003 22.476907500000003 31.1391455
16.2246935 25.2922795 31.137860500000002
13.402753500000001 13.152200500000001 22.4519555
19.255567499999998 25.2576865 34.4035165
19.5391875 31.140103500000002 10.6067055
19.5114545 16.2348175 31.4426685
16.5124865 31.3544825 13.2368365
10.3067615 13.244573500000001 19.4378585
19.1483055 31.341835500000002 16.5650975
19.2531675 28.389657500000002 19.5109095
16.2922775 31.0863245 19.5016375
13.3502135 10.2962615 19.5810355
19.3999895 31.4277305 22.5413575
19.4810215 28.4016275 25.3159875
16.538290500000002 31.0520415 25.3586145
13.4441855 13.513405500000001 16.2046075
19.4378585 31.3922345 28.1456715
19.2547315 28.0409385 31.2692225
16.2716685 31.388451500000002 31.4128645
10.4907205 13.1612535 13.2951765
19.4849495 31.1692365 34.1166495
19.2377535 34.1955115 13.5604185
13.2040605 10.4398675 13.3186395
19.3762265 34.4218405 19.135141500000003
13.5699895 13.498898500000001 10.2703495
19.1846575 34.361211499999996 25.2191565
19.5677605 34.141309500000006 31.0649825
13.5842085 10.5203515 25.1398335
19.2540135 25.1948185 28.1382085
10.2423505 25.2935415 25.5192955
16.2456085 25.075025500000002 19.3003305
19.4955965 22.510172500000003 13.5187825
16.2576015 25.475790500000002 13.3268655
19.4794075 25.4915175 10.5429215
19.5685115 25.239113500000002 16.3149255
13.1726895 10.3391205 31.2238195
19.2743495 22.472513499999998 19.5783285
19.381564500000003 19.1972775 34.093166499999995
10.2878665 13.5782345 31.3121215
13.2839135 13.6104725 28.334069500000002
16.5782475 19.3702835 31.1999995
16.3814575 25.1777215 25.1531915
19.4743095 22.4041435 25.415198500000002
19.1968785 25.4730685 22.2981075
10.2846825 13.592156500000002 25.3196215
10.5833045 22.0111275 22.578211500000002
28.6781405 28.044238500000002 10.2215035
10.395796500000001 22.692172499999998 15.8999815
33.950500500000004 34.6296825 16.6927315
33.979755499999996 28.7385275 16.251659500000002
27.9228665 22.1123315 34.4397855
27.9089365 34.0874585 28.557509500000002
34.5897795 28.6421255 22.2882075
33.8190955 27.9948465 33.9867645
10.4380565 10.4831495 15.833229500000002
10.6371055 16.8249605 10.3337565
34.4341685 28.7163945 28.1593015
34.2261205 10.8350325 22.5460065
27.9573165 34.0589385 34.0623245
28.0707345 22.6754055 28.390428500000002
10.2359595 16.7642595 22.702181500000002
34.5955185 22.3223965 28.0349545
28.4322665 34.4856025 22.762210500000002
28.5969975 27.8188025 28.1820075
33.9808255 16.294991500000002 27.7904535
34.003803500000004 16.6433095 34.357746500000005
33.981607499999996 22.8523615 10.3833715
27.8997655 28.2942335 34.5059345
34.5635145 16.5022945 16.4293555
10.746572500000001 16.7714565 27.9533205
10.627871500000001 16.7323885 16.3482665
34.5324425 28.2331055 10.1109305
28.7159965 28.0456475 22.2394325
28.6352015 34.5982065 10.2704755
10.6083975 16.0549055 33.881200500000006
27.9949745 28.3617305 16.6281115
27.9465185 33.8962115 16.3580985
34.412330499999996 22.0390185 22.7285365
10.5619405 10.2122065 28.0059715
34.1019045 15.9558435 10.3441425
34.6318605 16.5800495 22.710680500000002
10.2848255 10.0665105 22.5866105
34.0529595 10.1064185 16.1936695
16.4593075 34.675411499999996 34.5190895
28.5034235 22.0406645 22.7075975
22.4641255 16.1709525 34.5936725
21.8936615 21.9932145 10.6265515
16.0981615 22.4724635 27.996146500000002
22.3544915 22.5989875 16.8325935
16.1101325 22.4556195 22.6065885
22.684971500000003 22.571687500000003 22.1591275
16.1842635 22.5249035 33.9354635
16.6871085 22.3237245 16.0824575
16.6415235 22.5860835 10.5458435
16.4020545 16.0353985 34.4304165
22.6980575 22.5227255 34.173342500000004
21.9604095 28.7026175 10.4723535
16.3764185 16.071023500000003 27.7675045
22.5311285 28.5782155 16.337546500000002
22.378336500000003 22.6348785 27.9235365
16.5705195 27.9175495 10.637206500000001
22.5717445 16.1144195 28.4584415
16.721684500000002 27.9701795 16.7615045
22.3831535 10.2477605 16.0102295
16.6979775 34.4956375 27.8705605
15.790781500000001 34.1984575 22.160014500000003
22.2828275 10.0801995 22.7877645
16.0965395 34.2501595 15.9227635
16.2338435 33.8101585 10.3581825
21.8699855 10.336980500000001 27.9116145
16.714952500000003 28.3347685 33.9479155
34.4536905 33.9405535 22.1169295
22.7564755 10.6282265 34.238988500000005
22.7668215 16.2010615 10.2725335
16.7621505 28.4084575 28.1776715
22.5250905 16.6092985 16.835632500000003
16.0218645 28.1257005 22.0872165
22.8675085 16.2510595 22.0889995
16.3213705 16.3675135 22.755160500000002
10.4452075 22.6248025 27.9660945
22.5925455 28.6312485 22.547788500000003
22.5587575 27.8857955 28.2701315
28.521507500000002 16.1303955 10.5891385
10.5548815 34.6034535 16.7578545
10.7009675 28.184866500000002 33.7280335
28.5343665 15.8708965 16.3368085
10.4423785 28.6567835 28.1526365
28.333720500000002 16.7062615 22.104181500000003
27.9108175 10.0303255 34.2074195
10.058882500000001 28.3287005 22.3622765
10.347637500000001 28.5108585 16.642954500000002
28.107135500000002 15.9786885 33.8462685
28.0008735 22.8268665 10.419045500000001
10.4934975 27.7020375 10.3055555
27.9302335 22.6639485 16.3644655
10.599828500000001 22.6014645 33.9360895
27.8937935 16.2932235 28.4548505
10.0651775 33.938578500000006 22.529224499999998
21.9183745 10.639461500000001 10.037755500000001
10.333567500000001 33.8784755 27.9350965
16.0994435 15.9619185 10.2125635
21.8925305 28.1979875 34.607915500000004
16.1633905 10.197831500000001 33.843999499999995
22.7074255 34.6313385 10.4318875
22.7241565 34.3216635 16.2070115
22.0153015 34.0086905 21.9471195
22.3719325 34.2939565 27.8550265
16.480760500000002 10.7443525 28.6891235
22.7058415 34.6759325 34.2894595
28.484271500000002 10.6436215 10.1917665
16.376109500000002 10.926842500000001 22.6406955
28.8216025 10.5222125 16.5191555
16.1883315 10.3236155 16.0707545
16.536427500000002 10.1323995 10.061654500000001
28.5448875 10.103851500000001 28.5971675
16.7984335 16.603942500000002 16.1698145
34.1337915 34.6157645 28.1972405
13.183103500000001 13.6414985 13.446440500000001
19.1688015 19.3366405 13.6651875
19.576826500000003 13.2713725 31.2976385
31.4394155 13.6288975 13.592902500000001
19.6883585 13.3757795 25.2815245
31.0758665 13.510481500000001 19.451688500000003
19.4245275 13.654609500000001 19.2855975
31.1151375 13.192213500000001 25.260617500000002
19.078736499999998 13.1929485 13.5016195
31.331318500000002 13.6765035 31.301399500000002
31.1568705 19.1248875 13.5301905
31.123735500000002 19.480619500000003 19.4842285
13.7170305 31.2145425 31.106655500000002
31.2226025 19.1336825 25.376731499999998
13.5619415 31.3554875 25.4551715
31.084543500000002 19.5422515 31.1981525
13.270231500000001 31.4760605 19.5947365
31.3153645 25.3017475 13.7393175
13.5022515 31.1270965 13.6697305
31.3420285 24.993488499999998 19.1884705
13.2115045 25.2297045 31.1336425
31.478389500000002 25.507203500000003 25.1479395
25.124942500000003 31.1853635 31.3973775
19.5483815 19.312140499999998 19.4966945
25.3875235 31.4506245 25.3169915
19.5004965 19.1856535 25.2740055
25.4425485 13.2078785 19.388037500000003
25.1753825 13.4278165 25.5152015
25.453644500000003 13.1810655 31.0634145
19.1952575 31.0521465 31.0090515
25.150257500000002 19.420604500000003 13.231343500000001
19.2420215 31.2580845 25.004462500000002
25.4687765 19.516690500000003 19.5062735
19.5107545 31.0626355 19.2172765
25.1586465 19.576097500000003 25.4384805
19.1134675 31.4649885 13.4122745
13.4763465 25.4831845 25.4499165
25.4723325 19.5416025 31.1540635
19.4284805 25.0628005 31.4344905
25.434140499999998 25.2169695 19.592056499999998
19.3824805 25.4711335 25.1323165
25.1837485 25.4282785 25.1050215
19.5148745 25.1565715 19.445628499999998
25.250415500000003 25.5168125 31.4968065
19.541501500000003 25.4856495 13.4847575
25.2104675 31.481966500000002 13.4878555
19.2371335 19.593805500000002 31.2722825
25.0770605 31.4245305 19.1969595
25.1846515 25.142937500000002 13.7060735
31.0055725 25.114836500000003 31.387687500000002
25.5782825 13.505119500000001 13.4567945
13.2285635 13.4564305 19.0491995
13.4287785 19.195522500000003 30.9555235
13.2302915 13.1845075 25.520053500000003
13.0752445 13.5518085 31.299187500000002
13.1761125 19.092631500000003 25.1811985
31.0493335 31.4292495 31.0790175
31.3239515 31.3937155 19.106317500000003
13.7243985 25.3296845 13.3164885
31.1024105 31.3867795 13.5028155
31.1453995 31.5125695 25.1351555
13.333728500000001 19.0275325 19.425667500000003
13.3886505 19.2282485 13.5887665
13.4098945 25.510389500000002 19.4501995
