3_train/215_cspbbr3_MA-TPC_4_0.40\215_cspbbr3_MA-TPC_4_0.40.xyz
1.0
48.324594000000005 0 0
0 48.324594000000005 0
0 0 48.324594000000005
Br C Cs H N O Pb S 
198 244 78 330 34 84 64 42 
Cartesian
15.237297000000002 15.237297000000002 12.262297000000002
15.237297000000002 12.262297000000002 15.237297000000002
15.237297000000002 15.237297000000002 18.212297
15.237297000000002 15.237297000000002 24.162297000000002
12.262297000000002 15.237297000000002 27.137297000000004
15.237297000000002 15.237297000000002 30.112297000000005
15.237297000000002 15.237297000000002 36.062297
15.237297000000002 21.187297 12.262297000000002
15.237297000000002 18.212297 15.237297000000002
12.262297000000002 21.187297 15.237297000000002
15.237297000000002 21.187297 18.212297
15.237297000000002 18.212297 21.187297
12.262297000000002 21.187297 21.187297
15.237297000000002 21.187297 24.162297000000002
15.237297000000002 18.212297 27.137297000000004
15.237297000000002 21.187297 30.112297000000005
15.237297000000002 18.212297 33.087297
12.262297000000002 21.187297 33.087297
15.237297000000002 24.162297000000002 15.237297000000002
15.237297000000002 27.137297000000004 18.212297
15.237297000000002 24.162297000000002 21.187297
12.262297000000002 27.137297000000004 21.187297
15.237297000000002 27.137297000000004 24.162297000000002
15.237297000000002 24.162297000000002 27.137297000000004
12.262297000000002 27.137297000000004 27.137297000000004
15.237297000000002 27.137297000000004 30.112297000000005
15.237297000000002 24.162297000000002 33.087297
15.237297000000002 33.087297 12.262297000000002
15.237297000000002 30.112297000000005 15.237297000000002
12.262297000000002 33.087297 15.237297000000002
15.237297000000002 33.087297 18.212297
15.237297000000002 30.112297000000005 21.187297
15.237297000000002 33.087297 24.162297000000002
15.237297000000002 30.112297000000005 27.137297000000004
12.262297000000002 33.087297 27.137297000000004
15.237297000000002 33.087297 30.112297000000005
15.237297000000002 30.112297000000005 33.087297
12.262297000000002 33.087297 33.087297
15.237297000000002 36.062297 21.187297
15.237297000000002 36.062297 33.087297
21.187297 12.262297000000002 15.237297000000002
18.212297 15.237297000000002 15.237297000000002
21.187297 15.237297000000002 18.212297
18.212297 15.237297000000002 21.187297
21.187297 15.237297000000002 24.162297000000002
21.187297 12.262297000000002 27.137297000000004
18.212297 15.237297000000002 27.137297000000004
21.187297 15.237297000000002 30.112297000000005
18.212297 15.237297000000002 33.087297
21.187297 15.237297000000002 36.062297
21.187297 21.187297 12.262297000000002
21.187297 18.212297 15.237297000000002
18.212297 21.187297 15.237297000000002
21.187297 21.187297 18.212297
21.187297 18.212297 21.187297
18.212297 21.187297 21.187297
21.187297 21.187297 24.162297000000002
21.187297 18.212297 27.137297000000004
18.212297 21.187297 27.137297000000004
21.187297 21.187297 30.112297000000005
21.187297 18.212297 33.087297
18.212297 21.187297 33.087297
21.187297 21.187297 36.062297
21.187297 27.137297000000004 12.262297000000002
21.187297 24.162297000000002 15.237297000000002
18.212297 27.137297000000004 15.237297000000002
21.187297 27.137297000000004 18.212297
21.187297 24.162297000000002 21.187297
18.212297 27.137297000000004 21.187297
21.187297 27.137297000000004 24.162297000000002
21.187297 24.162297000000002 27.137297000000004
18.212297 27.137297000000004 27.137297000000004
21.187297 27.137297000000004 30.112297000000005
21.187297 24.162297000000002 33.087297
18.212297 27.137297000000004 33.087297
21.187297 27.137297000000004 36.062297
21.187297 33.087297 12.262297000000002
21.187297 30.112297000000005 15.237297000000002
18.212297 33.087297 15.237297000000002
21.187297 33.087297 18.212297
21.187297 30.112297000000005 21.187297
18.212297 33.087297 21.187297
21.187297 33.087297 24.162297000000002
21.187297 30.112297000000005 27.137297000000004
18.212297 33.087297 27.137297000000004
21.187297 33.087297 30.112297000000005
21.187297 30.112297000000005 33.087297
18.212297 33.087297 33.087297
21.187297 33.087297 36.062297
21.187297 36.062297 15.237297000000002
21.187297 36.062297 21.187297
21.187297 36.062297 33.087297
27.137297000000004 12.262297000000002 15.237297000000002
24.162297000000002 15.237297000000002 15.237297000000002
27.137297000000004 15.237297000000002 18.212297
27.137297000000004 12.262297000000002 21.187297
24.162297000000002 15.237297000000002 21.187297
27.137297000000004 15.237297000000002 24.162297000000002
27.137297000000004 12.262297000000002 27.137297000000004
24.162297000000002 15.237297000000002 27.137297000000004
27.137297000000004 15.237297000000002 30.112297000000005
27.137297000000004 12.262297000000002 33.087297
24.162297000000002 15.237297000000002 33.087297
27.137297000000004 18.212297 15.237297000000002
24.162297000000002 21.187297 15.237297000000002
27.137297000000004 21.187297 18.212297
27.137297000000004 18.212297 21.187297
24.162297000000002 21.187297 21.187297
27.137297000000004 21.187297 24.162297000000002
27.137297000000004 18.212297 27.137297000000004
24.162297000000002 21.187297 27.137297000000004
27.137297000000004 21.187297 30.112297000000005
27.137297000000004 18.212297 33.087297
24.162297000000002 21.187297 33.087297
27.137297000000004 27.137297000000004 12.262297000000002
27.137297000000004 24.162297000000002 15.237297000000002
24.162297000000002 27.137297000000004 15.237297000000002
27.137297000000004 27.137297000000004 18.212297
27.137297000000004 24.162297000000002 21.187297
24.162297000000002 27.137297000000004 21.187297
27.137297000000004 27.137297000000004 24.162297000000002
27.137297000000004 24.162297000000002 27.137297000000004
24.162297000000002 27.137297000000004 27.137297000000004
27.137297000000004 27.137297000000004 30.112297000000005
27.137297000000004 24.162297000000002 33.087297
24.162297000000002 27.137297000000004 33.087297
27.137297000000004 27.137297000000004 36.062297
27.137297000000004 33.087297 12.262297000000002
27.137297000000004 30.112297000000005 15.237297000000002
24.162297000000002 33.087297 15.237297000000002
27.137297000000004 33.087297 18.212297
27.137297000000004 30.112297000000005 21.187297
24.162297000000002 33.087297 21.187297
27.137297000000004 33.087297 24.162297000000002
27.137297000000004 30.112297000000005 27.137297000000004
24.162297000000002 33.087297 27.137297000000004
27.137297000000004 33.087297 30.112297000000005
27.137297000000004 30.112297000000005 33.087297
24.162297000000002 33.087297 33.087297
27.137297000000004 33.087297 36.062297
27.137297000000004 36.062297 15.237297000000002
27.137297000000004 36.062297 21.187297
33.087297 12.262297000000002 15.237297000000002
30.112297000000005 15.237297000000002 15.237297000000002
33.087297 15.237297000000002 18.212297
33.087297 12.262297000000002 21.187297
30.112297000000005 15.237297000000002 21.187297
33.087297 15.237297000000002 24.162297000000002
30.112297000000005 15.237297000000002 27.137297000000004
33.087297 15.237297000000002 30.112297000000005
30.112297000000005 15.237297000000002 33.087297
33.087297 15.237297000000002 36.062297
33.087297 21.187297 12.262297000000002
33.087297 18.212297 15.237297000000002
30.112297000000005 21.187297 15.237297000000002
33.087297 21.187297 18.212297
33.087297 18.212297 21.187297
30.112297000000005 21.187297 21.187297
33.087297 21.187297 24.162297000000002
33.087297 18.212297 27.137297000000004
30.112297000000005 21.187297 27.137297000000004
33.087297 21.187297 30.112297000000005
33.087297 18.212297 33.087297
30.112297000000005 21.187297 33.087297
33.087297 24.162297000000002 15.237297000000002
30.112297000000005 27.137297000000004 15.237297000000002
33.087297 27.137297000000004 18.212297
33.087297 24.162297000000002 21.187297
30.112297000000005 27.137297000000004 21.187297
33.087297 27.137297000000004 24.162297000000002
33.087297 24.162297000000002 27.137297000000004
30.112297000000005 27.137297000000004 27.137297000000004
33.087297 27.137297000000004 30.112297000000005
33.087297 24.162297000000002 33.087297
30.112297000000005 27.137297000000004 33.087297
33.087297 27.137297000000004 36.062297
33.087297 30.112297000000005 15.237297000000002
30.112297000000005 33.087297 15.237297000000002
33.087297 33.087297 18.212297
33.087297 30.112297000000005 21.187297
30.112297000000005 33.087297 21.187297
33.087297 33.087297 24.162297000000002
33.087297 30.112297000000005 27.137297000000004
30.112297000000005 33.087297 27.137297000000004
33.087297 33.087297 30.112297000000005
33.087297 30.112297000000005 33.087297
30.112297000000005 33.087297 33.087297
33.087297 36.062297 15.237297000000002
33.087297 36.062297 21.187297
36.062297 15.237297000000002 15.237297000000002
36.062297 15.237297000000002 33.087297
36.062297 21.187297 15.237297000000002
36.062297 21.187297 33.087297
36.062297 27.137297000000004 21.187297
36.062297 27.137297000000004 27.137297000000004
36.062297 33.087297 15.237297000000002
36.062297 33.087297 27.137297000000004
36.062297 33.087297 33.087297
27.598848000000004 20.617267000000002 39.71858400000001
27.835038000000004 20.333647000000003 38.354884000000006
27.137297000000004 21.187297 37.5129
26.730151000000006 21.677163 39.889759000000005
27.137297000000004 21.187297 36.062297
27.87057 15.220746000000002 39.71858400000001
28.239644000000006 15.217503000000002 38.354884000000006
27.137297000000004 15.237297000000002 37.5129
26.500353000000004 15.243509000000001 39.889759000000005
27.137297000000004 15.237297000000002 36.062297
32.400760000000005 20.929168000000004 39.71858400000001
32.057107 20.794525 38.354884000000006
33.087297 21.187297 37.5129
33.680599 21.419092000000006 39.889759000000005
33.087297 21.187297 36.062297
33.746338 32.765383 39.71858400000001
34.080178000000004 32.607976 38.354884000000006
33.087297 33.087297 37.5129
32.511416000000004 33.359506 39.889759000000005
33.087297 33.087297 36.062297
14.890019000000002 26.491262000000006 39.71858400000001
14.719760000000003 26.163790000000006 38.354884000000006
15.237297000000002 27.137297000000004 37.5129
15.531676000000003 27.702166000000005 39.889759000000005
15.237297000000002 27.137297000000004 36.062297
15.286066000000002 20.455460000000002 39.71858400000001
15.315680000000002 20.087562000000002 38.354884000000006
15.237297000000002 21.187297 37.5129
15.186802000000002 21.822267000000004 39.889759000000005
15.237297000000002 21.187297 36.062297
14.887682000000002 32.442523 39.71858400000001
14.716238000000002 32.11567 38.354884000000006
15.237297000000002 33.087297 37.5129
15.533720000000002 33.651097 39.889759000000005
15.237297000000002 33.087297 36.062297
32.355156 15.193328000000003 8.606010000000001
31.986462000000003 15.176281000000001 9.969710000000003
33.087297 15.237297000000002 10.811694000000003
33.723563 15.267331000000002 8.434835000000001
33.087297 15.237297000000002 12.262297000000002
26.768804000000003 21.821471000000003 8.606010000000001
26.587788000000003 22.143122000000005 9.969710000000003
27.137297000000004 21.187297 10.811694000000003
27.450231000000002 20.632492000000003 8.434835000000001
27.137297000000004 21.187297 12.262297000000002
21.585392000000006 14.621274000000001 8.606010000000001
21.781428000000005 14.308551000000001 9.969710000000003
21.187297 15.237297000000002 10.811694000000003
20.848456000000006 15.776670000000001 8.434835000000001
21.187297 15.237297000000002 12.262297000000002
14.560879000000002 26.85371 8.606010000000001
14.218560000000002 26.715708 9.969710000000003
15.237297000000002 27.137297000000004 10.811694000000003
15.827842000000002 27.37603 8.434835000000001
15.237297000000002 27.137297000000004 12.262297000000002
27.361696000000002 15.935587000000002 8.606010000000001
27.479449000000002 16.285387 9.969710000000003
27.137297000000004 15.237297000000002 10.811694000000003
26.934661000000006 14.633413000000003 8.434835000000001
27.137297000000004 15.237297000000002 12.262297000000002
32.402382 32.824894 8.606010000000001
32.055936 32.697610000000005 9.969710000000003
33.087297 33.087297 10.811694000000003
33.684984 33.30754 8.434835000000001
33.087297 33.087297 12.262297000000002
32.539232000000005 27.624728000000005 8.606010000000001
32.266844 27.873787 9.969710000000003
33.087297 27.137297000000004 10.811694000000003
33.557801000000005 26.707922000000003 8.434835000000001
33.087297 27.137297000000004 12.262297000000002
8.606010000000001 26.498701000000004 15.598072000000002
9.969710000000003 26.179882000000006 15.784030000000001
10.811694000000003 27.137297000000004 15.237297000000002
8.434835000000001 27.687826 14.916900000000002
12.262297000000002 27.137297000000004 15.237297000000002
8.606010000000001 14.983700000000002 15.925521000000002
9.969710000000003 14.860870000000002 16.273571000000004
10.811694000000003 15.237297000000002 15.237297000000002
8.434835000000001 15.449856000000002 14.636835000000001
12.262297000000002 15.237297000000002 15.237297000000002
8.606010000000001 21.868466000000005 27.409275
9.969710000000003 22.213095000000003 27.541402000000005
10.811694000000003 21.187297 27.137297000000004
8.434835000000001 20.592756 26.908698
12.262297000000002 21.187297 27.137297000000004
8.606010000000001 27.791559 33.418817000000004
9.969710000000003 28.123061 33.58109
10.811694000000003 27.137297000000004 33.087297
8.434835000000001 26.565459000000004 32.806694
12.262297000000002 27.137297000000004 33.087297
8.606010000000001 15.816083000000003 20.736775
9.969710000000003 16.104185 20.506073
10.811694000000003 15.237297000000002 21.187297
8.434835000000001 14.739705000000002 21.584963000000002
12.262297000000002 15.237297000000002 21.187297
8.606010000000001 33.771935 21.450423
9.969710000000003 34.118246 21.578071
10.811694000000003 33.087297 21.187297
8.434835000000001 32.489843 20.966424000000004
12.262297000000002 33.087297 21.187297
8.606010000000001 15.562203000000002 32.429726
9.969710000000003 15.721126000000002 32.096605000000004
10.811694000000003 15.237297000000002 33.087297
8.434835000000001 14.962473000000001 33.661935
12.262297000000002 15.237297000000002 33.087297
39.71858400000001 21.299303000000002 20.46244
38.354884000000006 21.360688000000003 20.098492
37.5129 21.187297 21.187297
39.889759000000005 21.081965000000004 21.815502000000002
36.062297 21.187297 21.187297
39.71858400000001 27.754543000000005 15.633492000000002
38.354884000000006 28.062374000000005 15.837125000000002
37.5129 27.137297000000004 15.237297000000002
39.889759000000005 26.605702 14.886379000000002
36.062297 27.137297000000004 15.237297000000002
39.71858400000001 15.788818000000001 20.703781000000003
38.354884000000006 16.069678000000003 20.464315000000003
37.5129 15.237297000000002 21.187297
39.889759000000005 14.752986000000002 21.601035000000003
36.062297 15.237297000000002 21.187297
39.71858400000001 27.827659000000004 33.335015
38.354884000000006 28.173309000000003 33.464445000000005
37.5129 27.137297000000004 33.087297
39.889759000000005 26.540557 32.8645
36.062297 27.137297000000004 33.087297
39.71858400000001 32.450907 21.551949
38.354884000000006 32.128168 21.731018000000006
37.5129 33.087297 21.187297
39.889759000000005 33.643984 20.877723000000003
36.062297 33.087297 21.187297
39.71858400000001 15.080431000000003 26.420808
38.354884000000006 15.006470000000002 26.059206000000003
37.5129 15.237297000000002 27.137297000000004
39.889759000000005 15.365542000000001 27.761228000000003
36.062297 15.237297000000002 27.137297000000004
39.71858400000001 21.109329000000002 26.407993000000005
38.354884000000006 21.075156 26.040490000000005
37.5129 21.187297 27.137297000000004
39.889759000000005 21.246886000000003 27.771478000000002
36.062297 21.187297 27.137297000000004
14.753474000000002 8.606010000000001 20.636045000000003
14.513852000000002 9.969710000000003 20.355318000000004
15.237297000000002 10.811694000000003 21.187297
15.651304000000001 8.434835000000001 21.671378000000004
15.237297000000002 12.262297000000002 21.187297
14.570326000000001 8.606010000000001 27.442442
14.232612000000001 9.969710000000003 27.591356000000005
15.237297000000002 10.811694000000003 27.137297000000004
15.819878000000001 8.434835000000001 26.879739
15.237297000000002 12.262297000000002 27.137297000000004
14.555606000000003 8.606010000000001 33.357966000000005
14.210725000000002 9.969710000000003 33.489431
15.237297000000002 10.811694000000003 33.087297
15.832276000000002 8.434835000000001 32.859841
15.237297000000002 12.262297000000002 33.087297
20.457979 8.606010000000001 21.265140000000002
20.090471 9.969710000000003 21.29925
21.187297 10.811694000000003 21.187297
21.821488000000002 8.434835000000001 21.127817
21.187297 12.262297000000002 21.187297
33.274185 8.606010000000001 33.796548
33.363303 9.969710000000003 34.154715
33.087297 10.811694000000003 33.087297
32.932901 8.434835000000001 32.469318
33.087297 12.262297000000002 33.087297
20.670003 8.606010000000001 33.607269
20.406112 9.969710000000003 33.865314000000005
21.187297 10.811694000000003 33.087297
21.642292000000005 8.434835000000001 32.641521000000004
21.187297 12.262297000000002 33.087297
33.805914 8.606010000000001 26.990487
34.168517 9.969710000000003 26.921601000000003
33.087297 10.811694000000003 27.137297000000004
32.46163 8.434835000000001 27.256786000000005
33.087297 12.262297000000002 27.137297000000004
32.508917000000004 39.71858400000001 27.588340000000002
32.221022000000005 38.354884000000006 27.819301000000003
33.087297 37.5129 27.137297000000004
33.584531000000005 39.889759000000005 26.739183000000004
33.087297 36.062297 27.137297000000004
15.456680000000002 39.71858400000001 26.437415
15.562214000000003 38.354884000000006 26.083736000000002
15.237297000000002 37.5129 27.137297000000004
15.054578000000001 39.889759000000005 27.747502000000004
15.237297000000002 36.062297 27.137297000000004
26.517521000000002 39.71858400000001 27.529524000000002
26.20839 38.354884000000006 27.731177000000002
27.137297000000004 37.5129 27.137297000000004
27.671133000000005 39.889759000000005 26.789797
27.137297000000004 36.062297 27.137297000000004
33.301995000000005 39.71858400000001 32.385964
33.405161 38.354884000000006 32.031587
33.087297 37.5129 33.087297
32.908663000000004 39.889759000000005 33.698711
33.087297 36.062297 33.087297
21.530992000000005 39.71858400000001 26.489348
21.699435 38.354884000000006 26.160938
21.187297 37.5129 27.137297000000004
20.896051 39.889759000000005 27.703788000000003
21.187297 36.062297 27.137297000000004
15.152853000000002 39.71858400000001 15.965880000000002
15.115416000000002 38.354884000000006 16.333065000000005
15.237297000000002 37.5129 15.237297000000002
15.302517000000002 39.889759000000005 14.603670000000003
15.237297000000002 36.062297 15.237297000000002
27.166836000000004 39.71858400000001 33.820162
27.186781000000003 38.354884000000006 34.188711000000005
27.137297000000004 37.5129 33.087297
27.103489000000003 39.889759000000005 32.45122
27.137297000000004 36.062297 33.087297
18.212297 37.10574700000001 37.10574700000001
30.112297000000005 24.162297000000002 37.537958
11.218847000000002 11.218847000000002 30.112297000000005
11.218847000000002 18.212297 11.218847000000002
30.112297000000005 10.786636000000001 30.112297000000005
30.112297000000005 37.537958 24.162297000000002
30.112297000000005 10.786636000000001 18.212297
24.162297000000002 37.537958 30.112297000000005
37.537958 18.212297 18.212297
18.212297 10.786636000000001 18.212297
11.218847000000002 24.162297000000002 11.218847000000002
30.112297000000005 37.537958 30.112297000000005
37.10574700000001 30.112297000000005 37.10574700000001
30.112297000000005 30.112297000000005 10.786636000000001
37.10574700000001 11.218847000000002 18.212297
11.218847000000002 37.10574700000001 24.162297000000002
30.112297000000005 18.212297 37.537958
11.218847000000002 24.162297000000002 37.10574700000001
10.786636000000001 18.212297 18.212297
11.218847000000002 37.10574700000001 18.212297
24.162297000000002 10.786636000000001 18.212297
24.162297000000002 11.218847000000002 11.218847000000002
18.212297 30.112297000000005 37.537958
11.218847000000002 18.212297 37.10574700000001
11.218847000000002 30.112297000000005 11.218847000000002
37.537958 30.112297000000005 18.212297
18.212297 24.162297000000002 37.537958
10.786636000000001 24.162297000000002 18.212297
10.786636000000001 30.112297000000005 24.162297000000002
24.162297000000002 30.112297000000005 10.786636000000001
30.112297000000005 24.162297000000002 10.786636000000001
11.218847000000002 11.218847000000002 18.212297
24.162297000000002 37.537958 24.162297000000002
30.112297000000005 18.212297 10.786636000000001
12.262297000000002 12.262297000000002 24.162297000000002
12.262297000000002 18.212297 24.162297000000002
12.262297000000002 18.212297 30.112297000000005
12.262297000000002 24.162297000000002 24.162297000000002
12.262297000000002 24.162297000000002 30.112297000000005
12.262297000000002 30.112297000000005 18.212297
12.262297000000002 30.112297000000005 30.112297000000005
12.262297000000002 30.112297000000005 36.062297
12.262297000000002 36.062297 30.112297000000005
18.212297 12.262297000000002 12.262297000000002
18.212297 12.262297000000002 24.162297000000002
18.212297 12.262297000000002 30.112297000000005
18.212297 12.262297000000002 36.062297
18.212297 18.212297 12.262297000000002
18.212297 18.212297 18.212297
18.212297 18.212297 24.162297000000002
18.212297 18.212297 30.112297000000005
18.212297 24.162297000000002 12.262297000000002
18.212297 24.162297000000002 18.212297
18.212297 24.162297000000002 24.162297000000002
18.212297 24.162297000000002 30.112297000000005
18.212297 30.112297000000005 12.262297000000002
18.212297 30.112297000000005 18.212297
18.212297 30.112297000000005 24.162297000000002
18.212297 30.112297000000005 30.112297000000005
18.212297 36.062297 12.262297000000002
18.212297 36.062297 24.162297000000002
18.212297 36.062297 30.112297000000005
24.162297000000002 12.262297000000002 24.162297000000002
24.162297000000002 12.262297000000002 30.112297000000005
24.162297000000002 18.212297 12.262297000000002
24.162297000000002 18.212297 18.212297
24.162297000000002 18.212297 24.162297000000002
24.162297000000002 18.212297 30.112297000000005
24.162297000000002 18.212297 36.062297
24.162297000000002 24.162297000000002 12.262297000000002
24.162297000000002 24.162297000000002 18.212297
24.162297000000002 24.162297000000002 24.162297000000002
24.162297000000002 24.162297000000002 30.112297000000005
24.162297000000002 24.162297000000002 36.062297
24.162297000000002 30.112297000000005 18.212297
24.162297000000002 30.112297000000005 24.162297000000002
24.162297000000002 30.112297000000005 30.112297000000005
24.162297000000002 30.112297000000005 36.062297
24.162297000000002 36.062297 12.262297000000002
24.162297000000002 36.062297 18.212297
24.162297000000002 36.062297 36.062297
30.112297000000005 12.262297000000002 12.262297000000002
30.112297000000005 12.262297000000002 24.162297000000002
30.112297000000005 12.262297000000002 36.062297
30.112297000000005 18.212297 18.212297
30.112297000000005 18.212297 24.162297000000002
30.112297000000005 18.212297 30.112297000000005
30.112297000000005 24.162297000000002 18.212297
30.112297000000005 24.162297000000002 24.162297000000002
30.112297000000005 24.162297000000002 30.112297000000005
30.112297000000005 30.112297000000005 18.212297
30.112297000000005 30.112297000000005 24.162297000000002
30.112297000000005 30.112297000000005 30.112297000000005
30.112297000000005 30.112297000000005 36.062297
30.112297000000005 36.062297 12.262297000000002
30.112297000000005 36.062297 18.212297
30.112297000000005 36.062297 36.062297
36.062297 12.262297000000002 30.112297000000005
36.062297 18.212297 12.262297000000002
36.062297 18.212297 24.162297000000002
36.062297 18.212297 30.112297000000005
36.062297 18.212297 36.062297
36.062297 24.162297000000002 12.262297000000002
36.062297 24.162297000000002 18.212297
36.062297 24.162297000000002 30.112297000000005
36.062297 24.162297000000002 36.062297
36.062297 30.112297000000005 12.262297000000002
36.062297 30.112297000000005 24.162297000000002
36.062297 30.112297000000005 30.112297000000005
36.062297 36.062297 18.212297
36.062297 36.062297 24.162297000000002
36.062297 36.062297 30.112297000000005
26.376861000000005 22.106954 40.824594000000005
28.045199000000004 20.06781 40.546312
28.484746 19.541016 37.984476
25.944059000000003 15.251953000000002 40.824594000000005
28.578322 15.205904000000002 40.546312
29.264386000000002 15.200527000000003 37.984476
34.199903 21.618735 40.824594000000005
31.738541000000005 20.678972 40.546312
31.099974000000003 20.428082000000003 37.984476
32.009718 33.599990000000005 40.824594000000005
34.382915000000004 32.455701000000005 40.546312
35.003756 32.163694 37.984476
15.791472000000002 28.194142 40.824594000000005
14.555838000000001 25.867198000000002 40.546312
14.239928000000003 25.258172000000002 37.984476
15.145708000000003 22.377105 40.824594000000005
15.334266000000001 19.749196000000005 40.546312
15.389965000000002 19.065376 37.984476
15.795295000000001 34.142128 40.824594000000005
14.551243000000001 31.819674 40.546312
14.233131000000002 31.211795000000002 37.984476
34.279151 15.296579000000003 7.500000000000002
31.648455 15.152021000000003 7.778282000000002
30.963073 15.120984000000002 10.340118000000002
27.726185 20.149394 7.500000000000002
26.414129000000003 22.434119000000003 7.778282000000002
26.078213000000005 23.032344000000002 10.340118000000002
20.549946000000002 16.246165000000005 7.500000000000002
21.968666000000006 14.026099000000002 7.778282000000002
22.332518 13.444443000000001 10.340118000000002
16.342506 27.587345000000006 7.500000000000002
13.907589000000002 26.581047000000005 7.778282000000002
13.271022000000002 26.325126000000004 10.340118000000002
26.760537 14.105006000000001 7.500000000000002
27.579355 16.609202000000003 7.778282000000002
27.798860000000005 17.259225 10.340118000000002
34.205974000000005 33.502739000000005 7.500000000000002
31.740925000000004 32.57269 7.778282000000002
31.096703000000005 32.336701000000005 10.340118000000002
33.970786000000004 26.335126000000002 7.500000000000002
32.011015 28.096022000000005 7.778282000000002
31.505122 28.559472 10.340118000000002
7.500000000000002 28.170190000000005 14.639667000000001
7.778282000000002 25.882910000000003 15.947263000000001
10.340118000000002 25.290598000000003 16.293498
7.500000000000002 15.638357000000001 14.113383000000002
7.778282000000002 14.740000000000002 16.590158000000002
10.340118000000002 14.512292000000002 17.237353000000002
7.500000000000002 20.074553 26.706215
7.778282000000002 22.526323000000005 27.670726000000002
10.340118000000002 23.167174000000003 27.915722000000002
7.500000000000002 26.067332 32.558897
7.778282000000002 28.423538 33.737776000000004
10.340118000000002 29.040041000000002 34.038834
7.500000000000002 14.303210000000002 21.929936000000005
7.778282000000002 16.374009 20.301055
10.340118000000002 16.909144000000005 19.871703000000004
7.500000000000002 31.969059 20.770675000000004
7.778282000000002 34.433125000000004 21.703324000000002
10.340118000000002 35.077098 21.939993
7.500000000000002 14.719711000000002 34.162535000000005
7.778282000000002 15.874775000000001 31.794563000000004
10.340118000000002 16.169601 31.175056000000005
40.824594000000005 20.992944 22.364691
40.546312 21.408527 19.763009000000004
37.984476 21.523275000000005 19.086588
40.824594000000005 26.13973 14.582399000000002
40.546312 28.349673000000003 16.016837000000002
37.984476 28.921529 16.395906000000004
40.824594000000005 14.331937000000002 21.964699000000003
40.546312 16.321871 20.237961000000002
37.984476 16.844375 19.793325000000003
40.824594000000005 26.018294000000004 32.672733
40.546312 28.493586 33.575168000000005
37.984476 29.135873000000004 33.816372
40.824594000000005 34.128741000000005 20.604694000000002
40.546312 31.836126 21.902915
37.984476 31.235881 22.235208
40.824594000000005 15.480512000000003 28.305577
40.546312 14.930137000000002 25.729039
37.984476 14.793292000000003 25.056740000000005
40.824594000000005 21.301938 28.325105
40.546312 21.035204 25.703977000000002
37.984476 20.97233 25.020779000000005
16.015203 7.500000000000002 22.092224
14.287358000000003 7.778282000000002 20.103252000000005
13.842431000000001 10.340118000000002 19.580995
16.327497 7.500000000000002 26.652019000000003
13.926121000000002 7.778282000000002 27.735925
13.298094000000003 10.340118000000002 28.012139000000005
16.350867 7.500000000000002 32.658354
13.897248000000003 7.778282000000002 33.618152
13.255928000000003 10.340118000000002 33.861917000000005
22.375125000000004 7.500000000000002 21.072860000000006
19.753951 7.778282000000002 21.339144000000005
19.070743 10.340118000000002 21.401901000000002
32.795118 7.500000000000002 31.930291000000004
33.453467 7.778282000000002 34.481376000000004
33.618491 10.340118000000002 35.147319
22.037583000000005 7.500000000000002 32.250013
20.169929000000003 7.778282000000002 34.108326000000005
19.678935000000003 10.340118000000002 34.587531
31.915724000000004 7.500000000000002 27.364116000000003
34.499721 7.778282000000002 26.849902
35.173872 10.340118000000002 26.722492000000003
34.020715 40.824594000000005 26.393817000000006
31.951384000000004 40.546312 28.024562000000003
31.416636000000004 37.984476 28.454396000000003