3_train/237_cspbbr3_MA-INC_3_0.60\237_cspbbr3_MA-INC_3_0.60.xyz
1.0
41.68719 0 0
0 41.68719 0
0 0 41.68719
Br C Cs H N O Pb 
72 244 26 312 64 72 27 
Cartesian
14.893595 14.893595 11.918595
14.893595 14.893595 17.868595
14.893595 14.893595 23.818595
14.893595 11.918595 26.793595
11.918595 14.893595 26.793595
14.893595 14.893595 29.768595
14.893595 17.868595 14.893595
14.893595 20.843595 17.868595
14.893595 17.868595 20.843595
11.918595 20.843595 20.843595
14.893595 20.843595 23.818595
14.893595 17.868595 26.793595
11.918595 20.843595 26.793595
14.893595 23.818595 14.893595
14.893595 26.793595 17.868595
14.893595 23.818595 20.843595
14.893595 26.793595 23.818595
14.893595 23.818595 26.793595
14.893595 26.793595 29.768595
14.893595 29.768595 14.893595
14.893595 29.768595 26.793595
17.868595 14.893595 14.893595
20.843595 14.893595 17.868595
17.868595 14.893595 20.843595
20.843595 14.893595 23.818595
20.843595 11.918595 26.793595
17.868595 14.893595 26.793595
20.843595 14.893595 29.768595
20.843595 17.868595 14.893595
17.868595 20.843595 14.893595
20.843595 20.843595 17.868595
20.843595 17.868595 20.843595
17.868595 20.843595 20.843595
20.843595 20.843595 23.818595
20.843595 17.868595 26.793595
17.868595 20.843595 26.793595
20.843595 23.818595 14.893595
17.868595 26.793595 14.893595
20.843595 26.793595 17.868595
20.843595 23.818595 20.843595
17.868595 26.793595 20.843595
20.843595 26.793595 23.818595
20.843595 23.818595 26.793595
17.868595 26.793595 26.793595
20.843595 29.768595 20.843595
23.818595 14.893595 14.893595
26.793595 14.893595 17.868595
26.793595 11.918595 20.843595
23.818595 14.893595 20.843595
26.793595 14.893595 23.818595
23.818595 14.893595 26.793595
26.793595 20.843595 11.918595
26.793595 17.868595 14.893595
23.818595 20.843595 14.893595
26.793595 20.843595 17.868595
26.793595 17.868595 20.843595
23.818595 20.843595 20.843595
26.793595 20.843595 23.818595
26.793595 17.868595 26.793595
23.818595 20.843595 26.793595
26.793595 26.793595 11.918595
26.793595 23.818595 14.893595
23.818595 26.793595 14.893595
26.793595 26.793595 17.868595
26.793595 23.818595 20.843595
23.818595 26.793595 20.843595
26.793595 26.793595 23.818595
26.793595 23.818595 26.793595
23.818595 26.793595 26.793595
29.768595 14.893595 14.893595
29.768595 14.893595 20.843595
29.768595 14.893595 26.793595
21.975027 20.694091 33.508123
22.036467 20.688775 32.102737000000005
20.843595 20.843595 31.411436
19.706266 20.987046 33.505365
20.843595 20.843595 29.768595
19.649171 20.99708 32.100269
25.772416 21.353185999999997 33.508123
25.716052 21.378209000000002 32.102737000000005
26.793595 20.843595 31.411436
27.82232 20.337808 33.505365
26.793595 20.843595 29.768595
27.87304 20.309738 32.100269
26.413877 27.86984 33.508123
26.39076 27.927013 32.102737000000005
26.793595 26.793595 31.411436
27.181382 25.714838 33.505365
26.793595 26.793595 29.768595
27.198324 25.659399 32.100269
26.754656 13.752993 33.508123
26.755331 13.691327 32.102737000000005
26.793595 14.893595 31.411436
26.825937 16.039479 33.505365
26.793595 14.893595 29.768595
26.83038 16.097278 32.100269
21.964717 26.580114 33.508123
22.025755999999998 26.571319 32.102737000000005
20.843595 26.793595 31.411436
19.716242 27.001368 33.505365
20.843595 26.793595 29.768595
19.659807999999998 27.014626 32.100269
15.999384 20.561246999999998 33.508123
16.059763 20.548697 32.102737000000005
14.893595 20.843595 31.411436
13.781234 21.120631 33.505365
14.893595 20.843595 29.768595
13.725728 21.137351 32.100269
21.781115 14.242791 8.179067
21.830139 14.205378 9.584453
20.843595 14.893595 10.275754
19.905786 15.552845 8.181825
20.843595 14.893595 11.918595
19.856801 15.583844 9.586921
14.009962 21.565870999999998 8.179067
13.964020999999999 21.607011 9.584453
14.893595 20.843595 10.275754
15.776854 20.112876999999997 8.181825
14.893595 20.843595 11.918595
15.823259 20.078134 9.586921
13.860686 26.308221 8.179067
13.803747 26.284533999999997 9.584453
14.893595 26.793595 10.275754
15.933958 27.274988 8.181825
14.893595 26.793595 11.918595
15.985327 27.301854000000002 9.586921
21.852113 26.259384 8.179067
21.905253 26.228092 9.584453
20.843595 26.793595 10.275754
19.833782 27.336157 8.181825
20.843595 26.793595 11.918595
19.781446 27.361086 9.586921
25.924315 14.154108 8.179067
25.87559 14.116305 9.584453
26.793595 14.893595 10.275754
27.671113000000002 15.631198 8.181825
26.793595 14.893595 11.918595
27.713628 15.670605 9.586921
21.955986 20.588497999999998 8.179067
22.015414 20.572019 9.584453
20.843595 20.843595 10.275754
19.727792 21.106424 8.181825
20.843595 20.843595 11.918595
19.670788 21.116963000000002 9.586921
8.179067 26.751099 19.70312
9.584453 26.746029 19.641659
10.275754 26.793595 20.843595
8.181825 26.843048 21.988868
11.918595 26.793595 20.843595
9.586921 26.842738 22.046837
8.179067 27.769825 14.30244
9.584453 27.821084 14.268153
10.275754 26.793595 14.893595
8.181825 25.816551 15.493161
11.918595 26.793595 14.893595
9.586921 25.76573 15.521049999999999
8.179067 16.008098 21.089302
9.584453 16.068858 21.099852000000002
10.275754 14.893595 20.843595
8.181825 13.772699 20.603415000000002
11.918595 14.893595 20.843595
9.586921 13.716671 20.588535
8.179067 25.769186 27.296661
9.584453 25.715112 27.32631
10.275754 26.793595 26.793595
8.181825 27.819554999999998 26.282222
11.918595 26.793595 26.793595
9.586921 27.872629 26.258908
8.179067 13.906848 15.467024
9.584453 13.854979 15.50038
10.275754 14.893595 14.893595
8.181825 15.881308 14.311771
11.918595 14.893595 14.893595
9.586921 15.932623 14.284805
8.179067 21.859191 14.372966
9.584453 21.912746000000002 14.34239
10.275754 20.843595 14.893595
8.181825 19.826591999999998 15.422557
11.918595 20.843595 14.893595
9.586921 19.773927 15.446781
33.508123 26.358781 15.948785
32.102737000000005 26.332741000000002 16.004687
31.411436 26.793595 14.893595
33.505365 27.236597 13.836313
29.768595 26.793595 14.893595
32.100269 27.25638 13.781824
33.508123 27.358494 21.83525
32.102737000000005 27.386574 21.890155
31.411436 26.793595 20.843595
33.505365 26.23208 19.844197
29.768595 26.793595 20.843595
32.100269 26.201268000000002 19.795094
33.508123 20.657435 25.667614
32.102737000000005 20.650127 25.606379
31.411436 20.843595 26.793595
33.505365 21.023897 27.925667
29.768595 20.843595 26.793595
32.100269 21.035779 27.982406
33.508123 27.441032 27.733442999999998
32.102737000000005 27.473694 27.785753
31.411436 26.793595 26.793595
33.505365 26.148869 25.845743000000002
29.768595 26.793595 26.793595
32.100269 26.11398 25.799448
33.508123 21.958259 21.088570999999998
32.102737000000005 22.017833 21.104509
31.411436 20.843595 20.843595
33.505365 19.725449 20.590918
29.768595 20.843595 20.843595
32.100269 19.668352 20.580897
33.508123 19.710073 15.026327
32.102737000000005 19.648561 15.030732
31.411436 20.843595 14.893595
33.505365 21.982924 14.767002999999999
29.768595 20.843595 14.893595
32.100269 22.040161 14.757815
15.945233 8.179067 21.28693
16.000923 9.584453 21.313422
14.893595 10.275754 20.843595
13.839931 8.181825 20.392056
14.893595 11.918595 20.843595
13.785604 9.586921 20.371831999999998
13.810122 8.179067 15.252168
13.750762 9.584453 15.268887
14.893595 10.275754 14.893595
15.983994 8.181825 14.539864
14.893595 11.918595 14.893595
16.038203 9.586921 14.519324
20.110657 8.179067 15.768404
20.068963 9.584453 15.813843
20.843595 10.275754 14.893595
21.584970000000002 8.181825 14.019262
20.843595 11.918595 14.893595
21.620273 9.586921 13.973282
25.776783 8.179067 27.311844
25.720633 9.584453 27.337345
26.793595 10.275754 26.793595
27.817985 8.181825 26.279086
26.793595 11.918595 26.793595
27.868466 9.586921 26.250586000000002
26.71299 8.179067 13.755179
26.711409999999997 9.584453 13.693529
26.793595 10.275754 14.893595
26.867801 8.181825 16.037531
26.793595 11.918595 14.893595
26.874354 9.586921 16.095129
21.964651999999997 8.179067 20.62977
22.025688 9.584453 20.620957
20.843595 10.275754 20.843595
19.716305 8.181825 21.051713
20.843595 11.918595 20.843595
19.659876 9.586921 21.064989
25.656861 33.508123 20.945203
25.595746000000002 32.102737000000005 20.953455
26.793595 31.411436 20.843595
27.93476 33.505365 20.734790999999998
26.793595 29.768595 20.843595
27.992667 32.100269 20.732093
26.649344 33.508123 25.661482
26.638800999999997 32.102737000000005 25.60072
26.793595 31.411436 26.793595
26.945204 33.505365 27.929865
26.793595 29.768595 26.793595
26.950076 32.100269 27.98763
20.604877 33.508123 13.777574
20.589274 32.102737000000005 13.717910999999999
20.843595 31.411436 14.893595
21.089993 33.505365 16.013141
20.843595 29.768595 14.893595
21.099694 32.100269 16.070293
21.503301 33.508123 25.862318
21.536646 32.102737000000005 25.810441
20.843595 31.411436 26.793595
20.186495 33.505365 27.732910999999998
20.843595 29.768595 26.793595
20.151002 32.100269 27.778745
27.863657999999997 33.508123 14.49679
27.920455 32.102737000000005 14.472764999999999
26.793595 31.411436 14.893595
25.721149 33.505365 15.298508
26.793595 29.768595 14.893595
25.665986999999998 32.100269 15.316331
13.812379 33.508123 21.208918
13.754903 32.102737000000005 21.23127
14.893595 31.411436 20.843595
15.977431 33.505365 20.470238
14.893595 29.768595 20.843595
16.03309 32.100269 20.454037
30.812045 23.818595 10.875145
31.244256 17.868595 23.818595
31.244256 17.868595 17.868595
17.868595 10.442934000000001 23.818595
31.244256 23.818595 23.818595
23.818595 10.875145 30.812045
17.868595 10.442934000000001 17.868595
23.818595 10.875145 10.875145
17.868595 23.818595 10.442934000000001
23.818595 10.442934000000001 23.818595
23.818595 23.818595 10.442934000000001
17.868595 23.818595 31.244256
17.868595 31.244256 23.818595
10.875145 10.875145 17.868595
30.812045 10.875145 23.818595
17.868595 17.868595 10.442934000000001
23.818595 23.818595 31.244256
23.818595 31.244256 23.818595
30.812045 30.812045 23.818595
30.812045 10.875145 17.868595
30.812045 17.868595 30.812045
17.868595 30.812045 30.812045
23.818595 10.442934000000001 17.868595
10.875145 30.812045 23.818595
23.818595 17.868595 31.244256
17.868595 10.875145 30.812045
30.812045 23.818595 30.812045
10.875145 10.875145 23.818595
11.918595 17.868595 11.918595
11.918595 17.868595 17.868595
11.918595 17.868595 23.818595
11.918595 17.868595 29.768595
11.918595 23.818595 11.918595
11.918595 23.818595 17.868595
11.918595 23.818595 23.818595
11.918595 23.818595 29.768595
11.918595 29.768595 17.868595
17.868595 11.918595 11.918595
17.868595 17.868595 17.868595
17.868595 17.868595 23.818595
17.868595 17.868595 29.768595
17.868595 23.818595 17.868595
17.868595 23.818595 23.818595
17.868595 29.768595 11.918595
17.868595 29.768595 17.868595
23.818595 17.868595 17.868595
23.818595 17.868595 23.818595
23.818595 23.818595 17.868595
23.818595 23.818595 23.818595
23.818595 29.768595 11.918595
23.818595 29.768595 17.868595
29.768595 17.868595 11.918595
29.768595 23.818595 17.868595
29.768595 29.768595 17.868595
18.782784 21.105356 34.081942
22.896480999999998 20.57332 34.087651
22.989418 20.567016 31.590646
18.697771 21.121914999999998 31.586135
28.657022 19.925389 34.081942
24.940431999999998 21.767272000000002 34.087651
24.854606999999998 21.803479 31.590646
28.732018 19.882065 31.586135
27.494622 24.838084 34.081942
26.10375 28.745903 34.087651
26.067232 28.831596 31.590646
27.518407 24.754803 31.586135
26.854021 16.970085 34.081942
26.723926000000002 12.824166 34.087651
26.726676 12.731056 31.590646
26.862247 17.056304 31.586135
18.800963 27.171903 34.081942
22.877832 26.407237 34.087651
22.97026 26.395669 31.590646
18.717027 27.19326 31.586135
12.878242 21.347395000000002 34.081942
16.900071 20.332278000000002 34.087651
16.991609 20.315021 31.590646
12.795786 21.373898 31.586135
19.143076999999998 16.086784 7.605248
22.543981 13.712037 7.599539
22.616967 13.654157999999999 10.096544
19.06905 16.131745 10.101054999999999
16.495372 19.520806 7.605248
13.291038 22.154779 7.599539
13.222812 22.218199000000002 10.096544
16.565648 19.470182 10.101054999999999
16.778152 27.667613 7.605248
13.019171 25.913864999999998 7.599539
12.932515 25.879692000000002 10.096544
16.854149 27.709157 10.101054999999999
19.012778 27.775211000000002 7.605248
22.672892 25.823511 7.599539
22.752267 25.774761 10.096544
18.933912 27.811012 10.101054999999999
28.382641 16.231651 7.605248
25.215825 13.552687 7.599539
25.141178999999998 13.496966 10.096544
28.445068 16.291687 10.101054999999999
18.821148 21.318118000000002 7.605248
22.86159 20.379818 7.599539
22.950874000000002 20.353264 10.096544
18.735706 21.332295 10.101054999999999
7.605248 26.881396 22.919107999999998
7.599539 26.715517000000002 18.774466
10.096544 26.706134000000002 18.68179
10.101054999999999 26.87934 23.005694000000002
7.605248 25.022069 15.978563999999999
7.599539 28.564264 13.820225
10.096544 28.640712999999998 13.767005
10.101054999999999 24.945387 16.018828
7.605248 12.862715999999999 20.406570000000002
7.599539 16.91585 21.288425
10.096544 17.007907 21.302653
10.101054999999999 12.77943 20.382801999999998
7.605248 28.653624 25.868525
7.599539 24.935439 27.707186
10.096544 24.854609 27.753482
10.101054999999999 28.733548 25.835156
7.605248 16.684425 13.840793999999999
7.599539 13.103831 15.934813
10.096544 13.026433 15.986645
10.101054999999999 16.761823 13.801922
7.605248 18.999769999999998 15.850553999999999
7.599539 22.685745999999998 13.948146999999999
10.096544 22.765767 13.900466
10.101054999999999 18.920431 15.885293
34.081942 27.594714999999997 12.976913
34.087651 26.003807 16.807655
31.590646 25.962911000000002 16.891347
31.586135 27.622771 12.894973
34.081942 25.774448 19.033400999999998
34.087651 27.817641 22.643240000000002
31.590646 27.858506000000002 22.726947
31.586135 25.727071 18.960897
34.081942 21.172127999999997 28.844821
34.087651 20.506809999999998 24.750566
31.590646 20.497491999999998 24.657883
31.586135 21.191438 28.929251999999998
34.081942 25.623735999999997 25.076944
34.087651 27.967436 28.499318
31.590646 28.015292 28.579234
31.586135 25.570346 25.008746
34.081942 18.816919 20.387473999999997
34.087651 22.865721 21.289012
31.590646 22.955244 21.314753
31.586135 18.731351 20.374073
34.081942 22.908057 14.662382000000001
34.087651 18.786931 15.133439
31.590646 18.693912 15.138365
31.586135 22.993306 14.647084
12.983456 7.605248 20.026997
16.801204 7.599539 21.64884
16.884563 10.096544 21.690411
12.901745 10.101054999999999 19.99828
16.869027 7.605248 14.250844
12.927541 7.599539 15.543227
12.837425 10.096544 15.566809
16.949441 10.101054999999999 14.218671
22.18571 7.605248 13.307976
19.513075 7.599539 16.480135
19.448832 10.096544 16.547586
22.237182999999998 10.101054999999999 13.238319
28.649153 7.605248 25.85959
24.948347000000002 7.599539 27.732984
24.862832 10.096544 27.769918
28.723779 10.101054999999999 25.815630000000002
26.929883 7.605248 16.966488
26.648328 7.599539 12.828095
26.647673 10.096544 12.734948
26.941254 10.101054999999999 17.052349
18.801079 7.605248 21.222528999999998
22.877713 7.599539 20.456613
22.970138000000002 10.096544 20.445017
18.717149 10.101054999999999 21.243911999999998
28.861757 34.081942 20.648232
24.731303 34.087651 21.028917
24.639239 31.590646 21.043096000000002
28.948334 31.586135 20.645793
27.066535 34.081942 28.852955
26.530908999999998 34.087651 24.739724
26.513281 31.590646 24.648256999999997
27.072226 31.586135 28.939379
21.288337000000002 34.081942 16.922798
20.409533 34.087651 12.869000999999999
20.384293 31.590646 12.779336
21.301257 31.586135 17.00844
19.651325 34.081942 28.494758
22.039702000000002 34.087651 25.103412000000002
22.088603 31.590646 25.02413
19.597046 31.586135 28.56225
24.849494 34.081942 15.625668
28.734672 34.087651 14.172753
28.819773 31.590646 14.134876
24.766602000000002 31.586135 15.650776
16.858286 34.081942 20.168723999999997
12.932255999999999 34.087651 21.507327999999998
12.846083 31.590646 21.542699000000002
16.941876999999998 31.586135 20.146053000000002
31.632873 24.448161000000002 11.223738
31.141336 22.787691 10.732201
30.370279 24.219933 9.961144
28.96474 23.238384 11.644706
29.417743 24.768680999999997 12.097709
30.128353 23.448719999999998 12.808319
31.578177 17.004186 23.241601
31.578177 18.800491 23.358490999999997
31.578177 17.801108 24.855692
29.393853 18.665239 24.350356
29.393853 17.009755 24.242628999999997
29.393853 17.930791 22.862801
31.578177 16.846127 18.054831
31.578177 18.218544 16.889994
31.578177 18.541114 18.66096
29.393853 18.810907 17.696959
29.393853 17.54608 18.770479
29.393853 17.248798 17.138347
18.414896 10.109013000000001 24.702721999999998
16.829768 10.109013000000001 23.849642
18.361121 10.109013000000001 22.903420999999998
17.365121000000002 12.293337000000001 23.003778999999998
18.825983 12.293337000000001 23.789982
17.414681 12.293337000000001 24.662024
31.578177 24.49408 24.608434
31.578177 22.796832 24.008663000000002
31.578177 24.164873 22.838689
29.393853 23.196065 23.090675
29.393853 24.760257 23.643428
29.393853 23.499463000000002 24.721681999999998
23.072004 11.150265000000001 31.5594
23.565755 9.926217 30.335352
24.818025000000002 10.840601 31.249736
24.506657 11.712419 29.032454
24.051613 12.840507 30.160542
22.897515000000002 11.997807 29.317841
18.035635 10.109013000000001 18.894374
16.896724 10.109013000000001 17.500366
18.673426 10.109013000000001 17.211045
17.714651 12.293337000000001 16.923232
18.764276 12.293337000000001 18.207957
17.126858 12.293337000000001 18.474596
24.581806 10.140212 11.137843
22.826068 10.421066 10.856988999999999
24.047911 11.355804 9.92225
23.115216 12.643289 11.723867
24.733313 12.384452 11.982703
23.607256 11.522991999999999 12.844163
18.821632 23.404054 10.109013000000001
17.033073 23.200511000000002 10.109013000000001
17.75108 24.85122 10.109013000000001
16.990271 24.200639 12.293337000000001
18.638617 24.388223999999997 12.293337000000001
17.976897 22.866922 12.293337000000001
24.2767 10.109013000000001 22.885715
24.39744 10.109013000000001 24.681766
22.781645 10.109013000000001 23.888304
23.396402 12.293337000000001 24.678342
23.285129 12.293337000000001 23.023092000000002
24.774254 12.293337000000001 23.754351
24.857879999999998 23.815271 10.109013000000001
23.296074 22.92021 10.109013000000001
23.301831 24.720304000000002 10.109013000000001
22.860784 23.821659 12.293337000000001
24.300154 24.646552 12.293337000000001
24.294847 22.987575 12.293337000000001
17.031848 23.202171 31.578177
18.820808 23.402162 31.578177
17.75313 24.851451 31.578177
18.639746 24.386695 29.393853
16.991031 24.202381 29.393853
17.975009 22.866709 29.393853
18.797133 31.578177 24.285438
17.808624000000002 31.578177 22.781036
17.000028 31.578177 24.389311
17.01285 29.393853 23.38835
17.923865 29.393853 24.774815
18.669069999999998 29.393853 23.29262
9.958378 11.319676999999999 17.476732
11.219318 10.058737 17.230904
10.739386 10.538668 18.898149
12.810868 11.556287000000001 18.229738
11.648779000000001 12.718377 18.456294
12.091087 12.276069 16.919753
30.51663 10.107495 23.10091
31.753419 11.344284 23.526446
30.874438 10.465302999999999 24.828429
29.993475 12.67344 24.480017
28.853644 11.53361 24.087841
29.663718 12.343682999999999 22.887927
18.653843000000002 17.187779 10.109013000000001
16.886367 17.528958 10.109013000000001
18.065575 18.889048 10.109013000000001
17.144906 18.496039 12.293337000000001
18.773820999999998 18.181606 12.293337000000001
17.687057 16.928141 12.293337000000001
23.092777 24.562445 31.578177
23.537311 22.818093 31.578177
24.825697 24.075247 31.578177
24.487513 23.133059 29.393853
24.077828 24.740663 29.393853
22.890444 23.582063 29.393853
24.335874999999998 31.578177 24.720009
24.340602 31.578177 22.919911
22.779308 31.578177 23.815866
23.341867 29.393853 22.987848
23.337511 29.393853 24.646827
24.776407 29.393853 23.82111
30.347466 31.748859 23.505267999999997
31.206637999999998 30.889687 24.833433
31.590384 30.505942 23.117084000000002
30.149378 28.857847 24.107358
29.35756 29.649664 22.883315
29.003899 30.003326 24.465111
30.461526 10.052389999999999 17.242624
31.724808 11.315673 17.4631
30.958154 10.549019 18.900061
30.04426 12.724225 18.445493
28.880012 11.559978000000001 18.242300999999998
29.586565 12.26653 16.917991
30.664922999999998 16.981814 31.431402
31.782822 17.842615 30.313503
30.696742 18.781354999999998 31.399583
29.856807 18.685857 29.150417
28.826546 17.892538000000002 30.180679
29.827484 17.02739 29.179741
18.907052 31.077586 31.018739
17.313330999999998 31.669374 30.426951
17.385402 30.397528 31.698797
16.911547 29.476496 29.530729
18.38033 28.931100999999998 30.076123
18.313907999999998 30.10324 28.903984
22.806714 10.109013000000001 18.105708
24.119189000000002 10.109013000000001 16.873724
24.529881 10.109013000000001 18.626353
24.751149 12.293337000000001 17.650071
23.541566 12.293337000000001 18.785473
23.16307 12.293337000000001 17.170241
9.931363 30.340499 24.09886
11.164486 31.573621 24.545171
10.821233 31.230368 22.811755
12.835764 30.155799 23.560301
11.699311999999999 29.019347 23.148979
12.015656 29.335691 24.746503999999998
24.812962000000002 17.566339 31.578177
23.583173 18.88087 31.578177
23.05965 17.158576 31.578177
22.902181000000002 18.147154999999998 29.393853
24.035562000000002 16.935677 29.393853
24.518041999999998 18.522953 29.393853
16.867535 10.441538 30.850674
18.610999 10.124749999999999 30.533885
18.127251 11.350793 31.759929
18.791177 12.365585 29.685619
17.184392 12.657538 29.977573
17.630216 11.52761 28.847645
31.27598 22.830504 30.820345
31.539333 24.591659 30.556992
30.329174 24.033621999999998 31.767151
29.293654 24.729224 29.71357
29.050947 23.106135 29.956278
30.166236 23.620425 28.840989
11.009219 10.268836 24.716393
9.904145 11.373909999999999 23.823086
11.003719 10.274336 22.916306000000002
11.842407 12.524748 22.991179
12.860849 11.506305999999999 23.814456
11.847476 12.519679 24.650149
20.839696999999997 20.839529000000002 34.18719
26.798604 20.846171000000002 34.18719
26.798986 26.791964 34.18719
26.789170000000002 14.897079999999999 34.18719
20.839473 26.789756999999998 34.18719
14.889244 20.840019 34.18719
20.843448 14.899225 7.5
14.8933 20.837970000000002 7.5
14.898541999999999 26.790902 7.5
20.842777 26.799167999999998 7.5
26.799075 14.892295 7.5
20.841362999999998 20.848766 7.5
7.5 26.798257 20.846754999999998
7.5 26.793098 14.899205
7.5 14.889364 20.847313
7.5 26.794584 26.788050000000002
7.5 14.894193999999999 14.887995
7.5 20.842702 14.899156
34.18719 26.799063 14.892244999999999
34.18719 26.795892 20.838452
34.18719 20.839658 26.797622999999998
34.18719 26.795444999999997 26.788275000000002
34.18719 20.841316 20.838444
34.18719 20.847432 14.897718
14.892289 7.5 20.838116
14.898185 7.5 14.89686
20.849216000000002 7.5 14.893958
26.798624999999998 7.5 26.796128
26.7893 7.5 14.897238999999999
20.839472 7.5 20.839758
26.796509 34.18719 20.838775000000002
26.798520999999997 34.18719 26.796326
20.848733 34.18719 14.895903
20.845375 34.18719 26.798939
26.79205 34.18719 14.899011
14.895298 34.18719 20.838226000000002
29.768595 23.818595 11.918595
29.768595 17.868595 23.818595
29.768595 17.868595 17.868595
17.868595 11.918595 23.818595
29.768595 23.818595 23.818595
23.818595 11.918595 29.768595
17.868595 11.918595 17.868595
23.818595 11.918595 11.918595
17.868595 23.818595 11.918595
23.818595 11.918595 23.818595
23.818595 23.818595 11.918595
17.868595 23.818595 29.768595
17.868595 29.768595 23.818595
11.918595 11.918595 17.868595
29.768595 11.918595 23.818595
17.868595 17.868595 11.918595
23.818595 23.818595 29.768595
23.818595 29.768595 23.818595
29.768595 29.768595 23.818595
29.768595 11.918595 17.868595
29.768595 17.868595 29.768595
17.868595 29.768595 29.768595
23.818595 11.918595 17.868595
11.918595 29.768595 23.818595
23.818595 17.868595 29.768595
17.868595 11.918595 29.768595
29.768595 23.818595 29.768595
11.918595 11.918595 23.818595
21.99447 20.693188 29.33084
19.691553 20.992938 29.332915
25.754324999999998 21.360367999999998 29.33084
27.834314 20.327448 29.332915
26.405866 27.88758 29.33084
27.182801 25.699053 29.332915
26.755646000000002 13.733554 29.33084
26.830372999999998 16.054693999999998 29.332915
21.984078 26.578109 29.33084
19.701887 27.008084999999998 29.332915
16.018584 20.558049999999998 29.33084
13.767322 21.128221999999997 29.332915
21.796104 14.230374 12.356349999999999
19.890938 15.558388 12.354275
13.995992 21.579424 12.356349999999999
15.791222 20.106187 12.354275
13.84243 26.301468 12.356349999999999
15.946194 27.285062 12.354275
21.868478 26.248846 12.356349999999999
19.818379 27.339887 12.354275
25.908472 14.1428 12.356349999999999
27.680274999999998 15.64413 12.354275
21.974521 20.582552 12.356349999999999
19.711948 21.106042 12.354275
12.356349999999999 26.748726 19.683801
12.354275 26.839709 22.004361
12.356349999999999 27.785559 14.290981
12.354275 25.801385999999997 15.497769
12.356349999999999 16.027393 21.091863
12.354275 13.758543 20.596287
12.356349999999999 25.752506 27.306693
12.354275 27.835065 26.278965
12.356349999999999 13.89091 15.478197
12.354275 15.896553 14.307438
12.356349999999999 21.875696 14.362648
12.354275 19.81114 15.426079999999999
29.33084 26.349864 15.966087
29.332915 27.238829 13.820622
29.33084 27.366657999999997 21.852919
29.332915 26.221078000000002 19.832789
29.33084 20.655902 25.648210000000002
29.332915 21.030263 27.940181
29.33084 27.450674 27.750352
29.332915 26.136933 25.835316000000002
29.33084 21.976846 21.094348
29.332915 19.709609 20.591444
29.33084 19.690618999999998 15.026941
29.332915 21.997722 14.76133
15.962463 12.356349999999999 21.295986
13.824259 12.354275 20.389696
13.791191 12.356349999999999 15.256693
15.997345 12.354275 14.531323
20.096935000000002 12.356349999999999 15.782209
21.591832999999998 12.354275 14.004976
25.758753000000002 12.356349999999999 27.319179000000002
27.829891 12.354275 26.268625
26.713268 12.356349999999999 13.735716
26.87279 12.354275 16.052574
21.984012 12.356349999999999 20.627759
19.701953 12.354275 21.058435
25.637691 29.33084 20.948576
27.950405 29.332915 20.737320999999998
26.645253 29.33084 25.642452000000002
26.943262999999998 29.332915 27.945595
20.599205 29.33084 13.758954
21.089378 29.332915 16.028978
21.513164 29.33084 25.845537
20.174424000000002 29.332915 27.743181
27.881268000000002 29.33084 14.488496999999999
25.705388 29.332915 15.300177999999999
13.794534 29.33084 21.216691
15.993233 29.332915 20.469029
14.893595 14.893595 14.893595
14.893595 14.893595 20.843595
14.893595 14.893595 26.793595
14.893595 20.843595 14.893595
14.893595 20.843595 20.843595
14.893595 20.843595 26.793595
14.893595 26.793595 14.893595
14.893595 26.793595 20.843595
14.893595 26.793595 26.793595
20.843595 14.893595 14.893595
20.843595 14.893595 20.843595
20.843595 14.893595 26.793595
20.843595 20.843595 14.893595
20.843595 20.843595 20.843595
20.843595 20.843595 26.793595
20.843595 26.793595 14.893595
20.843595 26.793595 20.843595
20.843595 26.793595 26.793595
26.793595 14.893595 14.893595
26.793595 14.893595 20.843595
26.793595 14.893595 26.793595
26.793595 20.843595 14.893595
26.793595 20.843595 20.843595
26.793595 20.843595 26.793595
26.793595 26.793595 14.893595
26.793595 26.793595 20.843595
26.793595 26.793595 26.793595
