3_train/274_cspbbr3_MA-Cys_3_0.20\274_cspbbr3_MA-Cys_3_0.20.xyz
1.0
41.446326 0 0
0 41.446326 0
0 0 41.446326
Br C Cs H N O Pb S 
96 46 44 144 22 24 27 12 
Cartesian
14.773162999999998 14.773162999999998 11.798162999999999
14.773162999999998 11.798162999999999 14.773162999999998
11.798162999999999 14.773162999999998 14.773162999999998
14.773162999999998 14.773162999999998 17.748162999999998
14.773162999999998 11.798162999999999 20.723163
11.798162999999999 14.773162999999998 20.723163
14.773162999999998 14.773162999999998 23.698162999999997
14.773162999999998 11.798162999999999 26.673163
14.773162999999998 20.723163 11.798162999999999
14.773162999999998 17.748162999999998 14.773162999999998
11.798162999999999 20.723163 14.773162999999998
14.773162999999998 20.723163 17.748162999999998
14.773162999999998 17.748162999999998 20.723163
11.798162999999999 20.723163 20.723163
14.773162999999998 20.723163 23.698162999999997
14.773162999999998 17.748162999999998 26.673163
14.773162999999998 20.723163 29.648163
14.773162999999998 23.698162999999997 14.773162999999998
11.798162999999999 26.673163 14.773162999999998
14.773162999999998 26.673163 17.748162999999998
14.773162999999998 23.698162999999997 20.723163
11.798162999999999 26.673163 20.723163
14.773162999999998 26.673163 23.698162999999997
14.773162999999998 23.698162999999997 26.673163
11.798162999999999 26.673163 26.673163
14.773162999999998 26.673163 29.648163
14.773162999999998 29.648163 14.773162999999998
14.773162999999998 29.648163 20.723163
14.773162999999998 29.648163 26.673163
20.723163 14.773162999999998 11.798162999999999
20.723163 11.798162999999999 14.773162999999998
17.748162999999998 14.773162999999998 14.773162999999998
20.723163 14.773162999999998 17.748162999999998
17.748162999999998 14.773162999999998 20.723163
20.723163 14.773162999999998 23.698162999999997
20.723163 11.798162999999999 26.673163
17.748162999999998 14.773162999999998 26.673163
20.723163 14.773162999999998 29.648163
20.723163 20.723163 11.798162999999999
20.723163 17.748162999999998 14.773162999999998
17.748162999999998 20.723163 14.773162999999998
20.723163 20.723163 17.748162999999998
20.723163 17.748162999999998 20.723163
17.748162999999998 20.723163 20.723163
20.723163 20.723163 23.698162999999997
20.723163 17.748162999999998 26.673163
17.748162999999998 20.723163 26.673163
20.723163 26.673163 11.798162999999999
20.723163 23.698162999999997 14.773162999999998
17.748162999999998 26.673163 14.773162999999998
20.723163 26.673163 17.748162999999998
20.723163 23.698162999999997 20.723163
17.748162999999998 26.673163 20.723163
20.723163 26.673163 23.698162999999997
20.723163 23.698162999999997 26.673163
17.748162999999998 26.673163 26.673163
20.723163 26.673163 29.648163
20.723163 29.648163 20.723163
20.723163 29.648163 26.673163
26.673163 14.773162999999998 11.798162999999999
26.673163 11.798162999999999 14.773162999999998
23.698162999999997 14.773162999999998 14.773162999999998
26.673163 14.773162999999998 17.748162999999998
26.673163 11.798162999999999 20.723163
23.698162999999997 14.773162999999998 20.723163
26.673163 14.773162999999998 23.698162999999997
23.698162999999997 14.773162999999998 26.673163
26.673163 14.773162999999998 29.648163
26.673163 17.748162999999998 14.773162999999998
23.698162999999997 20.723163 14.773162999999998
26.673163 20.723163 17.748162999999998
26.673163 17.748162999999998 20.723163
23.698162999999997 20.723163 20.723163
26.673163 20.723163 23.698162999999997
26.673163 17.748162999999998 26.673163
23.698162999999997 20.723163 26.673163
26.673163 20.723163 29.648163
26.673163 26.673163 11.798162999999999
26.673163 23.698162999999997 14.773162999999998
23.698162999999997 26.673163 14.773162999999998
26.673163 26.673163 17.748162999999998
26.673163 23.698162999999997 20.723163
23.698162999999997 26.673163 20.723163
26.673163 26.673163 23.698162999999997
26.673163 23.698162999999997 26.673163
23.698162999999997 26.673163 26.673163
26.673163 26.673163 29.648163
26.673163 29.648163 14.773162999999998
26.673163 29.648163 26.673163
29.648163 14.773162999999998 14.773162999999998
29.648163 20.723163 14.773162999999998
29.648163 20.723163 20.723163
29.648163 20.723163 26.673163
29.648163 26.673163 14.773162999999998
29.648163 26.673163 20.723163
29.648163 26.673163 26.673163
20.723163 20.723163 32.095738999999995
20.401270999999998 20.19791 30.699783999999998
21.840882999999998 21.772812 32.027452999999994
14.773162999999998 14.773162999999998 32.095738999999995
14.451270999999998 14.24791 30.699783999999998
15.890882999999999 15.822811999999999 32.027452999999994
14.773162999999998 26.673163 9.350586999999999
15.095054999999999 26.14791 10.746541999999998
13.655442999999998 27.722812 9.418872999999998
26.673163 20.723163 9.350586999999999
26.995054999999997 20.19791 10.746541999999998
25.555443 21.772812 9.418872999999998
9.350586999999999 20.723163 26.673163
10.746541999999998 20.19791 26.351271
9.418872999999998 21.772812 27.790882999999997
9.350586999999999 14.773162999999998 26.673163
10.746541999999998 14.24791 26.351271
9.418872999999998 15.822811999999999 27.790882999999997
32.095738999999995 14.773162999999998 20.723163
30.699783999999998 14.24791 21.045055
32.027452999999994 15.822811999999999 19.605443
32.095738999999995 14.773162999999998 26.673163
30.699783999999998 14.24791 26.995054999999997
32.027452999999994 15.822811999999999 25.555443
26.673163 9.350586999999999 26.673163
26.351271 10.746541999999998 26.14791
27.790882999999997 9.418872999999998 27.722812
20.723163 9.350586999999999 20.723163
20.401270999999998 10.746541999999998 20.19791
21.840882999999998 9.418872999999998 21.772812
26.673163 32.095738999999995 20.723163
26.351271 30.699783999999998 21.248416
27.790882999999997 32.027452999999994 19.673513999999997
20.723163 32.095738999999995 14.773162999999998
20.401270999999998 30.699783999999998 15.298416
21.840882999999998 32.027452999999994 13.723513999999998
23.698162999999997 10.754712999999999 30.691613
17.748162999999998 10.754712999999999 30.691613
23.698162999999997 30.691613 10.754712999999999
23.698162999999997 30.691613 30.691613
23.698162999999997 10.754712999999999 10.754712999999999
17.748162999999998 23.698162999999997 31.123824
10.754712999999999 30.691613 23.698162999999997
30.691613 17.748162999999998 10.754712999999999
31.123824 17.748162999999998 23.698162999999997
17.748162999999998 31.123824 23.698162999999997
11.798162999999999 11.798162999999999 17.748162999999998
11.798162999999999 11.798162999999999 23.698162999999997
11.798162999999999 17.748162999999998 11.798162999999999
11.798162999999999 17.748162999999998 17.748162999999998
11.798162999999999 17.748162999999998 23.698162999999997
11.798162999999999 17.748162999999998 29.648163
11.798162999999999 23.698162999999997 11.798162999999999
11.798162999999999 23.698162999999997 17.748162999999998
11.798162999999999 23.698162999999997 23.698162999999997
17.748162999999998 11.798162999999999 11.798162999999999
17.748162999999998 11.798162999999999 17.748162999999998
17.748162999999998 11.798162999999999 23.698162999999997
17.748162999999998 17.748162999999998 11.798162999999999
17.748162999999998 17.748162999999998 17.748162999999998
17.748162999999998 17.748162999999998 23.698162999999997
17.748162999999998 17.748162999999998 29.648163
17.748162999999998 23.698162999999997 11.798162999999999
17.748162999999998 23.698162999999997 17.748162999999998
17.748162999999998 23.698162999999997 23.698162999999997
17.748162999999998 29.648163 11.798162999999999
17.748162999999998 29.648163 17.748162999999998
17.748162999999998 29.648163 29.648163
23.698162999999997 11.798162999999999 17.748162999999998
23.698162999999997 11.798162999999999 23.698162999999997
23.698162999999997 17.748162999999998 11.798162999999999
23.698162999999997 17.748162999999998 17.748162999999998
23.698162999999997 17.748162999999998 23.698162999999997
23.698162999999997 17.748162999999998 29.648163
23.698162999999997 23.698162999999997 11.798162999999999
23.698162999999997 23.698162999999997 17.748162999999998
23.698162999999997 23.698162999999997 23.698162999999997
23.698162999999997 23.698162999999997 29.648163
23.698162999999997 29.648163 17.748162999999998
23.698162999999997 29.648163 23.698162999999997
29.648163 11.798162999999999 17.748162999999998
29.648163 11.798162999999999 23.698162999999997
29.648163 17.748162999999998 17.748162999999998
29.648163 17.748162999999998 29.648163
29.648163 23.698162999999997 11.798162999999999
29.648163 23.698162999999997 17.748162999999998
29.648163 23.698162999999997 23.698162999999997
29.648163 23.698162999999997 29.648163
29.648163 29.648163 17.748162999999998
29.648163 29.648163 23.698162999999997
19.792383 21.229888 32.431766999999994
19.502648999999998 18.777349 29.822336999999997
20.5147 18.821521999999998 32.870585
21.118101 19.919373 33.946326
22.68405 21.36713 31.453007
22.20039 21.981925 33.042665
21.284231 24.067429 32.411152
13.842382999999998 15.279888 32.431766999999994
13.552648999999999 12.827348999999998 29.822336999999997
14.564699999999998 12.871521999999999 32.870585
15.168100999999998 13.969373 33.946326
16.73405 15.417129999999998 31.453007
16.25039 16.031924999999998 33.042665
15.334230999999999 18.117428999999998 32.411152
15.703942999999999 27.179888 9.014558999999998
15.993676999999998 24.727349 11.623988999999998
14.981625999999999 24.771522 8.575740999999999
14.378224999999999 25.869373 7.499999999999999
12.812275999999999 27.31713 9.993319
13.295936 27.931925 8.403661
14.212094999999998 30.017429 9.035173999999998
27.603942999999997 21.229888 9.014558999999998
27.893677 18.777349 11.623988999999998
26.881626 18.821521999999998 8.575740999999999
26.278225 19.919373 7.499999999999999
24.712276 21.36713 9.993319
25.195936 21.981925 8.403661
26.112095 24.067429 9.035173999999998
9.014558999999998 21.229888 25.742383
11.623988999999998 18.777349 25.452648999999997
8.575740999999999 18.821521999999998 26.464699999999997
7.499999999999999 19.919373 27.068101
9.993319 21.36713 28.63405
8.403661 21.981925 28.150389999999998
9.035173999999998 24.067429 27.234230999999998
9.014558999999998 15.279888 25.742383
11.623988999999998 12.827348999999998 25.452648999999997
8.575740999999999 12.871521999999999 26.464699999999997
7.499999999999999 13.969373 27.068101
9.993319 15.417129999999998 28.63405
8.403661 16.031924999999998 28.150389999999998
9.035173999999998 18.117428999999998 27.234230999999998
32.431766999999994 15.279888 21.653942999999998
29.822336999999997 12.827348999999998 21.943676999999997
32.870585 12.871521999999999 20.931625999999998
33.946326 13.969373 20.328225
31.453007 15.417129999999998 18.762276
33.042665 16.031924999999998 19.245936
32.411152 18.117428999999998 20.162095
32.431766999999994 15.279888 27.603942999999997
29.822336999999997 12.827348999999998 27.893677
32.870585 12.871521999999999 26.881626
33.946326 13.969373 26.278225
31.453007 15.417129999999998 24.712276
33.042665 16.031924999999998 25.195936
32.411152 18.117428999999998 26.112095
25.742383 9.014558999999998 27.179888
25.452648999999997 11.623988999999998 24.727349
26.464699999999997 8.575740999999999 24.771522
27.068101 7.499999999999999 25.869373
28.63405 9.993319 27.31713
28.150389999999998 8.403661 27.931925
27.234230999999998 9.035173999999998 30.017429
19.792383 9.014558999999998 21.229888
19.502648999999998 11.623988999999998 18.777349
20.5147 8.575740999999999 18.821521999999998
21.118101 7.499999999999999 19.919373
22.68405 9.993319 21.36713
22.20039 8.403661 21.981925
21.284231 9.035173999999998 24.067429
25.742383 32.431766999999994 20.216437999999997
25.452648999999997 29.822336999999997 22.668976999999998
26.464699999999997 32.870585 22.624804
27.068101 33.946326 21.526953
28.63405 31.453007 20.079196
28.150389999999998 33.042665 19.464401
27.234230999999998 32.411152 17.378897
19.792383 32.431766999999994 14.266437999999999
19.502648999999998 29.822336999999997 16.718977
20.5147 32.870585 16.674803999999998
21.118101 33.946326 15.576953
22.68405 31.453007 14.129195999999999
22.20039 33.042665 13.514401
21.284231 32.411152 11.428897
23.302612999999997 9.839012999999998 30.248148
24.728253 10.616162999999998 31.025298
23.063622 11.10061 31.509746
24.062704 12.689452999999999 30.009487
22.748825999999998 11.973226999999998 29.293260999999998
24.282958999999998 11.526758 28.846791999999997
17.352612999999998 9.839012999999998 30.248148
18.778253 10.616162999999998 31.025298
17.113622 11.10061 31.509746
18.112704 12.689452999999999 30.009487
16.798826 11.973226999999998 29.293260999999998
18.332959 11.526758 28.846791999999997
23.302612999999997 31.607312999999998 11.198177999999999
24.728253 30.830163 10.421028
23.063622 30.345716 9.93658
24.062704 28.756873 11.436838999999999
22.748825999999998 29.473098999999998 12.153064999999998
24.282958999999998 29.919567999999998 12.599533999999998
23.302612999999997 30.248148 31.607312999999998
24.728253 31.025298 30.830163
23.063622 31.509746 30.345716
24.062704 30.009487 28.756873
22.748825999999998 29.293260999999998 29.473098999999998
24.282958999999998 28.846791999999997 29.919567999999998
23.302612999999997 11.198177999999999 9.839012999999998
24.728253 10.421028 10.616162999999998
23.063622 9.93658 11.10061
24.062704 11.436838999999999 12.689452999999999
22.748825999999998 12.153064999999998 11.973226999999998
24.282958999999998 12.599533999999998 11.526758
17.352612999999998 22.737087999999996 31.457745
18.778253 23.836144 31.457745
17.113622 24.521257 31.457745
18.112704 24.583895 29.273421
16.798826 23.570998999999997 29.273421
18.332959 22.939595999999998 29.273421
9.840283 30.249418 24.098049999999997
11.102630999999999 31.511765999999998 24.328979
10.612872 31.022007 22.66746
12.688282 30.008316999999998 23.329624999999997
11.524894999999999 28.844929999999998 23.1168
11.97626 29.296294999999997 24.648063999999998
31.207427 16.787087999999997 10.798290999999999
30.199347 17.886143999999998 9.790211999999999
31.376419 18.571257 10.967282999999998
29.125411 18.633895 11.805377
30.054463 17.620998999999998 12.734428
28.969666999999998 16.989596 11.649632999999998
31.457745 16.787087999999997 24.093712999999997
31.457745 17.886143999999998 22.668073
31.457745 18.571257 24.332704
29.273421 18.633895 23.333622
29.273421 17.620998999999998 24.647499999999997
29.273421 16.989596 23.113367
17.352612999999998 31.457745 24.659238
18.778253 31.457745 23.560182
17.113622 31.457745 22.875069
18.112704 29.273421 22.812431
16.798826 29.273421 23.825326999999998
18.332959 29.273421 24.456729999999997
21.14482 19.621173 32.968818999999996
15.194819999999998 13.671173 32.968818999999996
14.351505999999999 25.571172999999998 8.477507
26.251506 19.621173 8.477507
8.477507 19.621173 27.09482
8.477507 13.671173 27.09482
32.968818999999996 13.671173 20.301506
32.968818999999996 13.671173 26.251506
27.09482 8.477507 25.571172999999998
21.14482 8.477507 19.621173
27.09482 32.968818999999996 21.825152999999997
21.14482 32.968818999999996 15.875153
23.698162999999997 11.798162999999999 29.648163
17.748162999999998 11.798162999999999 29.648163
23.698162999999997 29.648163 11.798162999999999
23.698162999999997 29.648163 29.648163
23.698162999999997 11.798162999999999 11.798162999999999
17.748162999999998 23.698162999999997 29.648163
11.798162999999999 29.648163 23.698162999999997
29.648163 17.748162999999998 11.798162999999999
29.648163 17.748162999999998 23.698162999999997
17.748162999999998 29.648163 23.698162999999997
19.663116 19.048915 30.752008999999997
20.723163 20.723163 29.648163
13.713116 13.098914999999998 30.752008999999997
14.773162999999998 14.773162999999998 29.648163
15.833209999999998 24.998915 10.694316999999998
14.773162999999998 26.673163 11.798162999999999
27.73321 19.048915 10.694316999999998
26.673163 20.723163 11.798162999999999
10.694316999999998 19.048915 25.613115999999998
11.798162999999999 20.723163 26.673163
10.694316999999998 13.098914999999998 25.613115999999998
11.798162999999999 14.773162999999998 26.673163
30.752008999999997 13.098914999999998 21.78321
29.648163 14.773162999999998 20.723163
30.752008999999997 13.098914999999998 27.73321
29.648163 14.773162999999998 26.673163
25.613115999999998 10.694316999999998 24.998915
26.673163 11.798162999999999 26.673163
19.663116 10.694316999999998 19.048915
20.723163 11.798162999999999 20.723163
25.613115999999998 30.752008999999997 22.397410999999998
26.673163 29.648163 20.723163
19.663116 30.752008999999997 16.447411
20.723163 29.648163 14.773162999999998
14.773162999999998 14.773162999999998 14.773162999999998
14.773162999999998 14.773162999999998 20.723163
14.773162999999998 14.773162999999998 26.673163
14.773162999999998 20.723163 14.773162999999998
14.773162999999998 20.723163 20.723163
14.773162999999998 20.723163 26.673163
14.773162999999998 26.673163 14.773162999999998
14.773162999999998 26.673163 20.723163
14.773162999999998 26.673163 26.673163
20.723163 14.773162999999998 14.773162999999998
20.723163 14.773162999999998 20.723163
20.723163 14.773162999999998 26.673163
20.723163 20.723163 14.773162999999998
20.723163 20.723163 20.723163
20.723163 20.723163 26.673163
20.723163 26.673163 14.773162999999998
20.723163 26.673163 20.723163
20.723163 26.673163 26.673163
26.673163 14.773162999999998 14.773162999999998
26.673163 14.773162999999998 20.723163
26.673163 14.773162999999998 26.673163
26.673163 20.723163 14.773162999999998
26.673163 20.723163 20.723163
26.673163 20.723163 26.673163
26.673163 26.673163 14.773162999999998
26.673163 26.673163 20.723163
26.673163 26.673163 26.673163
21.342367999999997 23.357370999999997 31.264955
15.392368 17.407370999999998 31.264955
14.153958 29.307371 10.181370999999999
26.053957999999998 23.357370999999997 10.181370999999999
10.181370999999999 23.357370999999997 27.292368
10.181370999999999 17.407370999999998 27.292368
31.264955 17.407370999999998 20.103958
31.264955 17.407370999999998 26.053957999999998
27.292368 10.181370999999999 29.307371
21.342367999999997 10.181370999999999 23.357370999999997
27.292368 31.264955 18.088955
21.342367999999997 31.264955 12.138955
