1_train/6_cspbbr3_methylammonium_3_0.20\6_cspbbr3_methylammonium_3_0.20.xyz
1.0
41.894254000000004 0 0
0 41.894254000000004 0
0 0 41.894254000000004
Br C Cs H N Pb 
108 10 44 60 10 27 
Cartesian
11.864023999999999 20.745049 21.092537999999998
12.036522999999999 15.164387 21.101979999999998
24.015516999999996 15.149007 15.100378
26.861748999999996 12.186086999999999 15.203671
27.020818 14.812486999999999 12.222607
26.888627 27.040382 29.717889
21.183906 29.772092999999998 26.854476
26.984262 29.679752999999998 14.859854
20.99993 29.799137 20.696762
26.677374 30.049816999999997 21.022495
20.885135999999996 30.008055999999996 15.161629
20.764837 26.792786999999997 29.885053
18.117275999999997 26.805014999999997 27.047348999999997
27.108157 14.912009 17.827576
20.828362 23.755209999999998 27.068191
20.812517 27.071596999999997 23.860813999999998
17.76083 27.050188999999996 21.092599999999997
20.923971 24.094082 21.104222999999998
20.920786999999997 26.781402999999997 17.781143
15.169867 14.819833999999998 24.017182
29.745418 15.048119 14.8652
17.817338999999997 26.887309000000002 14.830276
20.744116999999996 23.982684999999996 15.168529999999999
20.935662 27.128009999999996 12.165026999999998
27.040109 30.028754 26.926235
27.080821 12.106688 20.93258
24.119825 26.935041999999996 26.772894
14.929941 11.974772 26.692869
23.733823 26.719769 15.067836999999999
26.801663999999995 23.787171999999998 14.879831
27.035119 27.066975 12.002322
12.290424999999999 15.080712 14.984333
15.062603 18.175404999999998 21.084264999999995
26.851605 20.820788999999998 29.619352
26.779691999999997 24.191746000000002 20.904302
23.941997999999998 20.730824999999996 26.71976
27.071684999999995 17.984969999999997 26.796892
27.031948999999997 21.162602999999997 23.926034
23.834672999999995 27.010650999999996 20.758193
24.143876 20.894576 20.963788
24.002643999999997 15.225456999999999 20.829833999999998
27.022956999999998 17.726126 20.90771
15.123574999999999 15.224153 12.055404
24.04922 20.977846999999997 14.850159
27.111246 18.018109 14.849094
27.020666 21.086216999999998 12.002536999999998
15.070500999999998 14.830972999999998 18.063049
26.809784 26.642106999999996 24.031683
26.918836999999996 15.144832 29.698993
27.050362 23.870092999999997 26.783398
23.712131999999997 14.914921 26.764001
26.924402999999998 12.190356 26.793191
26.777817 14.833825 23.762277999999995
15.08579 12.208476 20.987054
26.760895999999995 20.845287999999996 18.044803
26.785545 26.758141000000002 18.207254
15.002713 11.837416 15.0314
29.76406 14.783356 20.97829
20.825806 12.178939999999999 15.094657999999999
20.754376 20.829780999999997 29.999651
14.957692999999999 17.764316 14.811635999999998
15.213265 29.991318999999997 26.950190999999997
14.755887 29.811565 20.917656
29.925786000000002 27.02187 15.135738
15.089727 29.641332 14.904829
15.188946 26.873171999999997 29.805272000000002
12.160003999999999 27.089669999999998 26.866084
15.041818 24.059101 26.782055
14.886387 26.975225000000002 23.751553
11.902763 21.183906 14.896647
29.701738 26.896844 20.768285
11.923663999999999 27.077101999999996 21.082167
14.870409 23.83057 20.786508999999995
14.856919999999999 27.041472999999996 18.165928
29.933653999999997 26.693038 26.897765
12.097157999999999 26.720861999999997 15.033961
15.144459999999999 23.856203 15.184797
14.85919 26.798507999999998 12.149507999999999
15.105317 21.112451999999998 29.683728000000002
12.176860999999999 20.836880999999998 26.964337999999998
14.882254999999999 17.977621999999997 27.145814
15.12746 21.063983 23.739517
15.098602999999999 21.046110999999996 18.091011
17.765271 14.934481 14.876837
30.043295999999998 21.143051 26.899676
20.822305 14.794815 12.192739
21.149107 15.111842 18.11806
14.908641999999999 14.823428 29.68524
18.043141999999996 20.799240999999995 21.121817999999998
29.745433 15.120332 26.952278
17.889688999999997 21.016869999999997 14.740929
21.057274999999997 17.835501 15.043944999999999
14.789751999999998 20.985303000000002 12.148841
21.103665 20.755142 12.009903999999999
29.823892999999998 20.892415 15.176408
29.747695 21.05133 21.041081
20.901553999999997 20.73388 18.092266000000002
12.164852 14.873776999999999 26.751588999999996
20.736846 20.906056999999997 23.893406999999996
18.053737999999996 14.890476 27.024040999999997
20.957684 11.914776999999999 26.664887999999998
21.000172 17.788069999999998 26.861027999999997
21.097654999999996 14.899911999999999 23.893949
18.092453 20.78163 26.957015999999996
17.925928 14.785936 20.947099
20.913067999999996 12.051013 20.750496999999996
20.88704 15.175298 29.873736
21.026142 17.955725 21.208458999999998
30.911789 10.982522999999999 23.831596999999995
23.843437 23.950705999999997 31.282704000000003
17.900806 10.593 23.858325999999998
23.867900999999996 31.403146999999997 17.945872
11.031028 23.877176999999996 11.004531
11.005958 11.040014999999999 17.901466
10.555258 23.978932 17.912425999999996
31.359544999999997 17.901449 17.955637
17.99725 30.931350000000002 30.845013
30.865806 30.903261 23.850252999999995
29.476241 23.767916999999997 30.058104999999998
30.186163 29.759577 18.237026
23.824109999999997 23.61235 23.550281
29.646012 18.279493000000002 11.827789
23.354096 29.95115 23.901688999999998
29.682840999999996 24.325454 18.161149
29.786699 17.497785999999998 24.112068
30.069567 23.736666 12.561338
30.221578 17.974227 30.159684
24.161155 29.783313999999997 12.356883
23.688587999999996 30.422185999999996 29.778930000000003
29.427784000000003 12.091695 18.210980999999997
24.072303999999995 23.652293 12.542995
24.383195 17.813637999999997 29.518392
24.295398999999996 23.652969 17.693353000000002
11.769518999999999 18.087919 23.676724999999998
12.323822999999999 17.789966 30.248382999999997
11.90735 18.199297 17.629406
11.739545999999999 23.714866999999998 23.734341999999998
12.170618 24.328005999999995 30.015557
12.119242 30.247127999999996 17.823732
12.500499 30.065303 24.121314999999996
17.85029 12.564589999999999 11.813189999999999
17.798237 12.110719999999999 17.65491
17.706106 12.295313 30.067568
18.20794 18.211652 11.752424
18.140999 18.300334 17.816096
17.530507 18.373776999999997 23.960218999999995
18.224171 17.928303 30.213279999999997
12.363945 17.921608 12.314933
18.289571000000002 24.020713 17.792267
23.672447999999996 18.205393 24.173347999999997
23.469951000000002 18.210391 17.694992
23.585811 18.431633999999995 12.215344
18.288458 24.24543 11.753499999999999
23.700967999999996 12.246272999999999 24.227204
11.868466 11.813562999999998 24.200789999999998
23.464582 12.361640999999999 29.781450999999997
17.971341 30.274413000000003 23.957675000000002
17.914679999999997 30.260759999999998 17.792993
18.071230999999997 30.138917999999997 11.61132
18.205228999999996 23.694606999999998 29.595176000000002
17.933659 23.593269999999997 24.388681999999996
24.364488 12.16866 11.875440999999999
11.576792 23.815584 12.947251
12.552133999999999 24.781985999999996 11.989904999999998
23.38828 31.642203000000002 17.061424000000002
10.336017 24.755741999999998 11.161444
10.477983 22.986559999999997 11.056239
11.48198 24.076558 9.995190999999998
30.41894 31.872303000000002 23.681581
12.686352 23.191468999999998 11.885235
23.436864999999997 31.656751999999997 18.886603
24.382455999999998 29.478986999999996 17.172710000000002
24.385633999999996 29.475571000000002 18.783654
12.484698999999999 12.058235999999999 17.04735
22.956353999999997 29.517843 18.004278
18.532462000000002 10.213868 23.024930999999995
18.395367 10.203711 24.869957
16.921777 10.183361 23.840266999999997
17.433486000000002 12.435426999999999 24.695350999999995
17.544375000000002 12.368177 23.053148
18.890886000000002 12.406258999999999 23.987828
24.272165 24.778675 29.526130000000002
23.314627 24.726965999999997 31.701436
23.549864999999997 22.948940999999998 31.699545
24.954924999999996 24.060167999999997 31.637780999999997
24.502556999999996 23.188167 29.477888
24.980404999999998 31.702013 17.949101
11.633170999999999 12.924064 18.12648
10.508503 11.017099 18.972647000000002
29.155124999999998 30.017021 24.645393
31.675337 17.815821 19.038848
31.677231 17.203702 17.337912
31.65535 18.959502 17.638247
29.511124000000002 18.160649 17.023814
29.493716999999997 18.748134 18.597192
29.529580000000003 17.069369000000002 18.336897999999998
29.406771999999997 29.799033 23.046439999999997
31.228113 10.774747 24.933409999999995
30.498900999999996 10.11718 23.458131
31.737004999999996 11.333553 23.358601999999998
29.522691000000002 12.233626999999998 22.961070999999997
30.237496 12.870256 24.319184999999997
29.071022999999997 11.722375999999999 24.431261
30.303598 28.921028 24.122132999999998
12.726688 11.828351 18.736939
18.936777999999997 31.435107000000002 30.927587000000003
17.786991 30.460606999999996 31.889445000000002
17.054301000000002 29.384611 29.813905999999996
18.709341000000002 29.155014 30.013598
18.106296 30.29737 28.904687000000003
31.674278 30.65849 23.118401
10.184377999999999 24.696762 17.277127999999998
10.193124 22.927932 17.641211
10.22151 24.093001 19.020322
12.411045999999999 23.182760000000002 18.625507999999996
12.360223 24.813829 18.295986999999997
12.429616 23.753847999999998 17.049596
31.367499000000002 30.935071 24.932961999999996
10.297695 11.193686 17.202002999999998
11.454435 9.988681 17.765952
17.193368 31.612878000000002 30.711694
22.943241999999998 23.813635999999995 29.474491999999998
29.919389000000002 17.923537 18.004874
23.985892999999997 29.904708999999997 17.940325
12.102265 23.907027999999997 11.968776
12.083592 12.072636999999999 17.936481999999998
17.934691 29.862979000000003 29.807750999999996
23.876818999999998 23.919807 29.936366
17.892207 11.959385999999999 23.89983
29.868498000000002 12.076271 23.968345
12.042843999999999 23.971345999999997 17.895027999999996
29.852637 29.962147 23.940323
14.851756 15.302904999999999 15.083255
15.124412 26.746361 21.127702999999997
15.226142 26.991583 26.665861999999997
20.750428999999997 15.082004999999999 14.928061
20.87012 15.159248999999999 21.098385
21.202912999999995 14.877730999999999 27.014936999999996
21.046000999999997 20.682558 15.086860999999999
21.140921999999996 20.772625999999995 20.84478
20.817619 21.17772 26.853971
20.712475999999995 26.799599999999998 15.174489999999999
21.116858 26.739697 21.109848999999997
20.852675999999995 26.715117 27.151122
26.754653999999995 15.062052999999999 15.246716
27.12469 14.8806 20.783550999999996
26.668303 14.784708 26.872109000000002
27.144424 20.790996999999997 15.213118999999999
27.111013 20.719538 26.766081
26.845861 27.154361 15.093179999999998
27.233381 26.894075 21.032497
26.839864 26.596784 27.044157999999996
15.027339999999999 27.044315999999995 15.167216
15.099744 21.215711999999996 26.747940999999997
26.983331 21.19054 21.162286
14.836754999999998 21.142994 14.790901
14.744425999999999 20.775649 20.843371999999995
15.201134 15.183758 27.008212999999998
15.05669 15.224018 20.982459
