3_train/242_cspbbr3_MA-DBS_3_0.40\242_cspbbr3_MA-DBS_3_0.40.xyz
1.0
70.75849 0 0
0 70.75849 0
0 0 70.75849
Br C Cs H N O Pb S 
84 451 35 810 19 72 27 24 
Cartesian
29.429245 29.429245 26.454245
26.454245 29.429245 29.429245
29.429245 29.429245 32.404245
29.429245 29.429245 38.354245
29.429245 26.454245 41.329245
29.429245 35.379245 26.454245
29.429245 32.404245 29.429245
26.454245 35.379245 29.429245
29.429245 35.379245 32.404245
29.429245 32.404245 35.379245
29.429245 35.379245 38.354245
29.429245 32.404245 41.329245
26.454245 35.379245 41.329245
29.429245 35.379245 44.304245
29.429245 41.329245 26.454245
29.429245 38.354245 29.429245
26.454245 41.329245 29.429245
29.429245 41.329245 32.404245
29.429245 38.354245 35.379245
26.454245 41.329245 35.379245
29.429245 41.329245 38.354245
29.429245 38.354245 41.329245
29.429245 41.329245 44.304245
29.429245 44.304245 29.429245
29.429245 44.304245 41.329245
32.404245 29.429245 29.429245
35.379245 29.429245 32.404245
35.379245 26.454245 35.379245
32.404245 29.429245 35.379245
35.379245 29.429245 38.354245
35.379245 26.454245 41.329245
32.404245 29.429245 41.329245
35.379245 35.379245 26.454245
35.379245 32.404245 29.429245
32.404245 35.379245 29.429245
35.379245 35.379245 32.404245
35.379245 32.404245 35.379245
32.404245 35.379245 35.379245
35.379245 35.379245 38.354245
35.379245 32.404245 41.329245
32.404245 35.379245 41.329245
35.379245 35.379245 44.304245
35.379245 38.354245 29.429245
32.404245 41.329245 29.429245
35.379245 41.329245 32.404245
35.379245 38.354245 35.379245
32.404245 41.329245 35.379245
35.379245 41.329245 38.354245
35.379245 38.354245 41.329245
32.404245 41.329245 41.329245
35.379245 44.304245 29.429245
38.354245 29.429245 29.429245
41.329245 29.429245 32.404245
41.329245 26.454245 35.379245
38.354245 29.429245 35.379245
41.329245 29.429245 38.354245
41.329245 26.454245 41.329245
38.354245 29.429245 41.329245
41.329245 29.429245 44.304245
41.329245 32.404245 29.429245
38.354245 35.379245 29.429245
41.329245 35.379245 32.404245
41.329245 32.404245 35.379245
38.354245 35.379245 35.379245
41.329245 35.379245 38.354245
41.329245 32.404245 41.329245
38.354245 35.379245 41.329245
41.329245 35.379245 44.304245
41.329245 41.329245 26.454245
41.329245 38.354245 29.429245
38.354245 41.329245 29.429245
41.329245 41.329245 32.404245
41.329245 38.354245 35.379245
38.354245 41.329245 35.379245
41.329245 41.329245 38.354245
41.329245 38.354245 41.329245
38.354245 41.329245 41.329245
41.329245 44.304245 29.429245
41.329245 44.304245 35.379245
44.304245 29.429245 41.329245
44.304245 35.379245 29.429245
44.304245 35.379245 35.379245
44.304245 41.329245 29.429245
44.304245 41.329245 41.329245
46.914055000000005 40.159591 56.051744
45.592914 40.708394 55.483425
47.013082 40.542712 57.539773
45.493790000000004 40.387438 53.980749
48.36576 40.077402 58.109010999999995
44.205089 41.019102000000004 53.423172
48.467983000000004 40.511513 59.582458
44.091139999999996 40.735696000000004 51.914291
49.841255000000004 40.103684 60.146342
42.818743999999995 41.412978 51.374158
49.94583 40.562018 61.613032
42.684394 41.111908 49.870318999999995
51.327715999999995 40.177507 62.173149
43.736982 40.237558 49.164547999999996
41.492668 41.676446 49.074794
43.573031 39.890328 47.673107
41.329245 41.329245 47.583577000000005
42.35103 40.408315 46.891931
40.964055 40.159591 56.051744
39.642914000000005 40.708394 55.483425
41.063082 40.542712 57.539773
39.54379 40.387438 53.980749
42.41576 40.077402 58.109010999999995
38.255089 41.019102000000004 53.423172
42.517983 40.511513 59.582458
38.14114 40.735696000000004 51.914291
43.891255 40.103684 60.146342
36.868744 41.412978 51.374158
43.99583 40.562018 61.613032
36.734394 41.111908 49.870318999999995
45.377716 40.177507 62.173149
37.786982 40.237558 49.164547999999996
35.542668 41.676446 49.074794
37.623031 39.890328 47.673107
35.379245 41.329245 47.583577000000005
36.40103 40.408315 46.891931
40.964055 28.259591 56.051744
39.642914000000005 28.808394 55.483425
41.063082 28.642712 57.539773
39.54379 28.487438 53.980749
42.41576 28.177402 58.109010999999995
38.255089 29.119101999999998 53.423172
42.517983 28.611513000000002 59.582458
38.14114 28.835696 51.914291
43.891255 28.203684000000003 60.146342
36.868744 29.512978 51.374158
43.99583 28.662018 61.613032
36.734394 29.211908 49.870318999999995
45.377716 28.277507 62.173149
37.786982 28.337558 49.164547999999996
35.542668 29.776446 49.074794
37.623031 27.990327999999998 47.673107
35.379245 29.429245 47.583577000000005
36.40103 28.508315 46.891931
35.014055 28.259591 56.051744
33.692914 28.808394 55.483425
35.113082 28.642712 57.539773
33.59379 28.487438 53.980749
36.46576 28.177402 58.109010999999995
32.305089 29.119101999999998 53.423172
36.567983 28.611513000000002 59.582458
32.191140000000004 28.835696 51.914291
37.941255 28.203684000000003 60.146342
30.918744 29.512978 51.374158
38.04583 28.662018 61.613032
30.784394 29.211908 49.870318999999995
39.427716000000004 28.277507 62.173149
31.836982 28.337558 49.164547999999996
29.592668 29.776446 49.074794
31.673031 27.990327999999998 47.673107
29.429245 29.429245 47.583577000000005
30.45103 28.508315 46.891931
29.794435 28.259591 14.706746
31.115576 28.808394 15.275065
29.695408 28.642712 13.218717
31.2147 28.487438 16.777741
28.34273 28.177402 12.649479
32.503401 29.119101999999998 17.335318
28.240507 28.611513000000002 11.176032000000001
32.61735 28.835696 18.844199
26.867235 28.203684000000003 10.612148
33.889746 29.512978 19.384332
26.76266 28.662018 9.145458000000001
34.024096 29.211908 20.888171
25.380774000000002 28.277507 8.585341
32.971508 28.337558 21.593942
35.215822 29.776446 21.683696
33.135459 27.990327999999998 23.085383
35.379245 29.429245 23.174913
34.35746 28.508315 23.866559000000002
35.744435 34.209591 14.706746
37.065576 34.758394 15.275065
35.645408 34.592712 13.218717
37.164699999999996 34.437438 16.777741
34.29273 34.127402000000004 12.649479
38.453401 35.069102 17.335318
34.190507 34.561513 11.176032000000001
38.56735 34.785696 18.844199
32.817235 34.153684 10.612148
39.839746 35.462978 19.384332
32.71266 34.612018 9.145458000000001
39.974096 35.161908 20.888171
31.330773999999998 34.227507 8.585341
38.921508 34.287558000000004 21.593942
41.165822 35.726446 21.683696
39.085459 33.940328 23.085383
41.329245 35.379245 23.174913
40.30746 34.458315 23.866559000000002
35.744435 28.259591 14.706746
37.065576 28.808394 15.275065
35.645408 28.642712 13.218717
37.164699999999996 28.487438 16.777741
34.29273 28.177402 12.649479
38.453401 29.119101999999998 17.335318
34.190507 28.611513000000002 11.176032000000001
38.56735 28.835696 18.844199
32.817235 28.203684000000003 10.612148
39.839746 29.512978 19.384332
32.71266 28.662018 9.145458000000001
39.974096 29.211908 20.888171
31.330773999999998 28.277507 8.585341
38.921508 28.337558 21.593942
41.165822 29.776446 21.683696
39.085459 27.990327999999998 23.085383
41.329245 29.429245 23.174913
40.30746 28.508315 23.866559000000002
29.794435 40.159591 14.706746
31.115576 40.708394 15.275065
29.695408 40.542712 13.218717
31.2147 40.387438 16.777741
28.34273 40.077402 12.649479
32.503401 41.019102000000004 17.335318
28.240507 40.511513 11.176032000000001
32.61735 40.735696000000004 18.844199
26.867235 40.103684 10.612148
33.889746 41.412978 19.384332
26.76266 40.562018 9.145458000000001
34.024096 41.111908 20.888171
25.380774000000002 40.177507 8.585341
32.971508 40.237558 21.593942
35.215822 41.676446 21.683696
33.135459 39.890328 23.085383
35.379245 41.329245 23.174913
34.35746 40.408315 23.866559000000002
14.706746 34.209591 40.964055
15.275065 34.758394 39.642914000000005
13.218717 34.592712 41.063082
16.777741 34.437438 39.54379
12.649479 34.127402000000004 42.41576
17.335318 35.069102 38.255089
11.176032000000001 34.561513 42.517983
18.844199 34.785696 38.14114
10.612148 34.153684 43.891255
19.384332 35.462978 36.868744
9.145458000000001 34.612018 43.99583
20.888171 35.161908 36.734394
8.585341 34.227507 45.377716
21.593942 34.287558000000004 37.786982
21.683696 35.726446 35.542668
23.085383 33.940328 37.623031
23.174913 35.379245 35.379245
23.866559000000002 34.458315 36.40103
14.706746 28.259591 40.964055
15.275065 28.808394 39.642914000000005
13.218717 28.642712 41.063082
16.777741 28.487438 39.54379
12.649479 28.177402 42.41576
17.335318 29.119101999999998 38.255089
11.176032000000001 28.611513000000002 42.517983
18.844199 28.835696 38.14114
10.612148 28.203684000000003 43.891255
19.384332 29.512978 36.868744
9.145458000000001 28.662018 43.99583
20.888171 29.211908 36.734394
8.585341 28.277507 45.377716
21.593942 28.337558 37.786982
21.683696 29.776446 35.542668
23.085383 27.990327999999998 37.623031
23.174913 29.429245 35.379245
23.866559000000002 28.508315 36.40103
14.706746 28.259591 46.914055000000005
15.275065 28.808394 45.592914
13.218717 28.642712 47.013082
16.777741 28.487438 45.493790000000004
12.649479 28.177402 48.36576
17.335318 29.119101999999998 44.205089
11.176032000000001 28.611513000000002 48.467983000000004
18.844199 28.835696 44.091139999999996
10.612148 28.203684000000003 49.841255000000004
19.384332 29.512978 42.818743999999995
9.145458000000001 28.662018 49.94583
20.888171 29.211908 42.684394
8.585341 28.277507 51.327715999999995
21.593942 28.337558 43.736982
21.683696 29.776446 41.492668
23.085383 27.990327999999998 43.573031
23.174913 29.429245 41.329245
23.866559000000002 28.508315 42.35103
14.706746 40.159591 46.914055000000005
15.275065 40.708394 45.592914
13.218717 40.542712 47.013082
16.777741 40.387438 45.493790000000004
12.649479 40.077402 48.36576
17.335318 41.019102000000004 44.205089
11.176032000000001 40.511513 48.467983000000004
18.844199 40.735696000000004 44.091139999999996
10.612148 40.103684 49.841255000000004
19.384332 41.412978 42.818743999999995
9.145458000000001 40.562018 49.94583
20.888171 41.111908 42.684394
8.585341 40.177507 51.327715999999995
21.593942 40.237558 43.736982
21.683696 41.676446 41.492668
23.085383 39.890328 43.573031
23.174913 41.329245 41.329245
23.866559000000002 40.408315 42.35103
56.051744 28.259591 23.844435
55.483425 28.808394 25.165576
57.539773 28.642712 23.745408
53.980749 28.487438 25.2647
58.109010999999995 28.177402 22.39273
53.423172 29.119101999999998 26.553401
59.582458 28.611513000000002 22.290506999999998
51.914291 28.835696 26.66735
60.146342 28.203684000000003 20.917234999999998
51.374158 29.512978 27.939746
61.613032 28.662018 20.81266
49.870318999999995 29.211908 28.074096
62.173149 28.277507 19.430774
49.164547999999996 28.337558 27.021508
49.074794 29.776446 29.265822
47.673107 27.990327999999998 27.185459
47.583577000000005 29.429245 29.429245
46.891931 28.508315 28.40746
56.051744 40.159591 29.794435
55.483425 40.708394 31.115576
57.539773 40.542712 29.695408
53.980749 40.387438 31.2147
58.109010999999995 40.077402 28.34273
53.423172 41.019102000000004 32.503401
59.582458 40.511513 28.240507
51.914291 40.735696000000004 32.61735
60.146342 40.103684 26.867235
51.374158 41.412978 33.889746
61.613032 40.562018 26.76266
49.870318999999995 41.111908 34.024096
62.173149 40.177507 25.380774000000002
49.164547999999996 40.237558 32.971508
49.074794 41.676446 35.215822
47.673107 39.890328 33.135459
47.583577000000005 41.329245 35.379245
46.891931 40.408315 34.35746
56.051744 28.259591 29.794435
55.483425 28.808394 31.115576
57.539773 28.642712 29.695408
53.980749 28.487438 31.2147
58.109010999999995 28.177402 28.34273
53.423172 29.119101999999998 32.503401
59.582458 28.611513000000002 28.240507
51.914291 28.835696 32.61735
60.146342 28.203684000000003 26.867235
51.374158 29.512978 33.889746
61.613032 28.662018 26.76266
49.870318999999995 29.211908 34.024096
62.173149 28.277507 25.380774000000002
49.164547999999996 28.337558 32.971508
49.074794 29.776446 35.215822
47.673107 27.990327999999998 33.135459
47.583577000000005 29.429245 35.379245
46.891931 28.508315 34.35746
56.051744 34.209591 35.744435
55.483425 34.758394 37.065576
57.539773 34.592712 35.645408
53.980749 34.437438 37.164699999999996
58.109010999999995 34.127402000000004 34.29273
53.423172 35.069102 38.453401
59.582458 34.561513 34.190507
51.914291 34.785696 38.56735
60.146342 34.153684 32.817235
51.374158 35.462978 39.839746
61.613032 34.612018 32.71266
49.870318999999995 35.161908 39.974096
62.173149 34.227507 31.330773999999998
49.164547999999996 34.287558000000004 38.921508
49.074794 35.726446 41.165822
47.673107 33.940328 39.085459
47.583577000000005 35.379245 41.329245
46.891931 34.458315 40.30746
46.914055000000005 14.706746 28.259591
45.592914 15.275065 28.808394
47.013082 13.218717 28.642712
45.493790000000004 16.777741 28.487438
48.36576 12.649479 28.177402
44.205089 17.335318 29.119101999999998
48.467983000000004 11.176032000000001 28.611513000000002
44.091139999999996 18.844199 28.835696
49.841255000000004 10.612148 28.203684000000003
42.818743999999995 19.384332 29.512978
49.94583 9.145458000000001 28.662018
42.684394 20.888171 29.211908
51.327715999999995 8.585341 28.277507
43.736982 21.593942 28.337558
41.492668 21.683696 29.776446
43.573031 23.085383 27.990327999999998
41.329245 23.174913 29.429245
42.35103 23.866559000000002 28.508315
40.964055 14.706746 28.259591
39.642914000000005 15.275065 28.808394
41.063082 13.218717 28.642712
39.54379 16.777741 28.487438
42.41576 12.649479 28.177402
38.255089 17.335318 29.119101999999998
42.517983 11.176032000000001 28.611513000000002
38.14114 18.844199 28.835696
43.891255 10.612148 28.203684000000003
36.868744 19.384332 29.512978
43.99583 9.145458000000001 28.662018
36.734394 20.888171 29.211908
45.377716 8.585341 28.277507
37.786982 21.593942 28.337558
35.542668 21.683696 29.776446
37.623031 23.085383 27.990327999999998
35.379245 23.174913 29.429245
36.40103 23.866559000000002 28.508315
35.014055 14.706746 34.209591
33.692914 15.275065 34.758394
35.113082 13.218717 34.592712
33.59379 16.777741 34.437438
36.46576 12.649479 34.127402000000004
32.305089 17.335318 35.069102
36.567983 11.176032000000001 34.561513
32.191140000000004 18.844199 34.785696
37.941255 10.612148 34.153684
30.918744 19.384332 35.462978
38.04583 9.145458000000001 34.612018
30.784394 20.888171 35.161908
39.427716000000004 8.585341 34.227507
31.836982 21.593942 34.287558000000004
29.592668 21.683696 35.726446
31.673031 23.085383 33.940328
29.429245 23.174913 35.379245
30.45103 23.866559000000002 34.458315
35.014055 14.706746 28.259591
33.692914 15.275065 28.808394
35.113082 13.218717 28.642712
33.59379 16.777741 28.487438
36.46576 12.649479 28.177402
32.305089 17.335318 29.119101999999998
36.567983 11.176032000000001 28.611513000000002
32.191140000000004 18.844199 28.835696
37.941255 10.612148 28.203684000000003
30.918744 19.384332 29.512978
38.04583 9.145458000000001 28.662018
30.784394 20.888171 29.211908
39.427716000000004 8.585341 28.277507
31.836982 21.593942 28.337558
29.592668 21.683696 29.776446
31.673031 23.085383 27.990327999999998
29.429245 23.174913 29.429245
30.45103 23.866559000000002 28.508315
46.914055000000005 56.051744 42.498899
45.592914 55.483425 41.950096
47.013082 57.539773 42.115778
45.493790000000004 53.980749 42.271052
48.36576 58.109010999999995 42.581088
44.205089 53.423172 41.639388
48.467983000000004 59.582458 42.146977
44.091139999999996 51.914291 41.922793999999996
49.841255000000004 60.146342 42.554806
42.818743999999995 51.374158 41.245512
49.94583 61.613032 42.096472
42.684394 49.870318999999995 41.546582
51.327715999999995 62.173149 42.480983
43.736982 49.164547999999996 42.420932
41.492668 49.074794 40.982044
43.573031 47.673107 42.768162000000004
41.329245 47.583577000000005 41.329245
42.35103 46.891931 42.250175
40.964055 56.051744 42.498899
39.642914000000005 55.483425 41.950096
41.063082 57.539773 42.115778
39.54379 53.980749 42.271052
42.41576 58.109010999999995 42.581088
38.255089 53.423172 41.639388
42.517983 59.582458 42.146977
38.14114 51.914291 41.922793999999996
43.891255 60.146342 42.554806
36.868744 51.374158 41.245512
43.99583 61.613032 42.096472
36.734394 49.870318999999995 41.546582
45.377716 62.173149 42.480983
37.786982 49.164547999999996 42.420932
35.542668 49.074794 40.982044
37.623031 47.673107 42.768162000000004
35.379245 47.583577000000005 41.329245
36.40103 46.891931 42.250175
40.964055 56.051744 36.548899
39.642914000000005 55.483425 36.000096
41.063082 57.539773 36.165778
39.54379 53.980749 36.321052
42.41576 58.109010999999995 36.631088
38.255089 53.423172 35.689388
42.517983 59.582458 36.196977000000004
38.14114 51.914291 35.972794
43.891255 60.146342 36.604805999999996
36.868744 51.374158 35.295512
43.99583 61.613032 36.146472
36.734394 49.870318999999995 35.596582
45.377716 62.173149 36.530983
37.786982 49.164547999999996 36.470932
35.542668 49.074794 35.032044
37.623031 47.673107 36.818162
35.379245 47.583577000000005 35.379245
36.40103 46.891931 36.300174999999996
35.014055 56.051744 36.548899
33.692914 55.483425 36.000096
35.113082 57.539773 36.165778
33.59379 53.980749 36.321052
36.46576 58.109010999999995 36.631088
32.305089 53.423172 35.689388
36.567983 59.582458 36.196977000000004
32.191140000000004 51.914291 35.972794
37.941255 60.146342 36.604805999999996
30.918744 51.374158 35.295512
38.04583 61.613032 36.146472
30.784394 49.870318999999995 35.596582
39.427716000000004 62.173149 36.530983
31.836982 49.164547999999996 36.470932
29.592668 49.074794 35.032044
31.673031 47.673107 36.818162
29.429245 47.583577000000005 35.379245
30.45103 46.891931 36.300174999999996
24.978584 32.404245 38.354245
25.410795 38.354245 45.347695
32.404245 25.410795 25.410795
32.404245 24.978584 32.404245
32.404245 25.410795 45.347695
32.404245 38.354245 24.978584
32.404245 45.779906 38.354245
38.354245 25.410795 25.410795
38.354245 25.410795 45.347695
38.354245 32.404245 24.978584
38.354245 38.354245 45.779906
38.354245 45.779906 38.354245
38.354245 45.347695 45.347695
45.347695 25.410795 32.404245
45.779906 32.404245 38.354245
45.779906 38.354245 32.404245
45.347695 38.354245 45.347695
45.347695 32.404245 45.347695
38.354245 38.354245 24.978584
26.454245 26.454245 32.404245
26.454245 32.404245 26.454245
26.454245 32.404245 32.404245
26.454245 32.404245 44.304245
26.454245 38.354245 26.454245
26.454245 38.354245 32.404245
26.454245 38.354245 38.354245
26.454245 44.304245 32.404245
26.454245 44.304245 38.354245
32.404245 26.454245 38.354245
32.404245 32.404245 26.454245
32.404245 32.404245 32.404245
32.404245 32.404245 38.354245
32.404245 32.404245 44.304245
32.404245 38.354245 32.404245
32.404245 38.354245 38.354245
32.404245 38.354245 44.304245
32.404245 44.304245 26.454245
32.404245 44.304245 32.404245
32.404245 44.304245 44.304245
38.354245 26.454245 32.404245
38.354245 26.454245 38.354245
38.354245 32.404245 32.404245
38.354245 32.404245 38.354245
38.354245 38.354245 32.404245
38.354245 38.354245 38.354245
38.354245 44.304245 26.454245
38.354245 44.304245 32.404245
44.304245 26.454245 38.354245
44.304245 32.404245 26.454245
44.304245 32.404245 32.404245
44.304245 38.354245 26.454245
44.304245 38.354245 38.354245
44.304245 44.304245 32.404245
44.304245 44.304245 38.354245
46.951672 39.02606 55.937461
47.784095 40.628916000000004 55.483858999999995
44.709535 40.247398000000004 56.037373
45.577883 41.839778 55.621428
46.941782 41.676302 57.637259
46.159634 40.058840000000004 58.120339
45.474492999999995 39.258106 53.825777
46.393493 40.831641 53.439698
49.20834 40.56437 57.515403
48.452270999999996 38.943318 58.031164000000004
44.23852 42.146115 53.591375
43.300422 40.582169 53.96188
47.639921 40.013773 60.187551
48.358312999999995 41.644142 59.649431
45.000708 41.160476 51.374131000000006
44.035342 39.610686 51.738425
50.663106 40.604759 59.535539
49.959994 38.971426 60.08789
42.889443 42.538891 51.537638
41.907087000000004 41.004865 51.923761
49.819039000000004 41.693887000000004 61.664408
49.129484000000005 40.059072 62.229631
51.457999 39.04627 62.118147
52.140813 40.684855 61.555859
51.40614 40.517438999999996 63.25849
44.632261 39.840869 49.748295
40.728224 42.345934 49.591529
44.350278 39.240938 47.149811
40.447333 41.746546 46.993834
41.001672 39.02606 55.937461
41.834095 40.628916000000004 55.483858999999995
38.759535 40.247398000000004 56.037373
39.627883 41.839778 55.621428
40.991782 41.676302 57.637259
40.209634 40.058840000000004 58.120339
39.524493 39.258106 53.825777
40.443493000000004 40.831641 53.439698
43.258340000000004 40.56437 57.515403
42.502271 38.943318 58.031164000000004
38.28852 42.146115 53.591375
37.350422 40.582169 53.96188
41.689921 40.013773 60.187551
42.408313 41.644142 59.649431
39.050708 41.160476 51.374131000000006
38.085342 39.610686 51.738425
44.713105999999996 40.604759 59.535539
44.009994 38.971426 60.08789
36.939443 42.538891 51.537638
35.957087 41.004865 51.923761
43.869039 41.693887000000004 61.664408
43.179484 40.059072 62.229631
45.507999 39.04627 62.118147
46.190813 40.684855 61.555859
45.456140000000005 40.517438999999996 63.25849
38.682261 39.840869 49.748295
34.778224 42.345934 49.591529
38.400278 39.240938 47.149811
34.497333 41.746546 46.993834
41.001672 27.126060000000003 55.937461
41.834095 28.728915999999998 55.483858999999995
38.759535 28.347398 56.037373
39.627883 29.939778 55.621428
40.991782 29.776302 57.637259
40.209634 28.158839999999998 58.120339
39.524493 27.358106 53.825777
40.443493000000004 28.931641 53.439698
43.258340000000004 28.664369999999998 57.515403
42.502271 27.043318 58.031164000000004
38.28852 30.246115 53.591375
37.350422 28.682169000000002 53.96188
41.689921 28.113773000000002 60.187551
42.408313 29.744142 59.649431
39.050708 29.260476 51.374131000000006
38.085342 27.710686000000003 51.738425
44.713105999999996 28.704759 59.535539
44.009994 27.071426000000002 60.08789
36.939443 30.638891 51.537638
35.957087 29.104865 51.923761
43.869039 29.793886999999998 61.664408
43.179484 28.159072000000002 62.229631
45.507999 27.14627 62.118147
46.190813 28.784855 61.555859
45.456140000000005 28.617439 63.25849
38.682261 27.940869 49.748295
34.778224 30.445934 49.591529
38.400278 27.340938 47.149811
34.497333 29.846546 46.993834
35.051671999999996 27.126060000000003 55.937461
35.884095 28.728915999999998 55.483858999999995
32.809535 28.347398 56.037373
33.677883 29.939778 55.621428
35.041782 29.776302 57.637259
34.259634 28.158839999999998 58.120339
33.574493000000004 27.358106 53.825777
34.493493 28.931641 53.439698
37.30834 28.664369999999998 57.515403
36.552271000000005 27.043318 58.031164000000004
32.33852 30.246115 53.591375
31.400422 28.682169000000002 53.96188
35.739921 28.113773000000002 60.187551
36.458313000000004 29.744142 59.649431
33.100708 29.260476 51.374131000000006
32.135342 27.710686000000003 51.738425
38.763106 28.704759 59.535539
38.059994 27.071426000000002 60.08789
30.989443 30.638891 51.537638
30.007087 29.104865 51.923761
37.919039 29.793886999999998 61.664408
37.229484 28.159072000000002 62.229631
39.557999 27.14627 62.118147
40.240813 28.784855 61.555859
39.50614 28.617439 63.25849
32.732261 27.940869 49.748295
28.828224 30.445934 49.591529
32.450278 27.340938 47.149811
28.547333000000002 29.846546 46.993834
29.756818000000003 27.126060000000003 14.821029000000001
28.924395 28.728915999999998 15.274631
31.998955000000002 28.347398 14.721117
31.130607 29.939778 15.137062
29.766708 29.776302 13.121231
30.548856 28.158839999999998 12.638151
31.233997000000002 27.358106 16.932713
30.314996999999998 28.931641 17.318792000000002
27.500149999999998 28.664369999999998 13.243087000000001
28.256219 27.043318 12.727326
32.46997 30.246115 17.167115000000003
33.408068 28.682169000000002 16.79661
29.068569 28.113773000000002 10.570939000000001
28.350177000000002 29.744142 11.109059
31.707782 29.260476 19.384359
32.673148 27.710686000000003 19.020065000000002
26.045384 28.704759 11.222951
26.748496 27.071426000000002 10.6706
33.819047 30.638891 19.220852
34.801403 29.104865 18.834729
26.889451 29.793886999999998 9.094082
27.579006 28.159072000000002 8.528859
25.250491 27.14627 8.640343000000001
24.567677 28.784855 9.202631
25.30235 28.617439 7.5
32.076229 27.940869 21.010195
35.980266 30.445934 21.166961
32.358212 27.340938 23.608679000000002
36.261157 29.846546 23.764656000000002
35.706818 33.07606 14.821029000000001
34.874395 34.678916 15.274631
37.948955 34.297398 14.721117
37.080607 35.889778 15.137062
35.716708 35.726302000000004 13.121231
36.498856 34.10884 12.638151
37.183997 33.308106 16.932713
36.264997 34.881641 17.318792000000002
33.45015 34.61437 13.243087000000001
34.206219000000004 32.993318 12.727326
38.41997 36.196115 17.167115000000003
39.358068 34.632169000000005 16.79661
35.018569 34.063773 10.570939000000001
34.300177000000005 35.694142 11.109059
37.657782 35.210476 19.384359
38.623148 33.660686 19.020065000000002
31.995384 34.654759 11.222951
32.698496 33.021426 10.6706
39.769047 36.588891000000004 19.220852
40.751402999999996 35.054865 18.834729
32.839451 35.743887 9.094082
33.529005999999995 34.109072 8.528859
31.200491 33.096270000000004 8.640343000000001
30.517677 34.734854999999996 9.202631
31.25235 34.567439 7.5
38.026229 33.890869 21.010195
41.930266 36.395934 21.166961
38.308212 33.290938 23.608679000000002
42.211157 35.796546 23.764656000000002
35.706818 27.126060000000003 14.821029000000001
34.874395 28.728915999999998 15.274631
37.948955 28.347398 14.721117
37.080607 29.939778 15.137062
35.716708 29.776302 13.121231
36.498856 28.158839999999998 12.638151
37.183997 27.358106 16.932713
36.264997 28.931641 17.318792000000002
33.45015 28.664369999999998 13.243087000000001
34.206219000000004 27.043318 12.727326
38.41997 30.246115 17.167115000000003
39.358068 28.682169000000002 16.79661
35.018569 28.113773000000002 10.570939000000001
34.300177000000005 29.744142 11.109059
37.657782 29.260476 19.384359
38.623148 27.710686000000003 19.020065000000002
31.995384 28.704759 11.222951
32.698496 27.071426000000002 10.6706
39.769047 30.638891 19.220852
40.751402999999996 29.104865 18.834729
32.839451 29.793886999999998 9.094082
33.529005999999995 28.159072000000002 8.528859
31.200491 27.14627 8.640343000000001
30.517677 28.784855 9.202631
31.25235 28.617439 7.5
38.026229 27.940869 21.010195
41.930266 30.445934 21.166961
38.308212 27.340938 23.608679000000002
42.211157 29.846546 23.764656000000002
29.756818000000003 39.02606 14.821029000000001
28.924395 40.628916000000004 15.274631
31.998955000000002 40.247398000000004 14.721117
31.130607 41.839778 15.137062
29.766708 41.676302 13.121231
30.548856 40.058840000000004 12.638151
31.233997000000002 39.258106 16.932713
30.314996999999998 40.831641 17.318792000000002
27.500149999999998 40.56437 13.243087000000001
28.256219 38.943318 12.727326
32.46997 42.146115 17.167115000000003
33.408068 40.582169 16.79661
29.068569 40.013773 10.570939000000001
28.350177000000002 41.644142 11.109059
31.707782 41.160476 19.384359
32.673148 39.610686 19.020065000000002
26.045384 40.604759 11.222951
26.748496 38.971426 10.6706
33.819047 42.538891 19.220852
34.801403 41.004865 18.834729
26.889451 41.693887000000004 9.094082
27.579006 40.059072 8.528859
25.250491 39.04627 8.640343000000001
24.567677 40.684855 9.202631
25.30235 40.517438999999996 7.5
32.076229 39.840869 21.010195
35.980266 42.345934 21.166961
32.358212 39.240938 23.608679000000002
36.261157 41.746546 23.764656000000002
14.821029000000001 33.07606 41.001672
15.274631 34.678916 41.834095
14.721117 34.297398 38.759535
15.137062 35.889778 39.627883
13.121231 35.726302000000004 40.991782
12.638151 34.10884 40.209634
16.932713 33.308106 39.524493
17.318792000000002 34.881641 40.443493000000004
13.243087000000001 34.61437 43.258340000000004
12.727326 32.993318 42.502271
17.167115000000003 36.196115 38.28852
16.79661 34.632169000000005 37.350422
10.570939000000001 34.063773 41.689921
11.109059 35.694142 42.408313
19.384359 35.210476 39.050708
19.020065000000002 33.660686 38.085342
11.222951 34.654759 44.713105999999996
10.6706 33.021426 44.009994
19.220852 36.588891000000004 36.939443
18.834729 35.054865 35.957087
9.094082 35.743887 43.869039
8.528859 34.109072 43.179484
8.640343000000001 33.096270000000004 45.507999
9.202631 34.734854999999996 46.190813
7.5 34.567439 45.456140000000005
21.010195 33.890869 38.682261
21.166961 36.395934 34.778224
23.608679000000002 33.290938 38.400278
23.764656000000002 35.796546 34.497333
14.821029000000001 27.126060000000003 41.001672
15.274631 28.728915999999998 41.834095
14.721117 28.347398 38.759535
15.137062 29.939778 39.627883
13.121231 29.776302 40.991782
12.638151 28.158839999999998 40.209634
16.932713 27.358106 39.524493
17.318792000000002 28.931641 40.443493000000004
13.243087000000001 28.664369999999998 43.258340000000004
12.727326 27.043318 42.502271
17.167115000000003 30.246115 38.28852
16.79661 28.682169000000002 37.350422
10.570939000000001 28.113773000000002 41.689921
11.109059 29.744142 42.408313
19.384359 29.260476 39.050708
19.020065000000002 27.710686000000003 38.085342
11.222951 28.704759 44.713105999999996
10.6706 27.071426000000002 44.009994
19.220852 30.638891 36.939443
18.834729 29.104865 35.957087
9.094082 29.793886999999998 43.869039
8.528859 28.159072000000002 43.179484