1_train/61_cspbbr3_methylammonium_4_0.30\61_cspbbr3_methylammonium_4_0.30.xyz
1.0
47.702186999999995 0 0
0 47.702186999999995 0
0 0 47.702186999999995
Br C Cs H N Pb 
240 26 86 156 26 64 
Cartesian
26.9643055 23.8345055 21.095746499999997
26.6794275 26.7427225 18.0838715
26.9809745 17.9779295 15.1301145
26.8010965 11.747874499999998 20.7641735
23.9350165 14.963966499999998 21.094902499999996
32.7039015 29.9829375 32.7013445
26.860687499999997 26.7100305 23.6980975
26.9117295 15.1292175 18.0732325
26.6312255 23.9874935 26.928841499999997
23.672745499999998 26.7687885 26.7085935
32.6523705 32.935109499999996 29.9935635
23.670598499999997 14.737202499999999 14.839429499999998
26.7455145 12.137179499999998 14.8034445
26.8715105 14.833921499999999 12.159227499999998
23.829448499999998 27.0163785 20.9096945
30.0546145 32.9302035 32.7550125
27.0058275 20.7146465 35.6619435
23.9527355 26.9993615 14.9641025
23.7848295 20.7043735 15.1086695
26.6249625 20.8012445 11.756525499999999
26.8314995 20.7426605 18.024873499999998
26.6867705 17.865820499999998 20.9868605
23.7955445 20.6748915 21.018792499999996
26.911187499999997 14.855376499999998 35.9478875
32.6965565 36.0141495 14.894069499999999
32.907782499999996 35.753947499999995 20.6962305
23.7049055 15.120930499999998 32.624140499999996
26.7971385 21.1362465 23.857769499999996
27.019352499999997 14.846802499999999 23.7067955
26.711101499999998 17.9463135 27.0873815
26.978677499999996 12.084963499999999 32.6226575
26.8978745 14.865381499999998 29.6280735
26.7459565 20.7835625 30.0622015
26.6443335 17.823330499999997 32.9246615
23.8708045 20.714825499999996 33.0090335
23.8390305 15.1697815 26.9800905
32.6330045 32.6917785 35.8394115
26.8975545 11.990503499999999 27.0037815
26.891816499999997 26.5366365 11.9123615
26.865274499999998 23.957530499999997 15.099719499999999
23.9321435 20.7119755 26.9844695
26.7767525 26.794647499999996 29.609180499999997
27.0164555 29.9054345 26.9746855
24.0285535 26.975990499999998 32.7568415
29.8667245 14.795629499999999 32.9226925
29.882879499999998 32.9976185 14.921567499999998
32.5581045 14.775205499999998 35.6462435
33.0037985 20.8534175 11.964172499999998
32.7467505 17.9913685 15.122014499999999
29.7111645 20.896755499999998 15.1950665
32.671749500000004 29.9383025 15.037652499999998
32.7783935 20.6583415 17.932511499999997
32.954421499999995 17.7000495 20.8116775
29.678634499999998 21.102644499999997 20.9704105
32.9240535 32.669405499999996 11.811783499999999
32.7417215 20.729788499999998 23.6595725
32.5985785 17.6680015 26.871353499999998
29.6908475 20.7199435 26.7144515
32.6137905 12.0924255 32.8935575
32.724329499999996 20.740381499999998 30.021316499999998
29.5671075 20.837458499999997 32.5982705
32.881981499999995 20.7801995 35.9283175
32.986613500000004 26.897305499999998 35.8952115
32.9305655 26.7338745 12.118212499999998
32.8502555 23.6942735 14.769487499999999
29.5998415 26.7312725 14.840601499999998
32.5464765 26.7134695 17.950401499999998
32.8438515 23.9681725 21.031422499999998
29.735342499999998 26.6596275 20.797025499999997
29.5807975 26.7010315 32.656597500000004
32.5378685 26.9495895 23.946442499999996
32.660040499999994 23.6130525 26.798519499999998
30.0197385 26.6252445 26.852213499999998
32.9405095 23.6855015 32.8447415
32.9127615 17.7008765 32.7783335
26.8649255 23.9958345 32.6455135
32.906347499999995 15.093067499999998 29.800741499999997
32.744358500000004 11.771628499999998 26.712728499999997
26.670905499999996 26.9537925 35.8423195
26.6525245 32.6097975 11.9014765
26.6291905 29.617302499999997 14.902939499999999
23.9850435 32.6512265 15.066664499999998
26.9796665 32.6930605 17.804232499999998
26.8094355 29.9963285 20.8671525
23.879903499999998 32.891471499999994 20.717664499999998
29.7382335 32.9432215 26.7849075
26.6566575 32.8661115 23.7348505
23.8654425 32.8291275 26.5323145
32.9203825 29.6453515 26.6316675
26.9550375 32.7025595 29.6789485
27.0612275 29.7499915 32.9005325
23.905890499999998 32.9760285 32.9541375
29.7384895 14.791075499999998 26.9862415
26.7684275 32.7623295 35.5545685
27.047008499999997 35.828115499999996 15.0183165
26.8152485 35.939044499999994 20.916400499999998
26.7145565 35.6250345 26.938148499999997
30.0163695 32.9489805 20.906794499999997
26.6668745 35.823883499999994 32.8558605
32.7554795 29.5346545 20.9598935
32.963039499999994 14.9817545 11.960701499999999
32.6702925 11.9261995 14.7383685
29.916610499999997 14.992890499999998 15.096347499999998
32.8226755 32.656021499999994 17.772259499999997
32.6539595 15.128196499999998 18.005846499999997
32.8181885 12.108110499999999 20.9738295
29.5373825 14.8653775 20.927600499999997
32.8517975 14.885219499999998 23.572916499999998
32.9411785 32.950003499999994 23.9762925
32.6962595 35.967701500000004 26.7856855
35.607800499999996 15.1294835 15.034226499999999
20.734567499999997 14.8347935 12.1485355
15.182371499999999 23.8477655 26.7080125
12.060132499999998 26.7358155 26.6940345
14.7701715 26.990224499999997 29.8591855
15.034927499999998 23.6521315 32.6496825
12.014611499999999 26.603430499999998 32.6817635
35.515758500000004 32.725494499999996 14.8453585
14.9199755 26.638695499999997 35.9609975
14.8444405 32.819331500000004 12.2148615
15.004671499999999 29.962176499999998 14.749259499999999
12.1137185 32.5839545 15.019382499999999
14.9585595 32.6382505 18.0175655
15.1438695 29.7836595 21.024831499999998
12.009473499999999 32.8508705 20.593686499999997
14.642377499999998 32.8552785 23.8060465
14.783368499999998 29.8400775 26.9775385
12.119491499999999 32.5686175 26.831576499999997
36.0158385 26.8828565 32.7482925
17.757166499999997 14.9624975 15.0974595
21.0027895 12.099324499999998 15.045069499999999
20.9945675 35.9025155 32.664571499999994
14.742796499999999 35.7553185 32.8597975
35.5533395 26.8771585 14.942311499999999
15.1371875 35.860091499999996 26.811206499999997
15.1390125 26.8262425 23.7752265
35.6142145 27.0189845 21.0509045
35.683708499999995 27.0370265 26.812315499999997
14.831639499999998 35.5513265 14.895805499999998
14.785552499999998 32.8294705 35.632803499999994
11.671647499999999 32.8256415 32.8033195
14.877529499999998 29.6208985 32.7857755
15.1976655 32.7365655 29.7302945
15.0222175 35.7606825 20.670257499999998
35.8809615 32.923593499999996 20.9367685
11.803027499999999 26.761984499999997 20.7346425
14.7539935 23.7293395 20.9262225
14.864175499999998 20.7037065 11.938910499999999
14.920947499999999 14.659813499999998 35.8784065
11.8943605 15.0229445 32.512272499999995
14.920382499999999 11.7681545 32.625277499999996
15.088011499999999 15.028444499999999 29.7729645
11.838820499999999 14.762286499999998 26.789243499999998
15.1475955 17.8335585 14.8166905
14.7422385 11.8418345 26.7202815
12.003803499999998 14.7389435 20.7004265
14.792926499999998 12.050110499999999 20.6512915
14.776484499999999 14.7555315 17.7550375
11.730606499999999 14.818572499999998 14.913791499999999
14.9536135 12.012526499999998 14.749751499999999
15.0136855 14.8056095 12.0630285
14.810081499999999 14.9882815 24.043116499999996
21.0115555 15.069652499999998 17.892092499999997
12.127290499999999 21.0013825 14.816521499999999
14.7590665 17.725703499999998 21.0460365
14.873248499999999 26.765240499999997 17.619642499999998
11.9691245 26.5954835 14.955464499999998
14.8064325 23.7735165 14.7902905
14.947538499999999 26.5813695 12.1026075
14.740534499999999 20.7485255 35.759561500000004
35.6107825 32.6783005 26.676947499999997
15.023958499999999 20.690012499999998 17.9934935
11.768651499999999 20.995872499999997 32.8644905
15.0649375 20.7781095 29.866297499999998
12.0566205 20.8372035 26.6531955
14.822837499999999 18.0195355 26.936269499999998
14.7673025 20.986022499999997 23.9930315
35.750390499999995 32.7721325 33.0612315
12.037355499999999 20.7691795 20.675008499999997
15.0156295 17.973093499999997 32.609118499999994
20.934343499999997 11.8027755 20.736261499999998
32.9816775 26.6732235 29.9416005
20.6402325 23.9124555 20.9267945
35.834583499999994 21.100640499999997 15.004975499999999
20.7373835 26.6990375 11.993355499999998
20.673722499999997 23.9162915 14.8602005
18.0206575 26.6370615 15.123331499999999
21.0190245 29.6903725 32.6800735
20.7595495 32.652944500000004 29.9103085
20.7899995 26.822795499999998 17.706926499999998
18.0803685 14.810820499999998 20.7562925
17.9054045 26.6296525 20.7971025
35.6810135 14.7602865 32.7074475
20.9803925 26.741327499999997 23.9819765
21.0199275 24.0175385 26.7097525
18.0349955 26.728142499999997 26.9369935
17.8821345 32.5662175 26.8590685
20.9549175 26.7594975 29.6254135
20.9167715 23.8083635 32.9922155
20.778878499999998 29.6160675 26.7683295
17.7814095 26.8279055 32.614650499999996
35.934141499999996 14.9764035 27.0341915
20.8062665 26.962756499999998 35.630405499999995
20.831241499999997 32.5520595 12.1140075
21.063151499999996 29.9407845 14.8421405
18.099579499999997 32.8092325 14.7920705
35.746264499999995 14.846568499999998 21.1208915
20.946647499999997 32.6680095 18.0668385
20.6909755 32.657405499999996 23.880104499999998
20.673792499999998 29.8655555 20.7339355
17.8445595 32.504566499999996 20.9539905
20.8165725 20.6767935 35.555237500000004
17.996778499999998 32.7266425 32.9603415
17.8855335 20.7159965 33.0214045
32.9881335 35.9097205 32.7638265
35.5627765 20.7281605 32.7227245
20.8071105 14.821538499999999 23.6835035
20.7285685 11.767588499999999 26.9844225
20.975516499999998 35.8047375 26.9727605
18.0486835 15.085198499999999 26.9838425
20.9609775 15.051938499999999 29.6808275
20.726560499999998 11.866764499999999 32.9125185
18.0549935 15.067240499999999 32.9801075
20.7679865 35.692882499999996 21.1195795
20.8438745 14.9296245 35.9286115
20.7124475 21.0151355 11.9148345
21.0807425 17.8701935 15.1012545
20.7937795 32.8826775 35.542379499999996
17.9018135 21.0939645 14.741448499999999
21.0586155 35.657281499999996 15.034184499999999
20.8141345 20.662203499999997 17.9779605
20.767311499999998 18.0396245 20.983742499999998
17.6897225 20.9396325 20.754706499999998
35.8458295 20.720569499999996 20.848653499999998
21.1343655 20.8331755 23.784172499999997
21.0266165 17.991141499999998 26.8696405
17.780412499999997 20.7038315 27.0291475
20.8335135 20.677266499999998 29.8641825
20.9169355 18.0736395 32.946136499999994
35.7466715 20.8402355 27.0342715
29.8214465 10.933569499999999 10.9854095
10.4330225 17.976335499999998 29.8666605
23.7880725 29.789644499999998 10.5350165
36.8737365 10.888826499999999 23.8236925
23.7796195 10.4282905 29.835638499999998
37.2288305 29.870164499999998 17.868813499999998
23.8968585 29.7501005 37.1945245
37.2535575 23.8102475 23.7619075
17.8211335 37.182224500000004 17.8565735
23.8006995 17.8406465 10.4649945
29.836830499999998 29.762237499999998 10.5334495
29.7325475 17.851688499999998 37.258090499999994
17.837396499999997 29.7527005 37.2657995
37.2493875 23.7864555 17.8204115
10.975524499999999 23.9080565 10.8924665
10.843836499999998 10.9718325 29.8144845
36.849262499999995 29.7726415 10.824798499999998
10.471347499999998 29.7620205 17.836273499999997
17.8730155 17.869282499999997 37.1581295
29.8528465 17.9588795 10.436093499999998
17.9494255 37.2837715 23.7832965
10.887081499999999 10.849597499999998 23.7868285
17.913659499999998 17.8288275 10.4069615
36.7359145 36.856044499999996 17.8370385
17.9802155 29.781681499999998 10.4214925
10.4170565 29.8337415 23.8908785
35.632788500000004 36.012750499999996 30.300849499999998
29.6169215 36.1284585 23.607287499999998
30.1690355 23.5822795 35.349706499999996
29.7021305 35.516572499999995 35.4155585
35.7660935 35.968746499999995 23.345470499999998
29.7873295 29.666355499999998 30.2024255
36.141366500000004 29.9857385 36.0263745
35.873251499999995 18.0976605 35.236729499999996
35.2584775 23.7924665 11.6080145
36.0107625 17.4977935 29.6743345
35.9110125 23.6758155 29.4954325
29.5543275 30.1286365 23.861714499999998
35.629557500000004 17.5909965 17.4464965
35.5502525 11.604483499999999 17.6014545
36.0547835 23.532458499999997 35.9769745
30.028830499999998 30.2817965 17.676570499999997
35.935272499999996 18.3259345 11.9583965
29.9651455 36.026445499999994 11.6456275
35.4903355 29.3824965 23.7391455
35.8501565 12.4900755 29.549210499999997
29.8374685 36.3402125 18.001492499999998
29.4766215 29.8520385 35.517096499999994
29.795011499999998 35.3469645 30.054083499999997
30.0353805 18.1878845 24.1657375
29.4583595 23.4851225 23.737930499999997
17.8214425 29.3585745 23.6990725
17.8352595 30.1748275 18.2869965
17.7454835 24.0895925 35.4331415
18.0604255 23.5031465 29.5627615
17.7473665 23.833214499999997 23.4088645
17.7881175 23.4979235 18.2949295
18.120710499999998 23.6306095 12.2440445
17.8408765 18.3796145 24.2102935
17.6733555 17.7922905 18.3622895
17.6069205 12.327482499999999 35.945027499999995
17.811673499999998 12.2082485 23.5846295
17.6626475 12.183902499999999 18.229732499999997
18.3260175 11.8564665 11.5295025
17.645850499999998 29.4685685 29.6668025
11.581265499999999 35.717057499999996 30.089864499999997
11.524042499999998 35.4882955 18.0538825
11.372753499999998 29.7648475 35.7204275
12.329122499999999 29.919586499999998 29.6418485
11.746991499999998 30.1778865 11.731406499999999
12.0542985 24.1736105 35.5389715
11.8617295 24.0596705 23.5436405
11.809458499999998 24.2604585 17.755449499999997
12.3512195 18.234547499999998 35.7884445
12.268234499999998 18.1535275 24.198589499999997
12.334335499999998 18.3218365 18.0355495
11.650274499999998 18.2017315 11.591820499999999
12.347422499999999 12.3774065 17.7239195
29.4065355 24.109252499999997 29.919914499999997
12.3672215 35.7989865 23.9135245
17.487176499999997 35.5532605 11.793462499999999
17.5722205 17.5118375 29.6800855
17.6426825 35.9377475 35.4124395
29.874194499999998 23.5987335 18.2280765
30.3744405 23.753710499999997 11.847317499999999
30.0409775 18.1243995 30.1030655
29.5892935 17.578335499999998 18.066280499999998
18.234405499999998 35.4577635 30.1360885
29.5732485 11.405503499999998 29.844945499999998
29.5245845 12.0281425 24.1216425
29.6507465 11.4350005 17.869525499999998
23.575297499999998 36.0521275 35.6835105
24.0029265 35.5878515 29.3958905
24.3351885 35.651940499999995 23.9869365
24.0778965 35.3271565 18.2273325
23.4522245 35.480560499999996 11.915600499999998
24.082178499999998 30.1895995 29.637189499999998
29.996439499999997 11.607073499999998 35.9123735
23.9049895 30.3122215 17.920567499999997
23.6569735 12.213453499999998 24.3029995
24.1769625 12.2167485 35.399705499999996
24.0055385 18.1135505 17.5476545
24.2612365 17.680532499999998 23.6614135
24.1241925 29.462141499999998 23.5646325
23.931146499999997 18.243325499999997 35.8740715
23.642705499999998 17.5427405 29.751153499999997
23.9536725 24.210803499999997 17.5491325
23.5162865 23.454524499999998 23.631282499999998
24.2408985 23.7214405 29.6462705
23.9339855 23.369952499999997 35.783143499999994
23.803475499999998 24.2115375 12.3687575
24.1097855 12.232553499999998 11.6161605
37.597393499999995 22.984280499999997 18.514590499999997
37.5934675 24.799881499999998 18.3530055
17.705364499999998 30.7874405 37.5726175
17.015759499999998 30.0866395 35.391533499999994
37.5699775 23.7472015 16.8335215
12.3410465 29.8977085 22.879259499999996
18.0909455 28.8486205 35.3558585
18.868692499999998 29.499978499999997 37.529743499999995
17.1709705 29.0869775 37.5355605
18.6193515 30.4261645 35.3907525
18.8433415 29.502494499999997 12.329594499999999
30.7665535 18.048657499999997 35.3836235
18.9314255 37.5817325 23.9460105
18.2630295 35.3537805 24.7094615
18.468784499999998 35.4040315 23.106055499999997
16.917257499999998 35.3512845 23.731981499999996
30.328784499999998 28.8723335 10.114512499999998
28.7750265 29.7700745 10.169334499999998
30.3086275 30.6764975 10.148643499999999
12.352800499999999 28.899122499999997 24.2066305
29.2775495 30.6470055 12.310856499999998
29.3340595 28.9377805 12.306802499999998
12.349129499999998 30.5374515 24.4397375
30.511739499999997 17.1189185 37.572593499999996
30.1658695 18.9037205 37.574383499999996
35.3483065 23.9462755 18.8669715
29.1454015 18.6092725 35.3642055
29.488504499999998 16.987353499999998 35.3380995
30.728844499999997 29.8276945 12.318825499999999
28.7752445 17.6946085 37.5302395
12.2561375 22.8693125 12.1523875
35.3744155 24.629406499999998 17.3090665
37.584993499999996 30.4198625 11.2676725
37.110480499999994 28.731388499999998 10.756826499999999
36.1287015 29.4149845 12.8096745
34.9110765 29.2032755 11.674965499999999
35.394482499999995 30.727956499999998 12.1665385
10.1784065 30.7303735 17.4005665
10.1576545 28.942749499999998 17.3433975
36.360144500000004 30.2542925 10.028278499999999
10.1401475 29.788863499999998 18.9022445
12.348728499999998 30.5957005 18.420975499999997
12.324017499999998 29.8672965 16.9648875
17.1173695 18.4622265 35.4042625
16.979021499999998 17.5131655 37.5502005
18.7234095 17.2511225 37.5407005
18.0066095 18.9628965 37.581076499999995
18.7934385 18.3109315 35.3625935
12.354305499999999 28.9805775 18.3503935
11.790875499999999 12.674491499999998 30.501392499999998
12.8992095 11.5516765 30.0119685
11.9726805 12.4197125 28.9198155
10.1269645 28.9840815 23.1883055
10.615222499999998 24.871660499999997 10.6766695
11.3251525 23.3522495 10.0477265
10.074949499999999 23.284633499999998 11.264052499999998
11.6068065 24.264103499999997 12.8365005
12.789100499999998 24.3382065 11.665364499999999
10.1336225 30.7397025 23.4709385
24.193633499999997 18.8531525 10.1432755
24.5050825 17.0708975 10.100553499999998
22.7908775 17.744390499999998 10.1678295
23.4806325 16.9844995 12.297525499999999
23.2919605 18.666917499999997 12.350491499999999
24.760211499999997 18.0553645 12.339692499999998
10.1654515 29.6809595 24.8516615
10.938322499999998 10.449309499999998 30.8114885
9.953812499999998 11.397927499999998 29.6502335
11.118041499999999 10.165015499999999 29.0179325
35.4064135 23.0161025 17.5002355
17.2915995 37.5295325 24.7063015
18.495723499999997 37.5824485 17.073870499999998
18.888091499999998 35.3688695 18.0159375
18.633788499999998 30.4979135 10.107970499999999
37.6334825 11.329239499999998 24.413140499999997
36.356213499999996 10.0041465 24.3214345
37.0167485 10.679879499999998 22.8394615
34.931923499999996 11.609392499999998 23.3750735
36.0578215 12.787739499999999 23.3838785
35.4427115 12.174775499999999 24.8235775
24.802767499999998 10.1524325 30.236323499999997
22.956027499999998 10.166794499999998 30.3842015
23.816289499999996 10.1543575 28.7357405
22.9744565 12.336283499999999 29.3455345
24.660020499999998 12.3160455 29.2282935
23.944225499999998 12.3485845 30.7681485
37.5610285 24.9223465 23.8565835
37.5297345 23.329136499999997 24.7514285
37.5694165 23.2947615 22.927420499999997
35.3935525 22.8755395 23.827301499999997
23.7437495 30.7268115 35.3934835
35.3914665 24.3513605 22.990778499999998
24.6930195 29.4338755 35.3756235
23.979403499999997 28.7846865 37.5315605
17.2031875 29.1893115 12.3234395
10.7660705 10.567915499999998 24.9122585
9.971356499999999 11.327117499999998 23.4359035
11.268371499999999 10.0508885 23.1964075
12.1589175 12.2877505 22.9252545
12.8538515 11.5742915 24.199523499999998
11.687040499999998 12.728975499999999 24.4055155
16.877812499999997 30.126710499999998 10.138874499999998
29.5115975 18.8861505 10.166967499999998
30.827018499999998 17.6929405 10.183266499999998
29.136746499999997 17.144833499999997 10.151392499999998
30.1105295 17.0233755 12.346290499999999
28.8764325 18.1358955 12.312951499999999
30.455066499999997 18.6331745 12.362950499999998
18.155810499999998 28.8106905 10.131824499999999
24.720982499999998 30.4178775 37.536818499999995
22.8691565 30.2413295 37.5572355
23.049780499999997 29.2172765 35.3719505
35.3983135 24.346317499999998 24.6591905
34.9501255 36.061263499999995 17.3575475
16.8642945 18.0951395 10.1212585
28.7692165 10.8155475 10.542017499999998
29.202564499999998 11.720725499999999 12.7469095
29.4377645 12.8896565 11.5938255
30.7304235 12.122333499999998 12.343536499999999
36.3702295 37.6778085 18.3056885
37.5913955 30.149859499999998 16.9328195
37.519583499999996 30.4963765 18.6672555
37.5163685 28.784740499999998 18.106616499999998
35.3571135 29.5335105 18.832558499999998
35.3682805 29.1907945 17.1646555
35.404265499999994 30.712666499999997 17.693281499999998
37.1374255 36.9147475 16.8684385
18.281867499999997 37.5665115 18.826637499999997
17.7044815 30.765807499999998 12.334095499999998
16.8464915 37.5515135 17.7551715
17.511895499999998 35.344725499999996 17.0493775
17.296712499999998 35.3970915 18.6854795
30.1963015 9.975621499999999 11.322728499999998
30.4378535 11.2837605 10.100626499999999
37.6081055 36.430646499999995 18.5465125
12.345189499999998 18.1354015 30.7049925
18.5392315 18.6929545 10.119040499999999
18.3003875 16.951482499999997 10.153392499999999
18.861205499999997 17.7898145 12.328495499999999
17.3293095 17.1886445 12.326303499999998
17.5153155 18.8058935 12.303811499999998
36.1090355 34.8890895 17.5374365
24.3798515 28.940613499999998 10.171006499999999
22.7809905 29.756718499999998 10.121960499999998
17.460955499999997 37.5388655 22.8922915
24.3598385 30.7282835 10.1053515
24.8399185 29.8382065 12.306402499999999
23.3765005 28.946115499999998 12.302216499999998
35.3866975 35.5675205 18.8310495
10.115058499999998 17.1630275 30.5546945
10.1445625 18.9148125 30.1210395
10.123726499999998 17.6094445 28.7691345
12.3116735 18.6063285 29.1105065
12.3155875 16.9408075 29.5631475
23.3737455 30.6060055 12.298014499999999
17.8070445 16.9107525 35.369058499999994
23.847691499999996 11.906037499999998 29.7209805
17.9047375 29.7347795 11.886963499999998
29.7975425 11.886211499999998 11.986201499999998
35.777593499999995 23.9016755 23.8936335
23.799555499999997 17.843638499999997 11.9012655
23.8062285 29.8603125 35.7776735
35.6747795 11.893886499999999 23.8352455
11.888047499999999 29.8326425 23.7900325
35.7051675 29.752978499999998 11.996402499999999
29.748382499999998 17.9653125 35.7353065
35.769674499999994 29.7389855 17.852354499999997
12.0226075 17.8872935 29.727645499999998
11.988057499999998 11.9871755 29.8624255
23.8966945 29.8589655 11.9020605
17.9817855 29.867568499999997 35.7512805
11.9713935 29.7673815 17.8273595
35.8030825 35.8086085 17.8731705
17.9779855 17.949053499999998 11.960141499999999
11.9020575 11.8944365 23.911789499999998
35.7561885 23.8255075 17.9734805
17.9600795 35.753987499999994 17.942645499999998
29.8834305 17.849202499999997 11.9496755
29.8601355 29.8213145 11.905451499999998
17.8397835 35.7488435 23.8957385
17.8921995 17.963745499999998 35.8031175
11.985538499999999 23.909197499999998 11.887120499999998
14.7119565 14.677197499999998 15.011941499999999
32.8769425 14.914734499999998 15.149609499999999
14.8601885 32.5061615 26.6180925
14.8589875 33.0599765 20.8876115
21.065073499999997 26.6117195 20.657362499999998
32.716399499999994 14.780386499999999 21.029044499999998
26.764669499999997 21.1617835 32.9756425
14.903948499999998 32.8346855 14.6215695
20.7041465 27.0255175 14.933743499999999
32.5820325 32.9377695 20.784217499999997
20.9566935 26.6020015 26.8519705
15.0976945 26.6514595 32.931706500000004
20.8351745 20.574893499999998 15.0947725
32.9574235 14.732023499999999 32.8798225
14.776080499999999 26.912282499999996 27.0567735
20.8037495 26.8928965 32.4425015
14.772081499999999 26.9931855 21.0963225
32.7297655 14.801810499999998 27.0151545
32.9330595 21.0334245 14.9452045
15.139654499999999 33.0022575 32.684997499999994
32.9461825 32.5217975 26.722727499999998
32.7431275 32.9459105 32.9196905
26.9363775 27.0859795 32.827929499999996
20.9236725 14.8926395 32.5097305
26.696343499999998 32.5119465 14.840506499999998
20.664919499999996 14.750582499999998 26.6526015
26.9313005 32.9194075 21.0476065
21.1526015 20.794112499999997 20.9432445
26.610262499999997 26.6977975 14.999345499999999
20.9810395 14.752635499999998 21.0033515
27.0982085 32.7279185 27.0545835
20.8627555 14.657123499999999 14.7779955
27.0538815 15.0677735 15.153851499999998
20.9121365 21.150830499999998 26.7559015
27.044731499999997 32.8290075 32.7894935
26.830225499999997 26.9553255 20.6769005
20.7670265 21.043656499999997 32.5978545
26.776607499999997 26.6022845 26.9944275
27.098009499999996 20.8059855 20.8907775
26.6688655 21.0461255 26.6367305
32.544445499999995 20.8758515 26.5891365
32.6931965 26.5611705 20.6569905
14.6620475 20.8298265 21.0658875
32.672406499999994 20.6634985 32.8880315
33.001904499999995 32.745966499999994 14.8301565
14.9396065 14.730727499999999 26.9925915
26.6650415 14.643806499999998 26.8286505
14.899669499999998 14.8587245 33.0521155
20.9183235 32.6837795 21.0979535
14.919514499999998 20.572483499999997 26.7511315
20.8807885 32.7064075 26.6169365
32.9304005 26.9958405 26.5872005
26.7334285 14.687520499999998 32.7957695
21.1306895 32.8000815 32.7406615
14.7524565 21.0296265 32.6021935
14.7001025 14.7849875 20.863881499999998
14.677366499999998 20.8169125 14.8291145
27.026435499999998 14.978591499999999 20.7686105
26.785160499999996 21.0702175 14.820627499999999
32.805164500000004 26.7563465 33.010583499999996
20.818183499999996 32.5472075 14.887597499999998
32.6653205 20.6900295 20.716955499999997
32.9879485 26.6050405 14.736025499999998
15.1121755 26.6799945 14.9406605
