3_train/205_cspbbr3_MA-2-Fur_3_0.20\205_cspbbr3_MA-2-Fur_3_0.20.xyz
1.0
42.08963 0 0
0 42.08963 0
0 0 42.08963
Br C Cs H N O Pb 
96 70 44 96 10 36 27 
Cartesian
15.094814999999999 15.094814999999999 12.119815
15.094814999999999 12.119815 15.094814999999999
15.094814999999999 15.094814999999999 18.069815
15.094814999999999 12.119815 21.044815
12.119815 15.094814999999999 21.044815
15.094814999999999 15.094814999999999 24.019814999999998
15.094814999999999 12.119815 26.994815
15.094814999999999 15.094814999999999 29.969815
15.094814999999999 18.069815 15.094814999999999
12.119815 21.044815 15.094814999999999
15.094814999999999 21.044815 18.069815
15.094814999999999 18.069815 21.044815
12.119815 21.044815 21.044815
15.094814999999999 21.044815 24.019814999999998
15.094814999999999 18.069815 26.994815
12.119815 21.044815 26.994815
15.094814999999999 26.994815 12.119815
15.094814999999999 24.019814999999998 15.094814999999999
12.119815 26.994815 15.094814999999999
15.094814999999999 26.994815 18.069815
15.094814999999999 24.019814999999998 21.044815
12.119815 26.994815 21.044815
15.094814999999999 26.994815 24.019814999999998
15.094814999999999 24.019814999999998 26.994815
12.119815 26.994815 26.994815
15.094814999999999 26.994815 29.969815
15.094814999999999 29.969815 26.994815
21.044815 15.094814999999999 12.119815
18.069815 15.094814999999999 15.094814999999999
21.044815 15.094814999999999 18.069815
21.044815 12.119815 21.044815
18.069815 15.094814999999999 21.044815
21.044815 15.094814999999999 24.019814999999998
18.069815 15.094814999999999 26.994815
21.044815 15.094814999999999 29.969815
21.044815 21.044815 12.119815
21.044815 18.069815 15.094814999999999
18.069815 21.044815 15.094814999999999
21.044815 21.044815 18.069815
21.044815 18.069815 21.044815
18.069815 21.044815 21.044815
21.044815 21.044815 24.019814999999998
21.044815 18.069815 26.994815
18.069815 21.044815 26.994815
21.044815 21.044815 29.969815
21.044815 24.019814999999998 15.094814999999999
18.069815 26.994815 15.094814999999999
21.044815 26.994815 18.069815
21.044815 24.019814999999998 21.044815
18.069815 26.994815 21.044815
21.044815 26.994815 24.019814999999998
21.044815 24.019814999999998 26.994815
18.069815 26.994815 26.994815
21.044815 26.994815 29.969815
21.044815 29.969815 15.094814999999999
21.044815 29.969815 21.044815
21.044815 29.969815 26.994815
26.994815 15.094814999999999 12.119815
26.994815 12.119815 15.094814999999999
24.019814999999998 15.094814999999999 15.094814999999999
26.994815 15.094814999999999 18.069815
26.994815 12.119815 21.044815
24.019814999999998 15.094814999999999 21.044815
26.994815 15.094814999999999 24.019814999999998
26.994815 12.119815 26.994815
24.019814999999998 15.094814999999999 26.994815
26.994815 15.094814999999999 29.969815
26.994815 21.044815 12.119815
26.994815 18.069815 15.094814999999999
24.019814999999998 21.044815 15.094814999999999
26.994815 21.044815 18.069815
26.994815 18.069815 21.044815
24.019814999999998 21.044815 21.044815
26.994815 21.044815 24.019814999999998
26.994815 18.069815 26.994815
24.019814999999998 21.044815 26.994815
26.994815 21.044815 29.969815
26.994815 26.994815 12.119815
26.994815 24.019814999999998 15.094814999999999
24.019814999999998 26.994815 15.094814999999999
26.994815 26.994815 18.069815
26.994815 24.019814999999998 21.044815
24.019814999999998 26.994815 21.044815
26.994815 26.994815 24.019814999999998
26.994815 24.019814999999998 26.994815
24.019814999999998 26.994815 26.994815
26.994815 29.969815 15.094814999999999
26.994815 29.969815 21.044815
26.994815 29.969815 26.994815
29.969815 15.094814999999999 21.044815
29.969815 15.094814999999999 26.994815
29.969815 21.044815 21.044815
29.969815 21.044815 26.994815
29.969815 26.994815 15.094814999999999
29.969815 26.994815 21.044815
29.969815 26.994815 26.994815
15.418852999999999 21.291679 33.620101
15.904844999999998 21.670227999999998 32.337889000000004
15.094814999999999 21.044815 31.418271
14.347866999999999 20.465092 33.394586000000004
15.094814999999999 21.044815 29.969815
27.303518999999998 26.729024999999996 33.620101
27.774635 26.332114999999998 32.337889000000004
26.994815 26.994815 31.418271
26.272775999999997 27.605281 33.394586000000004
26.994815 26.994815 29.969815
20.736946 26.728058 8.469529
20.267077999999998 26.329673 9.751740999999999
21.044815 26.994815 10.671358999999999
21.764936 27.607542 8.695044
21.044815 26.994815 12.119815
14.687626999999999 21.056683 8.469529
14.072092 21.081231 9.751740999999999
15.094814999999999 21.044815 10.671358999999999
16.039648999999997 21.008785 8.695044
15.094814999999999 21.044815 12.119815
8.469529 14.923979999999998 26.625007
9.751740999999999 14.659654999999999 26.068572
10.671358999999999 15.094814999999999 26.994815
8.695044 15.49903 27.849577999999998
12.119815 15.094814999999999 26.994815
8.469529 15.168762 14.694222
9.751740999999999 15.274083999999998 14.087267999999998
10.671358999999999 15.094814999999999 15.094814999999999
8.695044 14.931532999999998 16.02613
12.119815 15.094814999999999 15.094814999999999
33.620101 15.452953999999998 14.900704
32.337889000000004 15.997660999999999 14.612988
31.418271 15.094814999999999 15.094814999999999
33.394586000000004 14.259529999999998 15.537880999999999
29.969815 15.094814999999999 15.094814999999999
33.620101 20.687262 15.290002
32.337889000000004 20.143422 15.579356999999998
31.418271 21.044815 15.094814999999999
33.394586000000004 21.878763 14.649237999999999
29.969815 21.044815 15.094814999999999
20.642722 8.469529 26.929519
20.035756 9.751740999999999 26.824261
21.044815 10.671358999999999 26.994815
21.976710999999998 8.695044 27.154746999999997
21.044815 12.119815 26.994815
21.159267 8.469529 15.485767
21.325996 9.751740999999999 16.0788
21.044815 10.671358999999999 15.094814999999999
20.787319999999998 8.695044 14.185032
21.044815 12.119815 15.094814999999999
15.147979 33.620101 21.448691
15.234919 32.337889000000004 22.058550999999998
15.094814999999999 31.418271 21.044815
14.963006 33.394586000000004 20.108527
15.094814999999999 29.969815 21.044815
15.180015 33.620101 14.696463999999999
15.302389999999999 32.337889000000004 14.092716
15.094814999999999 31.418271 15.094814999999999
14.905368999999999 33.394586000000004 16.021161999999997
15.094814999999999 29.969815 15.094814999999999
10.644154 24.019814999999998 24.019814999999998
11.076365 11.076365 18.069815
11.076365 31.013265 18.069815
18.069815 10.644154 18.069815
24.019814999999998 18.069815 31.445476
31.445476 18.069815 18.069815
24.019814999999998 11.076365 11.076365
24.019814999999998 11.076365 31.013265
31.013265 18.069815 31.013265
18.069815 24.019814999999998 31.445476
12.119815 12.119815 24.019814999999998
12.119815 18.069815 18.069815
12.119815 18.069815 24.019814999999998
12.119815 18.069815 29.969815
12.119815 24.019814999999998 12.119815
12.119815 24.019814999999998 18.069815
12.119815 24.019814999999998 29.969815
12.119815 29.969815 24.019814999999998
18.069815 12.119815 12.119815
18.069815 12.119815 24.019814999999998
18.069815 12.119815 29.969815
18.069815 18.069815 12.119815
18.069815 18.069815 18.069815
18.069815 18.069815 24.019814999999998
18.069815 18.069815 29.969815
18.069815 24.019814999999998 12.119815
18.069815 24.019814999999998 18.069815
18.069815 24.019814999999998 24.019814999999998
18.069815 29.969815 12.119815
18.069815 29.969815 24.019814999999998
18.069815 29.969815 29.969815
24.019814999999998 12.119815 18.069815
24.019814999999998 12.119815 24.019814999999998
24.019814999999998 18.069815 12.119815
24.019814999999998 18.069815 18.069815
24.019814999999998 18.069815 24.019814999999998
24.019814999999998 24.019814999999998 12.119815
24.019814999999998 24.019814999999998 18.069815
24.019814999999998 24.019814999999998 24.019814999999998
24.019814999999998 24.019814999999998 29.969815
24.019814999999998 29.969815 12.119815
24.019814999999998 29.969815 18.069815
24.019814999999998 29.969815 24.019814999999998
24.019814999999998 29.969815 29.969815
29.969815 12.119815 18.069815
29.969815 12.119815 24.019814999999998
29.969815 18.069815 12.119815
29.969815 18.069815 24.019814999999998
29.969815 24.019814999999998 12.119815
29.969815 24.019814999999998 18.069815
29.969815 24.019814999999998 24.019814999999998
29.969815 24.019814999999998 29.969815
29.969815 29.969815 18.069815
29.969815 29.969815 24.019814999999998
13.660295999999999 19.937200999999998 34.048206
15.807991999999999 21.587048999999997 34.58963
16.743896 22.31961 32.105501000000004
25.613756 28.168411 34.048206
27.673177 26.409609999999997 34.58963
28.583921999999998 25.645996999999998 32.105501000000004
22.422186999999997 28.172736999999998 8.041424
20.368291999999997 26.407484999999998 7.499999999999999
19.459946 25.64102 9.984129
16.906026999999998 20.98029 8.041424
14.199268 21.07005 7.499999999999999
13.011816 21.120222 9.984129
8.041424 15.865500999999998 28.635149
7.499999999999999 14.719885999999999 26.181138999999998
9.984129 14.207377999999999 25.108805999999998
8.041424 14.777366999999998 16.879158
7.499999999999999 15.258296 14.213954999999999
9.984129 15.458725 13.042465
34.048206 13.495883999999998 15.948087999999998
34.58963 15.882051999999998 14.667148999999998
32.105501000000004 16.93428 14.114538999999999
34.048206 22.641171 14.236735999999999
34.58963 20.258868 15.524847
32.105501000000004 19.208306999999998 16.08062
22.831824 8.041424 27.296893
20.160359 7.499999999999999 26.852065
18.989808 9.984129 26.646218
20.546884 8.041424 13.352196999999999
21.297358999999997 7.499999999999999 15.954386
21.616324 9.984129 17.099297
14.846661999999998 34.048206 19.249523
15.210878 34.58963 21.933167
15.381398999999998 32.105501000000004 23.109382999999998
14.727238999999999 34.048206 16.86951
15.28304 34.58963 14.218909
15.516383 32.105501000000004 13.053528
10.310233 23.902748 22.987139
10.310233 23.184023999999997 24.637536
10.310233 24.972672 24.434769999999997
12.494557 24.127705 24.971535
12.494557 24.790083999999997 23.45052
12.494557 23.141657 23.63739
10.182924 11.497570999999999 18.534549
10.884319 10.796175999999999 17.032395
11.453498999999999 10.226996 18.642501
12.99059 11.779004999999998 17.641514
12.344180999999999 12.425414 19.025907
11.819621999999999 12.949974 17.542023999999998
10.383762999999998 30.792897999999997 17.255340999999998
10.569728 30.978863 19.03613
11.567250999999999 31.976385999999998 17.917974
12.805496999999999 30.125531 18.820438
12.634108999999999 29.954144 17.179254
11.714787 29.034822 18.209751999999998
17.387971 10.310233 17.285459
19.090009 10.310233 17.871499
17.731465 10.310233 19.052487
18.698206 12.494557 18.792682
17.129599 12.494557 18.252584
18.381641 12.494557 17.164179999999998
24.971374 17.651892 31.779397
23.905967 19.102851 31.779397
23.182104 17.454701999999997 31.779397
23.142853 18.454974999999997 29.595073
24.124737999999997 17.117764 29.595073
24.791853999999997 18.636707 29.595073
31.779397 17.099444 17.697651
31.779397 18.877302999999998 17.415530999999998
31.779397 18.232696999999998 19.096262
29.595073 18.964112999999998 18.412803
29.595073 17.325629 18.672805999999998
29.595073 17.919702 17.123835999999997
23.181459999999998 11.274577999999998 10.405916999999999
24.970937 11.136467 10.544027999999999
23.907048 10.109696999999999 11.570798
24.792447 11.984516 12.785079
23.143255999999997 12.111799999999999 12.657794999999998
24.123741999999996 13.058076999999999 11.711519
23.34453 11.398869 31.808004
23.673289 10.147410999999998 30.556546
25.041625999999997 10.974463 31.383598
24.642160999999998 11.869969999999999 29.190004
24.339175 13.023319999999998 30.343353999999998
23.078109 12.261104 29.581138
31.709968999999997 18.879658 30.788795999999998
30.523163999999998 18.228994 31.975600999999997
31.515015 17.100793 30.98375
29.280354 17.323459 30.129310999999998
30.374119 17.923115 29.035545
29.460024 18.962871 29.949641
18.551204 23.098733999999997 31.779397
18.6268 24.89725 31.779397
17.031441 24.06346 31.779397
17.626164 24.868688 29.595073
17.556494999999998 23.211166 29.595073
19.026786 23.979592 29.595073
12.119815 24.019814999999998 24.019814999999998
12.119815 12.119815 18.069815
12.119815 29.969815 18.069815
18.069815 12.119815 18.069815
24.019814999999998 18.069815 29.969815
29.969815 18.069815 18.069815
24.019814999999998 12.119815 12.119815
24.019814999999998 12.119815 29.969815
29.969815 18.069815 29.969815
18.069815 24.019814999999998 29.969815
14.132938999999999 20.299808 32.061344
15.956973 21.675033 29.269219
14.251449999999998 20.428277 29.236599
26.066508 27.781254 32.061344
27.790148 26.282117 29.269219
26.216762999999997 27.691965 29.236599
21.970651 27.784161 10.028286
20.251722 26.279625999999997 12.820411
21.820676 27.694402 12.853031
16.310628 20.999658 10.028286
14.026923 21.054768 12.820411
16.139461999999998 21.035033 12.853031
10.028286 15.613848999999998 28.095198999999997
12.820411 14.666252 26.01664
12.853031 15.514092 27.95168
10.028286 14.883524 16.292979
12.820411 15.309446 14.048666999999998
12.853031 14.884901 16.118201
32.061344 14.020575 15.665996999999999
29.269219 16.023446 14.567428999999999
29.236599 14.186373999999999 15.610681999999999
32.061344 22.117332 14.520404
29.269219 20.117774999999998 15.624993
29.236599 21.9517 14.576217
22.244139 10.028286 27.199419
19.987499999999997 12.820411 26.844556
22.079109 12.853031 27.141848999999997
20.712321999999997 10.028286 13.924477999999999
21.365114 12.820411 16.113588999999997
20.731531999999998 12.853031 14.098201999999999
14.926402999999999 32.061344 19.839876
15.213180999999999 29.269219 22.106173
14.97898 29.236599 20.006563999999997
14.849863 32.061344 16.286552999999998
15.338825 29.269219 14.055126999999999
14.856162 29.236599 16.111883
15.094814999999999 15.094814999999999 15.094814999999999
15.094814999999999 15.094814999999999 21.044815
15.094814999999999 15.094814999999999 26.994815
15.094814999999999 21.044815 15.094814999999999
15.094814999999999 21.044815 21.044815
15.094814999999999 21.044815 26.994815
15.094814999999999 26.994815 15.094814999999999
15.094814999999999 26.994815 21.044815
15.094814999999999 26.994815 26.994815
21.044815 15.094814999999999 15.094814999999999
21.044815 15.094814999999999 21.044815
21.044815 15.094814999999999 26.994815
21.044815 21.044815 15.094814999999999
21.044815 21.044815 21.044815
21.044815 21.044815 26.994815
21.044815 26.994815 15.094814999999999
21.044815 26.994815 21.044815
21.044815 26.994815 26.994815
26.994815 15.094814999999999 15.094814999999999
26.994815 15.094814999999999 21.044815
26.994815 15.094814999999999 26.994815
26.994815 21.044815 15.094814999999999
26.994815 21.044815 21.044815
26.994815 21.044815 26.994815
26.994815 26.994815 15.094814999999999
26.994815 26.994815 21.044815
26.994815 26.994815 26.994815
