3_train/236_cspbbr3_MA-INC_3_0.40\236_cspbbr3_MA-INC_3_0.40.xyz
1.0
41.68719 0 0
0 41.68719 0
0 0 41.68719
Br C Cs H N O Pb 
84 163 35 210 43 48 27 
Cartesian
11.918595 14.893595 14.893595
14.893595 14.893595 17.868595
14.893595 11.918595 20.843595
11.918595 14.893595 20.843595
14.893595 14.893595 23.818595
14.893595 11.918595 26.793595
14.893595 20.843595 11.918595
14.893595 17.868595 14.893595
11.918595 20.843595 14.893595
14.893595 20.843595 17.868595
14.893595 17.868595 20.843595
11.918595 20.843595 20.843595
14.893595 20.843595 23.818595
14.893595 17.868595 26.793595
14.893595 20.843595 29.768595
14.893595 26.793595 11.918595
14.893595 23.818595 14.893595
11.918595 26.793595 14.893595
14.893595 26.793595 17.868595
14.893595 23.818595 20.843595
14.893595 26.793595 23.818595
14.893595 23.818595 26.793595
14.893595 26.793595 29.768595
14.893595 29.768595 14.893595
14.893595 29.768595 20.843595
14.893595 29.768595 26.793595
20.843595 14.893595 11.918595
20.843595 11.918595 14.893595
17.868595 14.893595 14.893595
20.843595 14.893595 17.868595
20.843595 11.918595 20.843595
17.868595 14.893595 20.843595
20.843595 14.893595 23.818595
17.868595 14.893595 26.793595
20.843595 17.868595 14.893595
17.868595 20.843595 14.893595
20.843595 20.843595 17.868595
20.843595 17.868595 20.843595
17.868595 20.843595 20.843595
20.843595 20.843595 23.818595
20.843595 17.868595 26.793595
17.868595 20.843595 26.793595
20.843595 26.793595 11.918595
20.843595 23.818595 14.893595
17.868595 26.793595 14.893595
20.843595 26.793595 17.868595
20.843595 23.818595 20.843595
17.868595 26.793595 20.843595
20.843595 26.793595 23.818595
20.843595 23.818595 26.793595
17.868595 26.793595 26.793595
20.843595 29.768595 20.843595
20.843595 29.768595 26.793595
26.793595 14.893595 11.918595
26.793595 11.918595 14.893595
23.818595 14.893595 14.893595
26.793595 14.893595 17.868595
23.818595 14.893595 20.843595
26.793595 14.893595 23.818595
23.818595 14.893595 26.793595
26.793595 14.893595 29.768595
26.793595 17.868595 14.893595
23.818595 20.843595 14.893595
26.793595 20.843595 17.868595
26.793595 17.868595 20.843595
23.818595 20.843595 20.843595
26.793595 20.843595 23.818595
26.793595 17.868595 26.793595
23.818595 20.843595 26.793595
26.793595 20.843595 29.768595
26.793595 23.818595 14.893595
23.818595 26.793595 14.893595
26.793595 26.793595 17.868595
26.793595 23.818595 20.843595
23.818595 26.793595 20.843595
26.793595 26.793595 23.818595
26.793595 23.818595 26.793595
23.818595 26.793595 26.793595
26.793595 26.793595 29.768595
29.768595 14.893595 14.893595
29.768595 14.893595 20.843595
29.768595 14.893595 26.793595
29.768595 26.793595 14.893595
29.768595 26.793595 20.843595
21.532241 15.803681 33.508123
21.567199 15.854484 32.102737000000005
20.843595 14.893595 31.411436
20.157301 13.975393 33.505365
20.843595 14.893595 29.768595
20.120385 13.930697 32.100269
15.140315 16.007874 33.508123
15.150921 16.068625 32.102737000000005
14.893595 14.893595 31.411436
14.652395 13.772918 33.505365
14.893595 14.893595 29.768595
14.637464999999999 13.716904 32.100269
21.845964 27.339257 33.508123
21.898744 27.371152 32.102737000000005
20.843595 26.793595 31.411436
19.840026 26.239568000000002 33.505365
20.843595 26.793595 29.768595
19.787978 26.214045000000002 32.100269
20.945727 19.706908 33.508123
20.954007 19.645797 32.102737000000005
20.843595 20.843595 31.411436
20.734265 21.984709 33.505365
20.843595 20.843595 29.768595
20.73154 22.042615 32.100269
15.635535 15.760781999999999 8.179067
15.677697 15.805788 9.584453
14.893595 14.893595 10.275754
14.143222999999999 14.026971 8.181825
14.893595 14.893595 11.918595
14.107446 13.981358 9.586921
26.472068 21.938634 8.179067
26.457376999999997 21.998528 9.584453
26.793595 20.843595 10.275754
27.110046999999998 19.741799 8.181825
26.793595 20.843595 11.918595
27.128733 19.686923999999998 9.586921
19.79066 21.283842 8.179067
19.734893 21.31017 9.584453
20.843595 20.843595 10.275754
21.898579 20.39515 8.181825
20.843595 20.843595 11.918595
21.952966 20.375085 9.586921
25.994901000000002 25.978379 8.179067
25.949802000000002 25.936317 9.584453
26.793595 26.793595 10.275754
27.600664 27.60768 8.181825
26.793595 26.793595 11.918595
27.639433 27.650778 9.586921
8.179067 26.062998 27.67036
9.584453 26.025693999999998 27.719466999999998
10.275754 26.793595 26.793595
8.181825 27.522223 25.908611
11.918595 26.793595 26.793595
9.586921 27.561196 25.865697
8.179067 20.852166999999998 27.934829
9.584453 20.855407 27.996414
10.275754 20.843595 26.793595
8.181825 20.828212 25.647358
11.918595 20.843595 26.793595
9.586921 20.830246 25.589423999999998
8.179067 13.962682000000001 26.133374999999997
9.584453 13.910824 26.100001000000002
10.275754 14.893595 26.793595
8.181825 15.832548 27.451214
11.918595 14.893595 26.793595
9.586921 15.878362 27.486732
8.179067 25.698714 20.521533
9.584453 25.638827 20.506812999999998
10.275754 26.793595 20.843595
8.181825 27.895236 21.160585
11.918595 26.793595 20.843595
9.586921 27.950102 21.179298
33.508123 19.75686 27.142157
32.102737000000005 19.697347999999998 27.158327
31.411436 20.843595 26.793595
33.505365 21.937211 26.449939
29.768595 20.843595 26.793595
32.100269 21.991607 26.4299
33.508123 21.936660999999997 15.221765
32.102737000000005 21.994867 15.24214
31.411436 20.843595 14.893595
33.505365 19.747636 14.557485
29.768595 20.843595 14.893595
32.100269 19.691454999999998 14.543195
33.508123 26.390884 25.725741
32.102737000000005 26.371745 25.667116
31.411436 26.793595 26.793595
33.505365 27.191751999999997 27.868568
29.768595 26.793595 26.793595
32.100269 27.214498 27.921888
33.508123 21.895363 21.286621999999998
32.102737000000005 21.951060000000002 21.313098
31.411436 20.843595 20.843595
33.505365 19.789799 20.392364
29.768595 20.843595 20.843595
32.100269 19.735466 20.372156
15.011023999999999 8.179067 13.758386
15.020126 9.584453 13.697392
14.893595 10.275754 14.893595
14.768909 8.181825 16.033134
14.893595 11.918595 14.893595
14.765405 9.586921 16.090998
25.655922999999998 8.179067 20.934096999999998
25.594289 9.584453 20.936213
26.793595 10.275754 20.843595
27.936842 8.181825 20.759444
26.793595 11.918595 20.843595
27.994381 9.586921 20.752391
19.988928 8.179067 27.549924
19.940951 9.584453 27.588671
20.843595 10.275754 26.793595
21.706535 8.181825 26.038990000000002
20.843595 11.918595 26.793595
21.748272 9.586921 25.998759
25.813278 8.179067 26.209242999999997
25.761782 9.584453 26.175312
26.793595 10.275754 26.793595
27.774784999999998 8.181825 27.386353
26.793595 11.918595 26.793595
27.825798000000002 9.586921 27.413887
25.719613 33.508123 21.229665999999998
25.662578 32.102737000000005 21.253121
26.793595 31.411436 20.843595
27.870042 33.505365 20.44944
26.793595 29.768595 20.843595
27.925379 32.100269 20.432171
19.805616 33.508123 14.41916
19.74843 32.102737000000005 14.396077
20.843595 31.411436 14.893595
21.888986 33.505365 15.36397
20.843595 29.768595 14.893595
21.940635 32.100269 15.390291999999999
27.78008 33.508123 26.219717
27.831934999999998 32.102737000000005 26.186336999999998
26.793595 31.411436 26.793595
25.806148 33.505365 27.375868999999998
26.793595 29.768595 26.793595
25.754844000000002 32.100269 27.402859
26.66556 33.508123 16.027656999999998
26.661409 32.102737000000005 16.089185999999998
26.793595 31.411436 14.893595
26.915467 33.505365 13.753752
26.793595 29.768595 14.893595
26.924417000000002 32.100269 13.696477
23.818595 30.812045 10.875145
30.812045 10.875145 23.818595
10.442934000000001 17.868595 23.818595
10.875145 23.818595 10.875145
10.875145 17.868595 30.812045
30.812045 30.812045 23.818595
17.868595 10.875145 30.812045
17.868595 30.812045 30.812045
30.812045 23.818595 30.812045
23.818595 17.868595 10.442934000000001
23.818595 23.818595 31.244256
10.875145 30.812045 23.818595
23.818595 17.868595 31.244256
10.442934000000001 23.818595 23.818595
31.244256 17.868595 23.818595
30.812045 30.812045 17.868595
23.818595 31.244256 17.868595
23.818595 30.812045 30.812045
17.868595 10.442934000000001 17.868595
11.918595 11.918595 17.868595
11.918595 11.918595 23.818595
11.918595 17.868595 11.918595
11.918595 17.868595 17.868595
11.918595 23.818595 17.868595
11.918595 29.768595 17.868595
17.868595 11.918595 11.918595
17.868595 11.918595 23.818595
17.868595 17.868595 11.918595
17.868595 17.868595 17.868595
17.868595 17.868595 23.818595
17.868595 17.868595 29.768595
17.868595 23.818595 11.918595
17.868595 23.818595 17.868595
17.868595 23.818595 23.818595
17.868595 29.768595 11.918595
17.868595 29.768595 17.868595
17.868595 29.768595 23.818595
23.818595 11.918595 11.918595
23.818595 11.918595 17.868595
23.818595 11.918595 23.818595
23.818595 11.918595 29.768595
23.818595 17.868595 17.868595
23.818595 17.868595 23.818595
23.818595 23.818595 11.918595
23.818595 23.818595 17.868595
23.818595 23.818595 23.818595
23.818595 29.768595 23.818595
29.768595 11.918595 17.868595
29.768595 17.868595 11.918595
29.768595 17.868595 17.868595
29.768595 17.868595 29.768595
29.768595 23.818595 11.918595
29.768595 23.818595 17.868595
29.768595 23.818595 23.818595
19.598455 13.230739999999999 34.081942
22.092226 16.545355 34.087651
22.143594 16.623061 31.590646
19.542081 13.164987 31.586135
14.454722 12.863114 34.081942
15.340265 16.915445 34.087651
15.354576 17.007489 31.590646
14.430879000000001 12.77985 31.586135
19.024075 25.791193 34.081942
22.661725999999998 27.784449 34.087651
22.74054 27.8341 31.590646
18.945622999999998 25.754496 31.586135
20.647279 22.911666999999998 34.081942
21.029867 18.781389 34.087651
21.044088 18.689331 31.590646
20.6448 22.998242 31.586135
13.535163 13.321932 7.605248
16.240442 16.466298000000002 7.599539
16.305379 16.533082 10.096544
13.482973 13.252811 10.101054999999999
27.368807999999998 18.847451 7.605248
26.211186 22.830600999999998 7.599539
26.190682 22.921466 10.096544
27.398229 18.76599 10.101054999999999
22.756122 20.032606 7.605248
18.933631 21.643238 7.599539
18.850151 21.684565 10.096544
22.837917 20.004128 10.101054999999999
28.254853999999998 28.270139 7.605248
25.343824 25.315233 7.599539
25.274534 25.252976999999998 10.096544
28.311584 28.335585 10.101054999999999
7.605248 28.1154 25.191005999999998
7.599539 25.468823 28.384938
10.096544 25.413864999999998 28.460147
10.101054999999999 28.174798 25.127971
7.605248 20.817536 24.71639
7.599539 20.860125 28.864131
10.096544 20.866747999999998 28.957045
10.101054999999999 20.822166 24.629903000000002
7.605248 16.594099 27.986804
7.599539 13.204073 25.596554
10.096544 13.124818 25.547608999999998
10.101054999999999 16.661561 28.041121
7.605248 28.789458 21.419784
7.599539 24.806874 20.260215000000002
10.096544 24.716019 20.239666999999997
10.101054999999999 28.870904 21.449244
34.081942 22.824873 26.169096999999997
34.087651 18.871631 27.42506
31.590646 18.781301 27.447809
31.586135 22.90558 26.137667
34.081942 18.856994 14.286242999999999
34.087651 22.826465000000002 15.48993
31.590646 22.913797 15.522337
31.586135 18.772677 14.26644
34.081942 27.516828999999998 28.741001999999998
34.087651 26.063871000000002 24.85584
31.590646 26.036613 24.766768
31.586135 27.552273 28.820028
34.081942 18.933218 20.027556
34.087651 22.75144 21.648282
31.590646 22.83481 21.689829
31.586135 18.851498 19.998862
14.669449 7.605248 16.958835999999998
15.107619 7.599539 12.834084
15.123078 10.096544 12.742226
14.665804999999999 10.101054999999999 17.04537
28.865225 7.605248 20.689286
24.729437 7.599539 21.006818
24.636298 10.096544 21.008283000000002
28.950984 10.101054999999999 20.677169
22.406197000000002 7.605248 25.42475
19.292323 7.599539 28.165071
19.218778999999998 10.096544 28.222239
22.467439000000002 10.101054999999999 25.363505999999997
28.572622 7.605248 27.866220000000002
25.015505 7.599539 25.732564
24.938688 10.096544 25.679876
28.649583 10.101054999999999 27.90595
28.744929 34.081942 20.131024
24.845398 34.087651 21.544966
24.759922 31.590646 21.581989
28.828068 31.586135 20.106747
22.737280000000002 34.081942 15.747654
18.959981 34.087651 14.033717
18.87297 31.590646 14.000461999999999
22.813712 31.586135 15.788393
25.003245 34.081942 27.847212
28.582885 34.087651 25.751561
28.660258 31.590646 25.699693999999997
24.925864999999998 31.586135 27.886118999999997
27.016254999999997 34.081942 12.828193
26.562272 34.087651 16.951235
26.557731999999998 31.590646 17.044274
27.031198999999997 31.586135 12.742882
22.862841 31.336832 10.927696000000001
24.650018 31.489105 11.07997
23.942926 30.318551 9.909416
24.699423 29.237573 11.917539
23.052350999999998 29.097237 11.777203
23.704010999999998 30.176026 12.855992
30.314125 9.90499 23.768577
31.445811 11.036676 22.944595
31.384552 10.975417 24.742613000000002
30.180105 12.860071 23.864692
29.137137 11.817103 24.624078
29.193594 11.87356 22.967015
10.109013000000001 17.890251 22.779529999999998
10.109013000000001 16.95791 24.319373000000002
10.109013000000001 18.757624 24.356882000000002
12.293337000000001 17.848637 24.776203
12.293337000000001 18.707887 23.357075
12.293337000000001 17.049261 23.322506999999998
10.332846 24.763386999999998 10.945209
11.370681999999999 23.721193 9.907373
10.213553000000001 22.971206 11.064501
12.465755 22.947869999999998 11.901399999999999
11.509281 23.908362 12.857875
12.575697 24.599553 11.791459
10.707536 16.83383 31.116671
11.238434999999999 18.469883 31.647569999999998
9.971112 18.302072 30.380247
12.120439999999999 18.82224 29.440475
11.631160999999999 17.314445 28.951195
12.799132 17.469101000000002 30.119167
31.651811 30.444513999999998 23.225854
30.38336 31.712965 23.37565
31.109317 30.987009 24.854281
28.947287 30.059938 24.364867999999998
30.116298 28.890927 24.226815
29.447252 29.559972 22.864102
17.940893 11.372136999999999 31.781272
16.934575 10.316746 30.725881
18.730318 10.2282 30.637335
17.801965 11.50794 28.827975
18.729393 12.480594 29.800629
17.074427 12.562198 29.882233
16.975388 31.423866 30.672459
17.855057 30.313335 31.782989999999998
18.775339 31.407286 30.689039
18.691779 29.157362 29.849863
17.881071 30.180833 28.826392
17.032935000000002 29.172642 29.834583
31.341359 22.865601 30.754966
31.485151 24.654182000000002 30.611174
30.317978 23.936001 31.778348
29.233401 24.696879 29.773824
29.100881 23.048513 29.906343
30.176555 23.710393 28.83067
24.722673 17.355986 10.109013000000001
22.922622999999998 17.341945 10.109013000000001
23.810489 18.907854 10.109013000000001
22.985392 18.341019 12.293337000000001
24.644327 18.353958 12.293337000000001
23.826065 16.910809 12.293337000000001
24.838863 24.016527999999997 31.578177
23.137046 24.603207 31.578177
23.479876 22.83605 31.578177
22.878311 23.636179000000002 29.393853
24.446715 23.095493 29.393853
24.13076 24.724113 29.393853
10.949493 31.358628 24.760586
11.060644 31.469779 22.967358
9.906945 30.316081 23.727841
11.897451 29.217485 22.950450999999997
11.795014 29.115048 24.603099
12.858267999999999 30.178303 23.902234
23.666230000000002 16.840533999999998 31.578177
24.785104 18.250674 31.578177
23.004450000000002 18.514577 31.578177
23.959014999999997 18.816062 29.393853
22.927854999999997 17.516469 29.393853
24.568915 17.273255 29.393853
10.109013000000001 24.828863000000002 24.062487
10.109013000000001 23.524677 22.821731
10.109013000000001 23.102245 24.571566999999998
12.293337000000001 22.887527000000002 23.593823
12.293337000000001 24.089471 24.737309999999997
12.293337000000001 24.478787 23.124652
31.578177 17.042926 24.449780999999998
31.578177 17.734807 22.787952
31.578177 18.828052 24.218053
29.393853 18.629536 23.236891
29.393853 17.991894 24.768441
29.393853 16.984354 23.450452000000002
31.671606999999998 30.424718 18.418829
31.073389 31.022936 16.829917000000002
30.399492 31.696833 18.357039
28.929042 30.078183 17.361496
29.480364 29.52686 18.825846
30.10143 28.905794 17.418442
22.825394 31.578177 17.562528999999998
24.050135 31.578177 18.881765
24.580256000000002 31.578177 17.16149
24.733935 29.393853 18.150666
23.605206 29.393853 16.934852
23.116643999999997 29.393853 18.520267
22.84166 30.797439999999998 31.298885
24.614133 30.575276 31.521049
23.999992000000002 31.771772 30.324554
24.718943 29.734679 29.272545
23.085423000000002 29.939427 29.067797
23.651419 28.83673 30.170494
17.507813 10.109013000000001 16.893935
18.893066 10.109013000000001 18.043478999999998
17.204906 10.109013000000001 18.668371
18.201093 12.293337000000001 18.766847
16.924437 12.293337000000001 17.707421
18.480255 12.293337000000001 17.131518
20.845206 14.888198 34.18719
14.897309 14.889361 34.18719
20.84284 26.788013 34.18719
20.838773999999997 20.846507 34.18719
14.887978 14.894016 7.5
26.790176 20.839119 7.5
20.844917 20.83812 7.5
26.79917 26.792797 7.5
7.5 26.792239 26.788128
7.5 20.839029 26.790298
7.5 14.89894 26.791818
7.5 26.798073 20.840177999999998
34.18719 20.848153999999997 26.796902
34.18719 20.84171 14.888287
34.18719 26.790521000000002 26.798315
34.18719 20.842288 20.838117
14.888735 7.5 14.896442
26.797276 7.5 20.847858
20.8491 7.5 26.794788
26.794131 7.5 26.799201999999998
26.795194 34.18719 20.838193999999998
20.848513 34.18719 14.89085
26.792999 34.18719 26.799196
26.789455999999998 34.18719 14.889775
23.818595 29.768595 11.918595
29.768595 11.918595 23.818595
11.918595 17.868595 23.818595
11.918595 23.818595 11.918595
11.918595 17.868595 29.768595
29.768595 29.768595 23.818595
17.868595 11.918595 29.768595
17.868595 29.768595 29.768595
29.768595 23.818595 29.768595
23.818595 17.868595 11.918595
23.818595 23.818595 29.768595
11.918595 29.768595 23.818595
23.818595 17.868595 29.768595
11.918595 23.818595 23.818595
29.768595 17.868595 23.818595
29.768595 29.768595 17.868595
23.818595 29.768595 17.868595
23.818595 29.768595 29.768595
17.868595 11.918595 17.868595
21.542626000000002 15.820143 29.33084
20.144913 13.965506999999999 29.332915
15.142895 16.027167 29.33084
14.645254 13.758769 29.332915
21.862207 27.34998 29.33084
19.824666 26.235663 29.332915
20.949108 19.687739 29.33084
20.736788 22.000356 29.332915
15.649398999999999 15.774445 12.356349999999999
14.136212 14.012757 12.354275
26.468189 21.957708 12.356349999999999
27.118129 19.728166 12.354275
19.773404 21.292848 12.356349999999999
21.914258 20.392836 12.354275
25.980148 25.965681999999997 12.356349999999999
27.608616 27.62139 12.354275
12.356349999999999 26.051852 27.686317
12.354275 27.535062 25.899317999999997
12.356349999999999 20.853964 27.954211
12.354275 20.832010999999998 25.631971
12.356349999999999 13.945907 26.123503
12.354275 15.842811 27.463291
12.356349999999999 25.679641999999998 20.517644999999998
12.354275 27.908865000000002 21.168674
29.33084 19.737887 27.146507
29.332915 21.95064 26.441522
29.33084 21.954761 15.228924
29.332915 19.731802000000002 14.556816999999999
29.33084 26.385586 25.707010999999998
29.332915 27.200833 27.881556999999997
29.33084 21.912595 21.295674
29.332915 19.774126 20.390009
15.014662999999999 12.356349999999999 13.739265
14.771222 12.354275 16.048813
25.636458 12.356349999999999 20.933988
27.951840999999998 12.354275 20.754324999999998
19.973309 12.356349999999999 27.561539
21.715443 12.354275 26.025881000000002
25.797465 12.356349999999999 26.197893
27.789981 12.354275 27.390855
25.701921000000002 29.33084 21.237782
27.885818 29.332915 20.447928
19.78729 29.33084 14.412601
21.901327 29.332915 15.373914
27.796013 29.33084 26.208536
25.790905 29.332915 27.380209
26.665026 29.33084 16.047114
26.921079000000002 29.332915 13.73893
14.893595 14.893595 14.893595
14.893595 14.893595 20.843595
14.893595 14.893595 26.793595
14.893595 20.843595 14.893595
14.893595 20.843595 20.843595
14.893595 20.843595 26.793595
14.893595 26.793595 14.893595
14.893595 26.793595 20.843595
14.893595 26.793595 26.793595
20.843595 14.893595 14.893595
20.843595 14.893595 20.843595
20.843595 14.893595 26.793595
20.843595 20.843595 14.893595
20.843595 20.843595 20.843595
20.843595 20.843595 26.793595
20.843595 26.793595 14.893595
20.843595 26.793595 20.843595
20.843595 26.793595 26.793595
26.793595 14.893595 14.893595
26.793595 14.893595 20.843595
26.793595 14.893595 26.793595
26.793595 20.843595 14.893595
26.793595 20.843595 20.843595
26.793595 20.843595 26.793595
26.793595 26.793595 14.893595
26.793595 26.793595 20.843595
26.793595 26.793595 26.793595
