132_cspbbr3_3\132_cspbbr3_3.xyz
1.0
38.628786 0 0
0 38.628786 0
0 0 38.628786
Br Cs Pb 
108 54 27 
Cartesian
19.202849 25.397923 10.464966999999998
25.249263 13.490124999999999 16.474376
28.122048999999997 13.134975999999998 19.253517
22.268648999999996 13.524120999999997 13.117774999999998
25.088178 10.564642999999998 13.414958999999998
28.449707 25.151531999999996 25.373495
25.132424 13.234423999999999 10.479964999999998
28.149365 13.598702 25.399859
19.211004 28.202195999999997 25.43045
19.20733 28.276947 19.101401
28.245957999999998 19.273328999999997 13.163580999999999
19.116583999999996 28.31852 13.430917999999998
19.344955999999996 25.418886999999998 28.132199999999997
28.118374 13.505389999999998 13.306690999999999
19.160137 22.116158 25.075111999999997
19.311059 25.452954 22.138239
28.071336 19.511953999999996 19.277448999999997
28.155673999999998 25.373179 19.450435
16.395426999999998 25.014274999999998 19.315855999999997
19.320128999999998 25.475613 16.416697999999997
28.414813 19.31469 25.216093
28.06675 25.27948 13.174309999999998
16.335846999999998 25.111195 13.248489999999999
19.117601999999998 22.316603 13.377727999999998
16.494849 25.159653999999996 25.449856999999998
22.362958 25.077844 19.239902
22.127815 13.157360999999998 19.217397999999996
25.021043999999996 28.191 25.110062999999997
25.443548999999997 22.384579 19.297342
25.491613 25.289424999999998 16.378725
25.313542999999996 25.248649999999998 22.563730999999997
22.209981999999997 25.448048 13.403105999999998
25.010453999999996 22.225792999999996 13.457923999999998
25.357104999999997 25.174435 10.528497999999999
25.345306 22.437886 25.111148
25.3605 19.291736999999998 28.519319999999997
22.47186 25.168813 25.066539999999996
22.255356 19.167977 25.371731999999998
25.395170999999998 16.201413 25.158389999999997
25.138090999999996 19.213893999999996 22.207341999999997
25.256825999999997 10.253397999999999 19.184610999999997
25.051968 25.212396 28.259831
25.126782 16.264456 19.414153999999996
25.534799999999997 19.196168999999998 16.301436
19.209663999999997 19.503935999999996 28.116802
25.0981 28.148718 13.171591
22.463233 19.388650999999996 13.579203999999999
25.048114999999996 16.509437 13.326157999999998
25.183389999999996 19.207179999999997 10.555322999999998
25.099911 28.290176 19.546314
25.44108 13.470785999999999 28.165775999999997
22.038089999999997 13.339928999999998 25.410857
25.464551999999998 10.274509999999998 25.302293
25.435774 13.544111999999998 22.302941999999998
22.157241999999997 19.158243 19.31722
16.539779 19.495917 25.351239999999997
19.299829 22.489592 19.244191
13.535587999999999 25.127480999999996 16.235856
19.380473 13.221257999999999 10.566146999999999
10.188545999999999 19.187725 19.271178
13.247177999999998 28.368264 25.134166999999998
13.376135999999999 10.548822999999999 25.032057
13.448334999999998 28.059828999999997 19.519554
13.235516999999998 28.082953999999997 13.552623999999998
10.185393999999999 13.227884999999999 25.20883
13.189815999999999 25.187070999999996 28.226675999999998
13.311015999999999 13.50415 28.411716
10.299306999999999 25.430260999999998 25.280876999999997
13.210553999999998 22.489020999999997 25.315288
13.377012999999998 25.477254 22.228845999999997
19.463864 10.462983999999999 13.469731999999999
10.342232999999998 25.448639999999997 19.210682
19.406701999999996 16.557698 25.392106999999996
13.324632999999999 19.158870999999998 10.180987999999997
10.436007999999998 25.447930999999997 13.384598999999998
13.642886999999998 22.302357 13.381628
13.597302999999998 25.227667999999998 10.438787999999999
13.550701999999998 16.231545999999998 13.249112999999998
10.235329999999998 19.414305 13.483735999999999
13.471829999999999 19.443542 28.153060999999997
10.602130999999998 19.413491 25.303449
13.553839999999997 16.440112999999997 25.261084999999998
13.506521999999999 19.530062 16.418017999999996
13.596160999999999 19.459856 22.288631
13.210189999999999 22.105373999999998 19.277969
16.290239 13.560201999999999 13.162239999999999
13.533316 13.210228999999998 22.275174
19.429308999999996 13.536016999999998 16.193209
19.476982999999997 19.160835999999996 22.344255999999998
13.593560999999998 13.191987999999998 10.399890999999998
16.227043 19.271554 19.125166
19.175266 16.251883 19.202627
19.146994 19.221387999999997 16.216593999999997
13.261219999999998 10.235942999999999 13.396247999999998
16.283281 19.100842 13.195186999999999
19.260960999999998 16.474697999999997 13.163052999999998
10.400233999999998 13.202736999999999 13.264150999999998
19.510453 19.291536999999998 10.544489999999998
19.487603 13.231641999999997 28.401757999999997
10.442581999999998 13.107320999999999 19.267516999999998
16.172691999999998 13.455566999999999 25.283008
13.529145999999997 16.423244999999998 19.345442999999996
19.216067 10.490144999999998 19.125828
19.194943 13.474690999999998 22.508868999999997
13.220317999999999 10.527915999999998 19.514868
13.438208999999999 13.549882999999998 16.291071
16.343268 13.454957999999998 19.591195
19.509588 10.491385999999999 25.225020999999998
28.240941999999997 16.558035999999998 27.737644999999997
21.989714999999997 22.673547 21.987164999999997
28.374867 10.073942999999998 22.131811999999996
27.91998 22.572224999999996 28.14799
27.869939 16.405561999999996 10.013208999999998
10.405940999999999 16.895784999999997 16.170488999999996
28.397692 22.636806999999997 22.088604999999998
27.921640999999997 10.209157999999999 16.298496
27.84469 16.733151 16.535881999999997
27.938630999999997 22.636899999999997 16.650619999999996
22.307291999999997 27.954970999999997 10.830904999999998
22.592686999999998 27.838096999999998 28.331646
28.505271999999998 16.629635999999998 21.954915999999997
10.685863999999999 10.411773999999998 16.087567999999997
22.162791999999996 27.91444 16.838441999999997
28.161759999999997 22.792322 10.528013999999999
22.156643 28.410107999999997 22.590998
22.464375999999998 21.99497 27.840902
10.617820999999998 16.249413999999998 10.801950999999999
16.6738 16.341015999999996 28.498123
22.549742 21.912784 16.430531
16.12204 22.020149999999997 10.584935999999999
16.530240999999997 16.381228 22.848557999999997
16.286901999999998 22.455835999999998 16.720893999999998
15.916588999999998 16.34999 16.759593
28.283037999999998 27.896309 16.806877
16.125943 22.278575999999997 21.852612999999998
15.898587999999998 10.303530999999998 28.355915
16.0738 22.06855 28.641994999999998
16.658924999999996 28.498047 10.054199999999998
16.169280999999998 28.636903999999998 16.201726999999998
16.482628 10.026234999999998 22.324657
16.460158999999997 27.659626 22.264428
15.875219999999999 28.459705999999997 28.372379
22.646592999999996 10.565352999999998 10.540664999999999
16.425476999999997 10.169980999999998 16.8611
21.987018 10.771472999999999 16.676287
16.248037999999998 10.770654999999998 10.124755999999998
9.954301 16.23368 28.585925
22.55044 22.634565 10.347302999999998
10.625282999999998 22.561683 10.744424999999998
22.34932 16.583865 27.822169
10.485199999999999 22.755345999999996 16.321236999999996
22.738110999999996 16.615895 22.147178999999998
10.073207999999997 16.631517 22.381918999999996
10.601341999999999 22.426263999999996 22.602107999999998
10.989096999999997 22.300613 28.207887999999997
22.517136999999998 16.743239 10.097893999999998
22.783226 10.719907 28.2568
10.096363999999998 27.769198999999997 16.329214
10.106436999999998 28.354249 22.510424
22.018121999999998 10.621450999999999 22.127387
22.445399 15.996443 16.788542
28.318884999999998 28.609865999999997 21.899468
13.205240999999997 13.591606999999998 13.180160999999998
25.444336999999997 25.159422 13.543368999999998
13.510896999999998 25.04958 13.145351999999999
25.471120999999997 19.480168999999997 25.466269999999998
13.312251999999997 25.000327999999996 19.113224
13.257787999999998 25.101998 25.453502999999998
24.944278999999998 19.386701 13.217705999999998
25.3818 13.187007999999999 25.432313
19.202464999999997 13.480389999999998 13.662062999999998
25.039178999999997 25.044931999999996 19.470686
25.212934999999998 13.161614999999998 19.230919999999998
25.390684 13.498887999999997 13.486717999999998
19.127053999999998 13.287219999999998 25.042903
19.148396999999996 19.157168999999996 13.395610999999999
19.376545 25.029303999999996 25.529559
19.102171 25.095646 19.378645
19.194903999999998 19.424422999999997 19.525705
19.521088 25.336487999999996 13.549696999999998
19.540349 19.403416 25.511173
19.566201 13.453981999999998 19.356303999999998
13.256528999999999 19.513832 25.370866999999997
25.339038 19.440889 19.114013999999997
13.381940999999998 19.565537 13.329286999999997
13.216590999999998 13.162525999999998 25.272011999999997
13.552394999999999 13.478761999999998 19.444564999999997
25.204629999999998 25.521403 25.232096
13.482001999999998 19.581056999999998 19.255312999999997
