142_cspbbr3_4\142_cspbbr3_4.xyz
1.0
44.784561999999994 0 0
0 44.784561999999994 0
0 0 44.784561999999994
Br Cs Pb 
240 112 64 
Cartesian
13.351707999999999 19.284321999999996 10.357104999999999
31.154809999999998 31.43302 22.513202999999997
25.505381 25.186607 10.524585999999998
25.264722999999996 22.572187999999997 13.597555999999997
22.561039 25.528273999999996 13.294629999999998
25.377551999999998 25.155977999999998 16.446355999999998
25.599894999999997 22.491341 19.52125
22.573839 25.235270999999997 19.531692
25.471633999999998 19.562787 34.399218
25.456595999999998 25.235713999999998 22.57812
13.337946999999998 13.436271999999999 34.471196
25.514066999999997 22.53824 25.267971
22.463124999999998 25.211889 25.197743
31.495001 28.318285999999997 19.374753999999996
10.383223999999998 13.348156 31.461402999999997
25.220475999999998 25.166984999999997 28.20299
25.234969999999997 22.269526 31.079086999999998
22.512555 25.292666999999998 31.502039
31.156916 31.533534999999997 16.373844
25.464351999999998 25.213122 34.403839999999995
13.421357999999998 10.647973999999998 31.412958999999997
13.595292999999998 13.491574999999997 28.602667999999998
25.537135 31.416079999999997 10.317969999999999
25.319021999999997 28.437731999999997 13.623311999999999
28.473094 31.478213999999998 19.258036999999998
22.212901 19.483888999999998 31.134473
10.581114999999999 25.519878999999996 25.281062
25.344079 19.682716999999997 28.235408
13.718591999999997 22.257327999999998 25.297421999999997
25.38686 10.568293999999998 19.243968
22.625754999999998 13.545735999999998 19.462691
28.122446999999998 31.301645999999998 31.262079999999997
34.108532 31.420005 25.264755
25.528344999999998 13.303499999999998 22.459891999999996
25.264778999999997 10.527712 25.094402
22.186479999999996 13.583475999999997 25.448456
31.118921999999998 28.290857 31.351710999999998
10.325786999999998 19.267481999999998 19.536988
25.344475 13.311672999999999 28.246599
25.321779999999997 10.679084999999999 31.333402999999997
22.237308999999996 13.304529999999998 31.232286
31.126793999999997 31.420530999999997 28.456825
25.286879999999996 16.542969 31.189338999999997
25.412785 13.580913999999998 34.152762
13.209102999999999 19.393155 16.544145999999998
25.179731999999998 19.235418 10.540565999999998
25.586921999999998 16.328884 13.440404999999998
22.270961 19.236905999999998 13.528768999999999
25.17384 19.558819 16.48968
25.443385999999997 16.288657999999998 19.297770999999997
22.283817999999997 19.580008999999997 19.564298
28.495956 31.177919999999997 25.304916999999996
10.295873999999998 19.255905999999996 13.357633999999997
25.552502999999998 19.522115 22.507326999999997
25.340567999999998 16.294181 25.176636
22.15014 19.347464 25.238198999999998
31.421772999999998 28.210724 25.513472
22.338015999999996 31.353762 13.645107
13.630958999999999 16.336968999999996 19.302182
13.314078999999998 16.319467 13.678151999999999
28.510493999999998 31.101052999999997 13.508444999999998
25.467005999999998 28.481924 19.299803999999998
31.488321 13.342171999999998 28.194629
31.367113999999997 10.333521999999999 31.481257999999997
28.541421999999997 13.508755999999998 31.359163
28.261401 25.575468 25.369414
31.320863999999997 13.271867999999998 34.187576
31.09819 22.373047 25.443837
13.633755999999998 13.307344999999998 16.270373999999997
31.141344 19.442818 10.613462999999998
31.485536999999997 16.457576 13.651367999999998
28.544096999999997 19.253346 13.507274999999998
31.403941 25.296863 22.207641
31.174096 19.263464 16.394194
31.524582 16.525529999999996 19.588331999999998
28.2506 19.558524 19.315832999999998
10.311085999999998 13.442431999999998 13.532414
31.565464 19.366701 22.510703
31.4047 16.581902999999997 25.569688
28.454117999999998 19.567501 25.511319
13.575819 10.565708999999998 13.321267999999998
31.266935999999998 19.218398999999998 28.337068
31.427054 16.303428999999998 31.372427
28.474914 19.241431999999996 31.182972
31.095948999999997 19.261649 34.397769
28.407338999999997 25.587531999999996 19.268456
13.550370999999998 13.417524999999998 10.662021
31.369995999999997 25.526355 10.398063999999998
31.396100999999998 22.421889999999998 13.308162
28.175310999999997 25.297024999999998 13.286043
31.529688 22.574885 19.458275
13.656733 10.310585999999999 19.508656
25.185817 31.202244999999998 16.642187
28.215017999999997 13.346884 25.414925999999998
31.341324999999998 13.365982999999998 22.583336
22.326307999999997 31.255283 19.681131
34.475361 31.256843999999997 31.383891
25.461541999999998 31.237506999999997 22.536125999999996
25.149532999999998 28.167385999999997 25.398379
22.290489 31.429958999999997 25.115228
31.137612999999998 28.499015 13.452106999999998
10.293748999999998 13.345042 25.227345
25.503183 31.415014 28.240467
25.198774999999998 28.342503999999998 31.153682
22.240792999999996 31.479430999999998 31.40647
31.384021999999998 31.566256 10.594935999999999
25.262173999999998 31.118011 34.166864
13.436482999999999 10.477614999999998 25.628619999999998
25.502793999999998 34.379916 13.550264999999998
25.482934 34.125081 19.385585999999996
31.409207 25.493468 34.181996
25.504255999999998 34.097017 25.483098
25.578837999999998 34.272128 31.515304999999998
28.216082 25.126784999999998 31.310976
31.485439 22.468283999999997 31.496951
13.622932999999998 13.509549999999999 22.568984
31.193872 13.304575999999999 10.415649999999998
31.405375 10.464884999999999 13.289547999999998
28.207929 13.331601999999998 13.634485999999999
31.180971 25.197699 28.209948999999998
31.521807 13.548919999999999 16.251845
31.226377 10.638030999999998 19.280547999999996
28.404427 13.212881999999999 19.562226
10.687002999999999 13.385340999999999 19.294562999999997
31.211786999999998 10.688321999999998 25.227359
22.165484999999997 13.447653999999998 13.491788999999999
25.139091999999998 13.34227 16.345387
25.180053 13.402096999999998 10.358620999999998
34.10102199999999 19.580405 31.258875999999997
34.39765499999999 31.379893 13.600083999999999
19.601872 13.697211999999999 16.418574
19.579129 10.260970999999998 19.332783
16.306621 13.643721999999999 19.587476
10.551473999999999 25.577914 13.518895999999998
19.547783 13.589258999999998 22.445505999999998
19.667884 10.368209999999998 25.342759
16.618786 13.487574999999998 25.452533
13.448424 22.49906 13.623095
19.399197 13.499688999999998 28.563439
19.614748999999996 10.498774999999998 31.447025999999997
16.491450999999998 13.650001999999999 31.225348999999998
16.578156 13.641391999999998 13.605709999999998
34.467622 19.472713 25.477244999999996
13.572402999999998 25.558715 10.618725999999999
19.474792 19.271112 10.321100999999999
19.525607 16.6301 13.474238999999999
16.548550999999996 19.282688 13.342059999999998
34.385548 19.226208999999997 19.479574
19.452337999999997 19.575764999999997 16.346332999999998
19.616757 16.39494 19.514454999999998
16.616455 19.239698999999998 19.415442999999996
25.498715999999998 10.631395999999999 13.608652
19.297888 19.325846999999996 22.604385999999998
19.403553 16.656661 25.531506
16.228441999999998 19.314425999999997 25.437875
34.220565 19.622218999999998 13.270883999999999
19.555746 13.607060999999998 34.402229
13.731277999999998 19.445482999999996 34.213251
19.374266 10.443287999999999 13.662781999999998
13.445654999999999 34.152245 31.430287
13.264495999999998 25.322217 22.491200999999997
13.507272999999998 25.188480999999996 28.506816999999998
13.357536999999999 22.318402 31.124295999999998
10.707465999999998 25.218491 31.379296
13.554775 25.407280999999998 34.101417
34.206827 25.498866 31.110239999999997
13.414734999999999 31.483635 10.436956999999998
13.594452999999998 28.49207 13.653669999999998
10.306762999999998 31.382329 13.274825999999997
10.641891999999999 25.238746999999996 19.586178999999998
13.49195 31.189677 16.287077999999998
13.501599999999998 28.594541999999997 19.260303999999998
10.282150999999999 31.288375 19.258654
19.359301 13.565833999999999 10.716800999999998
34.117005 25.398160999999998 25.167651999999997
13.476598999999998 31.141668999999997 22.243164999999998
13.385698999999999 28.238787 25.176600999999998
10.651810999999999 31.137954999999998 25.333228999999996
13.653555999999998 25.510894 16.308839999999996
13.308513999999999 31.444205999999998 28.301676999999998
13.581592999999998 28.1831 31.442745
10.325591999999999 31.250891999999997 31.264149999999997
34.435838 25.211461999999997 19.433211999999997
13.557187999999998 31.266871 34.10757
13.370846999999998 34.429712 13.317394999999998
13.590428999999999 34.403757 19.320334
34.317231 25.498751999999996 13.302643999999999
13.439046999999999 34.472570999999995 25.525017
13.673641999999997 22.312051999999998 19.444789999999998
19.227905999999997 19.282933 28.189241
31.353651 25.229074999999998 16.583463
16.591241999999998 19.411732 31.463057999999997
19.494346 22.566665 31.296630999999998
16.404387 25.267415 31.161516
34.038999 13.551056999999998 19.471852999999996
19.583903999999997 25.608537 34.348
19.208754999999996 31.473841 10.511635999999998
19.282956 28.447018999999997 13.319348999999999
16.255513 31.510434999999998 13.501674999999999
34.4172 13.648095999999999 13.470702999999999
19.539077999999996 16.328519999999997 31.240734
31.324374 34.451133 19.294320999999997
19.352697 34.330002 13.704979999999999
19.403629 31.527189 16.369493
19.248580999999998 28.502512 19.45785
16.65854 31.18263 19.503894
19.186462999999996 31.464895 34.244936
10.432071999999998 19.574163999999996 25.485497
31.284391 34.129557 25.437708
19.556815999999998 31.495400999999998 22.498258999999997
19.590606 28.566129 25.449998
16.322874999999996 31.187942 25.418131
31.220343 34.443283 31.084024999999997
16.676688 31.473232 31.397467
13.453889999999998 16.258311 25.221618999999997
19.343054 31.485583 28.255453
13.279480999999999 19.241791999999997 28.463884
19.308352 25.406041 28.125321999999997
19.430066999999998 25.187140999999997 16.221315999999998
19.578480999999996 19.217607 34.397065
34.153242999999996 13.374351999999998 31.456349999999997
34.269724000000004 31.14236 19.574115
13.268753999999998 19.331291 22.298189
19.62625 25.27306 10.451928999999998
19.480335999999998 22.304057 13.255419999999997
16.149787999999997 25.409658 13.478673999999998
31.143883 31.410878999999998 34.448675
10.621304999999998 19.623573 31.484316999999997
19.384670999999997 34.254758 19.699925999999998
19.182527999999998 22.388467 19.564958999999998
16.344358999999997 25.265901999999997 19.282742
19.462194999999998 28.42769 31.503266999999997
19.269247999999997 25.267359 22.422171999999996
13.582195999999998 16.411994 31.159906999999997
19.566024999999996 34.105258 25.2657
16.387442 25.263647 25.187610999999997
19.259152 34.251838 31.190897
31.105922999999997 34.234788 13.546902999999999
34.368744 13.285046999999999 25.231804999999998
19.23809 22.230798 25.406375999999998
34.164632 28.81908 10.341031
28.00415 28.581222999999998 34.555719
34.509753999999994 22.70713 28.079000999999998
34.561291 33.985609000000004 16.279367
34.598541 22.663673 34.651103
28.369491 34.358156 21.891897999999998
28.739357 34.4584 10.356447999999999
28.196236 22.607150999999998 21.979979999999998
28.263976 33.739545 16.318855
34.074501 28.025047999999998 34.08505
28.082570999999998 28.156671 28.767463999999997
34.491369 16.070918 10.488452999999998
28.158122 28.641952999999997 16.096058999999997
34.126793 28.829393999999997 16.459685999999998
33.926562 10.656991999999999 28.657607
34.477865 16.642070999999998 22.747351
34.548283 28.011162 28.424118
27.909640999999997 28.190582 22.164132
28.613391999999997 28.572468999999998 10.712576999999998
34.136497 22.775354 21.986202999999996
34.667965 16.158783999999997 28.046011
28.16605 22.269519 33.909029999999994
34.079178 10.679876999999998 16.186335999999997
34.694939 16.59252 34.061507
34.501129 28.116640999999998 22.121277999999997
33.901565 22.329127 10.174394999999999
28.241363 22.764836 28.502791
34.041272 22.179596999999998 16.177982
28.769371999999997 33.959616 34.264615
34.639362999999996 10.109155999999999 22.606281
34.028117 16.071413999999997 16.816519
22.054108999999997 10.928106999999999 34.502793
27.994432999999997 22.497523 10.775716999999998
16.861427999999997 10.312843999999998 16.7045
16.569340999999998 11.025440999999999 28.406896
16.624121 10.801995999999999 34.785042
16.120946999999997 16.433944999999998 10.986417999999999
16.448746 15.993151999999998 16.635672999999997
16.650544999999997 16.740654999999997 22.507628999999998
16.811049999999998 16.526622 28.295213999999998
16.583658999999997 10.407065999999999 10.000479999999998
16.966915999999998 16.467564 34.556833
16.641917999999997 22.167454 16.7812
16.177941999999998 22.697566 22.353206999999998
16.802243999999998 22.880167 28.333817
16.165886 22.519135999999996 33.816975
16.846538 28.343206 10.941282999999999
16.681331 28.539299 16.747640999999998
16.043329999999997 28.073096 22.087293
16.198656 22.684184 10.365970999999998
16.332451999999996 27.858507 28.255139
10.577615999999999 34.004246 27.974428
10.729156999999999 34.636469 16.145426
10.773503999999999 10.084332999999999 16.618948
10.468291999999998 10.854992 21.945608999999997
10.84837 10.335852 28.215052999999997
10.209476999999998 16.755066 10.851806999999999
10.106002999999998 16.484578 22.017314
10.129080999999998 16.706218 28.276221999999997
10.232782999999998 16.697315 34.589009
10.486036999999998 34.700630999999994 22.600239
10.836690999999998 22.717104 10.233344999999998
10.328995999999998 22.315554999999996 27.916278
10.195446999999998 22.222405 34.102222
10.881244999999998 28.177732 10.130423999999998
10.308013999999998 28.823604999999997 16.581853
10.249799999999999 28.776692999999998 22.309070999999996
10.838387999999998 28.539113999999998 28.670099999999998
10.899036999999998 28.652524999999997 34.480126
10.330880999999998 22.040343 16.135980999999997
16.677324 28.049882999999998 33.890353999999995
16.652654 34.459371999999995 10.103048999999999
16.668218 34.376794 16.054980999999998
22.335670999999998 28.01777 27.885948
22.660583 28.069049999999997 34.000695
22.958546999999996 34.475553999999995 10.519991999999998
22.638986 34.67002299999999 16.122452
22.763821 34.276377000000004 22.075584999999997
22.050992 34.2855 28.197471
22.553243 34.398805 34.630822
22.519229 28.710694 22.844099
27.967094999999997 10.535699 10.402288999999998
27.959906999999998 10.727144 22.773816999999998
28.139059999999997 10.492122999999998 28.892854
28.608406 10.247976999999999 34.556585
28.750543999999998 16.696908999999998 10.751365999999999
27.985191999999998 16.784896999999997 16.350220999999998
28.542171 16.083924 22.080762
28.297275 16.277822999999998 27.988197
28.386509999999998 10.222686999999999 16.794385
22.518569999999997 28.339425 15.949295
22.099083999999998 28.164692 10.826405999999999
22.053325 21.963976 34.389449
16.486167 33.74914 22.162494
16.285415 34.668758 28.412416999999998
16.156162 33.990187999999996 34.002739
22.569166 10.040368999999998 10.489683999999999
22.478617999999997 10.284648999999998 16.911147
22.804063999999997 10.297028 22.717665999999998
22.422413999999996 10.306083999999998 28.760178
34.781591 34.367343999999996 22.44377
22.152282999999997 16.027437999999997 10.735938999999998
22.362256 16.158687999999998 16.005111
22.470356 16.954648999999996 22.667648
22.676769999999998 16.591651999999996 28.061694
21.91528 16.162682999999998 34.435607999999995
22.090227999999996 22.657909999999998 10.053542999999998
22.643311999999998 22.853353 16.495815
22.646516 22.636629 22.723387
22.500958999999998 22.779839 28.512166999999998
28.09892 22.719845 16.062502
34.088665999999996 34.607471999999994 28.625192
13.292571999999998 13.396239999999999 13.171609999999998
25.132167 13.645998999999998 31.262093
25.645452999999996 13.571260999999998 25.471640999999998
25.150819999999996 13.698198999999999 19.542938
25.537262 13.615300999999999 13.571162999999999
19.498646 31.219808999999998 31.518085999999997
31.225955 25.622144999999996 19.608807999999996
19.642953 31.476772999999998 19.474052
19.213822 31.474964 13.564767999999999
19.380845 25.091783999999997 31.133059999999997
19.699658999999997 25.543247 25.392699999999998
19.614720999999996 25.460189999999997 19.523688999999997
19.526092 25.162250999999998 13.508844999999997
19.466800999999997 19.530541999999997 31.080001
19.521332 19.625335999999997 25.567358999999996
19.722051 19.501749999999998 19.274102999999997
19.395716 19.702453999999996 13.350870999999998
19.270996999999998 13.691703999999998 31.232765999999998
19.491205 13.557415999999998 25.027898
19.353263999999996 13.240483999999999 19.667465
19.486340999999996 13.288387999999998 13.196229999999998
13.745348999999997 31.165885 31.458903
13.481661999999998 31.414343 25.575787
13.471362999999998 31.205769999999998 19.223437999999998
31.501201 31.066723999999997 31.232720999999998
13.491682999999998 31.551761 13.282174999999999
25.520749 19.112932999999998 13.512729999999998
25.259481 19.463737 25.028754999999997
31.479207 25.190136 13.627104
31.214373 19.237063999999997 31.532576
31.100448 19.444122 25.125007999999998
31.480898 25.552032999999998 25.533672
31.584939 19.600299999999997 19.369245999999997
31.029383 19.444014 13.559417999999997
31.193278999999997 13.641480999999999 31.436296
31.240783999999998 13.684718999999998 25.131698999999998
31.286399999999997 25.319936 31.670226
31.427298999999998 13.674884999999998 19.161723
31.335514 13.525821999999998 13.128885999999998
31.547575 31.439007999999998 13.430936999999998
25.436913999999998 31.173053 31.489269999999998
25.264756 31.568709 25.590158
25.153404 31.138754 19.634577
25.221286999999997 31.507931999999997 13.323421999999999
31.162542 31.189169 19.319802
25.218946 25.429719 31.466404999999998
25.366076 25.250289 25.55804
25.209297 25.301412 19.579634
25.579579 25.522180999999996 13.687362999999998
31.476988 31.427497 25.172952
25.378062999999997 19.252228 31.076213999999997
25.518479999999997 19.649667 19.489005999999996
13.651836999999999 25.483967 31.162623999999997
19.601643 31.242621999999997 25.168374
13.629410999999998 13.605298999999999 31.395979999999998
13.498872999999998 19.712422999999998 19.206286999999996
13.664272999999998 25.512710999999996 19.288342999999998
13.276502999999998 19.515391 13.603216999999999
13.206793999999999 13.597915999999998 25.307327
13.387968999999998 25.686635 25.483185
13.625726999999998 25.314563999999997 13.719682999999998
13.591561999999998 19.497515999999997 31.525631999999998
13.239693999999998 19.524216 25.479293
13.353938999999999 13.777731999999999 19.387688999999998
