3_train/185_cspbbr3_MA-PhP_3_0.40\185_cspbbr3_MA-PhP_3_0.40.xyz
1.0
44.215118000000004 0 0
0 44.215118000000004 0
0 0 44.215118000000004
Br C Cs H N O P Pb 
84 166 32 276 22 72 24 27 
Cartesian
16.157559 16.157559 13.182559
16.157559 13.182559 16.157559
13.182559 16.157559 16.157559
16.157559 16.157559 19.132559
13.182559 16.157559 22.107559000000002
16.157559 16.157559 25.082558999999996
13.182559 16.157559 28.057558999999998
16.157559 16.157559 31.032559
16.157559 22.107559000000002 13.182559
16.157559 19.132559 16.157559
16.157559 22.107559000000002 19.132559
16.157559 19.132559 22.107559000000002
13.182559 22.107559000000002 22.107559000000002
16.157559 22.107559000000002 25.082558999999996
16.157559 19.132559 28.057558999999998
16.157559 22.107559000000002 31.032559
16.157559 25.082558999999996 16.157559
16.157559 28.057558999999998 19.132559
16.157559 25.082558999999996 22.107559000000002
13.182559 28.057558999999998 22.107559000000002
16.157559 28.057558999999998 25.082558999999996
16.157559 25.082558999999996 28.057558999999998
16.157559 31.032559 16.157559
16.157559 31.032559 28.057558999999998
22.107559000000002 16.157559 13.182559
22.107559000000002 13.182559 16.157559
19.132559 16.157559 16.157559
22.107559000000002 16.157559 19.132559
19.132559 16.157559 22.107559000000002
22.107559000000002 16.157559 25.082558999999996
22.107559000000002 13.182559 28.057558999999998
19.132559 16.157559 28.057558999999998
22.107559000000002 22.107559000000002 13.182559
22.107559000000002 19.132559 16.157559
19.132559 22.107559000000002 16.157559
22.107559000000002 22.107559000000002 19.132559
22.107559000000002 19.132559 22.107559000000002
19.132559 22.107559000000002 22.107559000000002
22.107559000000002 22.107559000000002 25.082558999999996
22.107559000000002 19.132559 28.057558999999998
19.132559 22.107559000000002 28.057558999999998
22.107559000000002 28.057558999999998 13.182559
22.107559000000002 25.082558999999996 16.157559
19.132559 28.057558999999998 16.157559
22.107559000000002 28.057558999999998 19.132559
22.107559000000002 25.082558999999996 22.107559000000002
19.132559 28.057558999999998 22.107559000000002
22.107559000000002 28.057558999999998 25.082558999999996
22.107559000000002 25.082558999999996 28.057558999999998
19.132559 28.057558999999998 28.057558999999998
22.107559000000002 28.057558999999998 31.032559
22.107559000000002 31.032559 28.057558999999998
25.082558999999996 16.157559 16.157559
28.057558999999998 16.157559 19.132559
28.057558999999998 13.182559 22.107559000000002
25.082558999999996 16.157559 22.107559000000002
28.057558999999998 16.157559 25.082558999999996
28.057558999999998 13.182559 28.057558999999998
25.082558999999996 16.157559 28.057558999999998
28.057558999999998 16.157559 31.032559
28.057558999999998 19.132559 16.157559
25.082558999999996 22.107559000000002 16.157559
28.057558999999998 22.107559000000002 19.132559
28.057558999999998 19.132559 22.107559000000002
25.082558999999996 22.107559000000002 22.107559000000002
28.057558999999998 22.107559000000002 25.082558999999996
28.057558999999998 19.132559 28.057558999999998
25.082558999999996 22.107559000000002 28.057558999999998
28.057558999999998 22.107559000000002 31.032559
28.057558999999998 25.082558999999996 16.157559
25.082558999999996 28.057558999999998 16.157559
28.057558999999998 28.057558999999998 19.132559
28.057558999999998 25.082558999999996 22.107559000000002
25.082558999999996 28.057558999999998 22.107559000000002
28.057558999999998 28.057558999999998 25.082558999999996
28.057558999999998 25.082558999999996 28.057558999999998
25.082558999999996 28.057558999999998 28.057558999999998
28.057558999999998 31.032559 16.157559
28.057558999999998 31.032559 28.057558999999998
31.032559 16.157559 16.157559
31.032559 16.157559 28.057558999999998
31.032559 22.107559000000002 22.107559000000002
31.032559 28.057558999999998 22.107559000000002
31.032559 28.057558999999998 28.057558999999998
23.693233 16.775683 34.900778
23.659436 16.762603 33.509155
23.107559000000002 15.657559 32.828397
22.662419 14.574347999999999 34.953913
23.196593 15.683497999999998 35.623578
22.611039999999996 14.560552999999999 33.563081
29.643233000000002 28.675683 34.900778
29.609436000000002 28.662602999999997 33.509155
29.057558999999998 27.557558999999998 32.828397
28.612418999999996 26.474348 34.953913
29.146592999999996 27.583498 35.623578
28.56104 26.460552999999997 33.563081
23.693233 22.725682999999997 34.900778
23.659436 22.712603 33.509155
23.107559000000002 21.607559000000002 32.828397
22.662419 20.524348 34.953913
23.196593 21.633498 35.623578
22.611039999999996 20.510553 33.563081
17.743232999999996 28.675683 34.900778
17.709435999999997 28.662602999999997 33.509155
17.157559 27.557558999999998 32.828397
16.712418999999997 26.474348 34.953913
17.246592999999997 27.583498 35.623578
16.66104 26.460552999999997 33.563081
26.471885 28.675683 9.31434
26.505682 28.662602999999997 10.705963
27.057558999999998 27.557558999999998 11.386721
27.502699 26.474348 9.261205
26.968525 27.583498 8.591539999999998
27.554077999999997 26.460552999999997 10.652037
14.571885 28.675683 9.31434
14.605682 28.662602999999997 10.705963
15.157559 27.557558999999998 11.386721
15.602699 26.474348 9.261205
15.068525 27.583498 8.591539999999998
15.654078 26.460552999999997 10.652037
26.471885 16.775683 9.31434
26.505682 16.762603 10.705963
27.057558999999998 15.657559 11.386721
27.502699 14.574347999999999 9.261205
26.968525 15.683497999999998 8.591539999999998
27.554077999999997 14.560552999999999 10.652037
26.471885 22.725682999999997 9.31434
26.505682 22.712603 10.705963
27.057558999999998 21.607559000000002 11.386721
27.502699 20.524348 9.261205
26.968525 21.633498 8.591539999999998
27.554077999999997 20.510553 10.652037
9.31434 28.675683 29.643233000000002
10.705963 28.662602999999997 29.609436000000002
11.386721 27.557558999999998 29.057558999999998
9.261205 26.474348 28.612418999999996
8.591539999999998 27.583498 29.146592999999996
10.652037 26.460552999999997 28.56104
9.31434 22.725682999999997 17.743232999999996
10.705963 22.712603 17.709435999999997
11.386721 21.607559000000002 17.157559
9.261205 20.524348 16.712418999999997
8.591539999999998 21.633498 17.246592999999997
10.652037 20.510553 16.66104
9.31434 22.725682999999997 29.643233000000002
10.705963 22.712603 29.609436000000002
11.386721 21.607559000000002 29.057558999999998
9.261205 20.524348 28.612418999999996
8.591539999999998 21.633498 29.146592999999996
10.652037 20.510553 28.56104
9.31434 28.675683 17.743232999999996
10.705963 28.662602999999997 17.709435999999997
11.386721 27.557558999999998 17.157559
9.261205 26.474348 16.712418999999997
8.591539999999998 27.583498 17.246592999999997
10.652037 26.460552999999997 16.66104
34.900778 22.725682999999997 26.471885
33.509155 22.712603 26.505682
32.828397 21.607559000000002 27.057558999999998
34.953913 20.524348 27.502699
35.623578 21.633498 26.968525
33.563081 20.510553 27.554077999999997
34.900778 22.725682999999997 14.571885
33.509155 22.712603 14.605682
32.828397 21.607559000000002 15.157559
34.953913 20.524348 15.602699
35.623578 21.633498 15.068525
33.563081 20.510553 15.654078
34.900778 28.675683 14.571885
33.509155 28.662602999999997 14.605682
32.828397 27.557558999999998 15.157559
34.953913 26.474348 15.602699
35.623578 27.583498 15.068525
33.563081 26.460552999999997 15.654078
34.900778 16.775683 20.521884999999997
33.509155 16.762603 20.555681999999997
32.828397 15.657559 21.107559000000002
34.953913 14.574347999999999 21.552698999999997
35.623578 15.683497999999998 21.018524999999997
33.563081 14.560552999999999 21.604078
23.693233 9.31434 22.725682999999997
23.659436 10.705963 22.712603
23.107559000000002 11.386721 21.607559000000002
22.662419 9.261205 20.524348
23.196593 8.591539999999998 21.633498
22.611039999999996 10.652037 20.510553
17.743232999999996 9.31434 28.675683
17.709435999999997 10.705963 28.662602999999997
17.157559 11.386721 27.557558999999998
16.712418999999997 9.261205 26.474348
17.246592999999997 8.591539999999998 27.583498
16.66104 10.652037 26.460552999999997
29.643233000000002 9.31434 16.775683
29.609436000000002 10.705963 16.762603
29.057558999999998 11.386721 15.657559
28.612418999999996 9.261205 14.574347999999999
29.146592999999996 8.591539999999998 15.683497999999998
28.56104 10.652037 14.560552999999999
17.743232999999996 9.31434 22.725682999999997
17.709435999999997 10.705963 22.712603
17.157559 11.386721 21.607559000000002
16.712418999999997 9.261205 20.524348
17.246592999999997 8.591539999999998 21.633498
16.66104 10.652037 20.510553
29.643233000000002 34.900778 21.489435
29.609436000000002 33.509155 21.502515
29.057558999999998 32.828397 22.607559000000002
28.612418999999996 34.953913 23.69077
29.146592999999996 35.623578 22.58162
28.56104 33.563081 23.704564999999995
23.693233 34.900778 15.539435
23.659436 33.509155 15.552515
23.107559000000002 32.828397 16.657559
22.662419 34.953913 17.740769999999998
23.196593 35.623578 16.631619999999998
22.611039999999996 33.563081 17.754565
17.743232999999996 34.900778 21.489435
17.709435999999997 33.509155 21.502515
17.157559 32.828397 22.607559000000002
16.712418999999997 34.953913 23.69077
17.246592999999997 35.623578 22.58162
16.66104 33.563081 23.704564999999995
23.693233 34.900778 21.489435
23.659436 33.509155 21.502515
23.107559000000002 32.828397 22.607559000000002
22.662419 34.953913 23.69077
23.196593 35.623578 22.58162
22.611039999999996 33.563081 23.704564999999995
11.706897999999999 19.132559 19.132559
12.139109 19.132559 32.076009
12.139109 25.082558999999996 12.139109
11.706897999999999 25.082558999999996 19.132559
12.139109 25.082558999999996 32.076009
19.132559 11.706897999999999 19.132559
19.132559 11.706897999999999 25.082558999999996
19.132559 25.082558999999996 32.50822
19.132559 32.50822 25.082558999999996
25.082558999999996 12.139109 12.139109
25.082558999999996 11.706897999999999 19.132559
25.082558999999996 12.139109 32.076009
25.082558999999996 19.132559 11.706897999999999
25.082558999999996 19.132559 32.50822
25.082558999999996 25.082558999999996 11.706897999999999
25.082558999999996 32.50822 19.132559
25.082558999999996 32.50822 25.082558999999996
32.076009 19.132559 12.139109
32.50822 19.132559 25.082558999999996
32.076009 25.082558999999996 12.139109
32.076009 25.082558999999996 32.076009
32.076009 32.076009 25.082558999999996
13.182559 13.182559 19.132559
13.182559 13.182559 25.082558999999996
13.182559 19.132559 13.182559
13.182559 19.132559 25.082558999999996
13.182559 25.082558999999996 25.082558999999996
13.182559 31.032559 19.132559
13.182559 31.032559 25.082558999999996
19.132559 13.182559 13.182559
19.132559 13.182559 31.032559
19.132559 19.132559 19.132559
19.132559 19.132559 25.082558999999996
19.132559 19.132559 31.032559
19.132559 25.082558999999996 13.182559
19.132559 25.082558999999996 19.132559
19.132559 25.082558999999996 25.082558999999996
19.132559 31.032559 13.182559
19.132559 31.032559 19.132559
19.132559 31.032559 31.032559
25.082558999999996 13.182559 25.082558999999996
25.082558999999996 19.132559 19.132559
25.082558999999996 19.132559 25.082558999999996
25.082558999999996 25.082558999999996 19.132559
25.082558999999996 25.082558999999996 25.082558999999996
25.082558999999996 25.082558999999996 31.032559
25.082558999999996 31.032559 13.182559
25.082558999999996 31.032559 31.032559
31.032559 13.182559 25.082558999999996
31.032559 19.132559 19.132559
31.032559 19.132559 31.032559
31.032559 25.082558999999996 19.132559
31.032559 25.082558999999996 25.082558999999996
31.032559 31.032559 19.132559
22.286372 13.722256 35.523431
23.228133 15.695019 36.715118
24.107577 17.636668 35.428662
24.040774 17.606909 32.932298
22.192454999999995 13.701412999999999 33.035759999999996
20.967807 15.353212999999998 30.680512
28.236371999999996 25.622256 35.523431
29.178132999999995 27.595019 36.715118
30.057577000000002 29.536668 35.428662
29.990774000000002 29.506909 32.932298
28.142454999999998 25.601413 33.035759999999996
26.917806999999996 27.253212999999995 30.680512
22.286372 19.672255999999997 35.523431
23.228133 21.645018999999998 36.715118
24.107577 23.586667999999996 35.428662
24.040774 23.556908999999997 32.932298
22.192454999999995 19.651412999999998 33.035759999999996
20.967807 21.303213 30.680512
16.336371999999997 25.622256 35.523431
17.278132999999997 27.595019 36.715118
18.157577 29.536668 35.428662
18.090774 29.506909 32.932298
16.242455 25.601413 33.035759999999996
15.017807 27.253212999999995 30.680512
27.878746 25.622256 8.691686999999998
26.936985 27.595019 7.499999999999999
26.057541 29.536668 8.786456
26.124344 29.506909 11.28282
27.972662999999997 25.601413 11.179358
29.197311 27.253212999999995 13.534606
15.978746 25.622256 8.691686999999998
15.036985 27.595019 7.499999999999999
14.157541 29.536668 8.786456
14.224344 29.506909 11.28282
16.072663 25.601413 11.179358
17.297311 27.253212999999995 13.534606
27.878746 13.722256 8.691686999999998
26.936985 15.695019 7.499999999999999
26.057541 17.636668 8.786456
26.124344 17.606909 11.28282
27.972662999999997 13.701412999999999 11.179358
29.197311 15.353212999999998 13.534606
27.878746 19.672255999999997 8.691686999999998
26.936985 21.645018999999998 7.499999999999999
26.057541 23.586667999999996 8.786456
26.124344 23.556908999999997 11.28282
27.972662999999997 19.651412999999998 11.179358
29.197311 21.303213 13.534606
8.691686999999998 25.622256 28.236371999999996
7.499999999999999 27.595019 29.178132999999995
8.786456 29.536668 30.057577000000002
11.28282 29.506909 29.990774000000002
11.179358 25.601413 28.142454999999998
13.534606 27.253212999999995 26.917806999999996
8.691686999999998 19.672255999999997 16.336371999999997
7.499999999999999 21.645018999999998 17.278132999999997
8.786456 23.586667999999996 18.157577
11.28282 23.556908999999997 18.090774
11.179358 19.651412999999998 16.242455
13.534606 21.303213 15.017807
8.691686999999998 19.672255999999997 28.236371999999996
7.499999999999999 21.645018999999998 29.178132999999995
8.786456 23.586667999999996 30.057577000000002
11.28282 23.556908999999997 29.990774000000002
11.179358 19.651412999999998 28.142454999999998
13.534606 21.303213 26.917806999999996
8.691686999999998 25.622256 16.336371999999997
7.499999999999999 27.595019 17.278132999999997
8.786456 29.536668 18.157577
11.28282 29.506909 18.090774
11.179358 25.601413 16.242455
13.534606 27.253212999999995 15.017807
35.523431 19.672255999999997 27.878746
36.715118 21.645018999999998 26.936985
35.428662 23.586667999999996 26.057541
32.932298 23.556908999999997 26.124344
33.035759999999996 19.651412999999998 27.972662999999997
30.680512 21.303213 29.197311
35.523431 19.672255999999997 15.978746
36.715118 21.645018999999998 15.036985
35.428662 23.586667999999996 14.157541
32.932298 23.556908999999997 14.224344
33.035759999999996 19.651412999999998 16.072663
30.680512 21.303213 17.297311
35.523431 25.622256 15.978746
36.715118 27.595019 15.036985
35.428662 29.536668 14.157541
32.932298 29.506909 14.224344
33.035759999999996 25.601413 16.072663
30.680512 27.253212999999995 17.297311
35.523431 13.722256 21.928745999999997
36.715118 15.695019 20.986984999999997
35.428662 17.636668 20.107540999999998
32.932298 17.606909 20.174343999999998
33.035759999999996 13.701412999999999 22.022663
30.680512 15.353212999999998 23.247310999999996
22.286372 8.691686999999998 19.672255999999997
23.228133 7.499999999999999 21.645018999999998
24.107577 8.786456 23.586667999999996
24.040774 11.28282 23.556908999999997
22.192454999999995 11.179358 19.651412999999998
20.967807 13.534606 21.303213
16.336371999999997 8.691686999999998 25.622256
17.278132999999997 7.499999999999999 27.595019
18.157577 8.786456 29.536668
18.090774 11.28282 29.506909
16.242455 11.179358 25.601413
15.017807 13.534606 27.253212999999995
28.236371999999996 8.691686999999998 13.722256
29.178132999999995 7.499999999999999 15.695019
30.057577000000002 8.786456 17.636668
29.990774000000002 11.28282 17.606909
28.142454999999998 11.179358 13.701412999999999
26.917806999999996 13.534606 15.353212999999998
16.336371999999997 8.691686999999998 19.672255999999997
17.278132999999997 7.499999999999999 21.645018999999998
18.157577 8.786456 23.586667999999996
18.090774 11.28282 23.556908999999997
16.242455 11.179358 19.651412999999998
15.017807 13.534606 21.303213
28.236371999999996 35.523431 24.542862
29.178132999999995 36.715118 22.570099
30.057577000000002 35.428662 20.62845
29.990774000000002 32.932298 20.658209
28.142454999999998 33.035759999999996 24.563705
26.917806999999996 30.680512 22.911904999999997
22.286372 35.523431 18.592861999999997
23.228133 36.715118 16.620099
24.107577 35.428662 14.67845
24.040774 32.932298 14.708209
22.192454999999995 33.035759999999996 18.613705
20.967807 30.680512 16.961905
16.336371999999997 35.523431 24.542862
17.278132999999997 36.715118 22.570099
18.157577 35.428662 20.62845
18.090774 32.932298 20.658209
16.242455 33.035759999999996 24.563705
15.017807 30.680512 22.911904999999997
22.286372 35.523431 24.542862
23.228133 36.715118 22.570099
24.107577 35.428662 20.62845
24.040774 32.932298 20.658209
22.192454999999995 33.035759999999996 24.563705
20.967807 30.680512 22.911904999999997
11.372976999999999 18.344163 18.45539
11.372976999999999 18.940311 20.153914
11.372976999999999 20.113202 18.788373
13.557300999999999 19.859149000000002 19.756641000000002
13.557300999999999 19.309735 18.191273000000002
13.557300999999999 18.228793 19.449762999999997
11.920632999999999 20.17155 32.329768
11.257921 18.63467 31.667056000000002
12.53042 18.591457 32.939555
13.431283 18.175019 30.751317999999998
14.042042 19.591416000000002 31.362076000000002
12.869299999999999 19.631241 30.189335
12.122779 24.090837 11.683204
11.185794999999999 25.309236 12.620187999999999
12.4004 25.847603999999997 11.405581999999999
13.244983999999999 25.996535 13.650098999999999
14.108514 24.873652 12.786569
12.989127 24.37749 13.905956999999999
11.372976999999999 24.950688999999997 20.163449999999997
11.372976999999999 26.041271000000002 18.731316999999997
11.372976999999999 24.255716999999997 18.502910999999997
13.557300999999999 25.204091 18.182485
13.557300999999999 24.199005 19.502346
13.557300999999999 25.844580999999998 19.712846
11.347681999999999 24.401834 31.756816999999998
12.597504 24.742809 33.006639
11.763789 26.103034 32.172924
13.959318 25.709919 31.279353
12.807476 25.395674 30.12751
13.575831999999998 24.142083999999997 30.895865999999998
20.043562 11.372976999999999 18.632361
19.110242 11.372976999999999 20.17161
18.243873 11.372976999999999 18.593705999999997
18.292974 13.557300999999999 19.593544
19.153126999999998 13.557300999999999 18.174964
19.951576 13.557300999999999 19.629168999999997
18.407669 11.372976999999999 24.337804
20.13998 11.372976999999999 24.827163999999996
18.850026999999997 11.372976999999999 26.082709
19.800621 13.557300999999999 25.768929
18.204113999999997 13.557300999999999 25.317932
19.392941999999998 13.557300999999999 24.160815
20.069209999999998 24.632214999999995 32.842141
19.054243 26.118895000000002 32.842141
18.274223999999997 24.496567999999996 32.842141
18.269337 25.497597999999996 30.657817
19.204735 24.127466999999996 30.657817
19.923605000000002 25.622611999999997 30.657817
18.776862 32.842141 26.059086
20.156104 32.842141 24.902338
18.464709999999997 32.842141 24.286253000000002
19.460371000000002 30.657817 24.182586999999998
18.189254 30.657817 25.248652
19.748052 30.657817 25.816437999999998
25.571677 12.551407999999999 11.254574999999999
25.632145 11.279261 12.526722
24.043855 11.878305 11.927677
24.631785 12.849957999999999 14.045126
24.576057999999996 14.022375 12.872708
26.039834 13.470292 13.424790999999999
25.879928 11.372976999999999 19.799138
24.1066 11.372976999999999 19.489811
25.261148999999996 11.372976999999999 18.108728
24.347699999999996 13.557300999999999 18.518236
25.982008 13.557300999999999 18.803314
24.917969 13.557300999999999 20.076127
24.315470999999995 12.398824 32.807959
24.858835 11.185331 31.594465999999997
26.073372 12.124818999999999 32.533954
25.789512000000002 12.99058 30.310615
25.288744 14.108941 31.428976
24.169421 13.243103999999999 30.563139
24.11963 19.523575 11.372976999999999
25.902653 19.770972 11.372976999999999
25.225394 18.10313 11.372976999999999
25.969999 18.772196 13.557300999999999
24.326755999999996 18.544195000000002 13.557300999999999
24.950922 20.081286 13.557300999999999
24.775033999999998 18.139809 32.842141
26.096069 19.362609999999997 32.842141
24.376573999999998 19.895259 32.842141
25.365975 20.047483 30.657817
24.148502999999998 18.920543000000002 30.657817
25.733198 18.429651 30.657817
24.252204 24.457549999999998 11.372976999999999
24.956463 26.114171999999996 11.372976999999999
26.039009999999998 24.675955000000002 11.372976999999999
25.847817999999997 25.658569999999997 13.557300999999999
25.198769999999996 24.131819 13.557300999999999
24.201088999999996 25.457288 13.557300999999999
25.738869 32.842141 18.326715999999998
24.056523999999996 32.842141 18.967098999999997
25.452284999999996 32.842141 20.103861000000002
24.477700999999996 30.657817 19.875228
26.028157999999998 30.657817 19.285047
24.741818000000002 30.657817 18.237402
24.516726 32.842141 25.954315
26.120438 32.842141 25.136707
24.610512999999997 32.842141 24.156655999999998
25.604033 30.657817 24.279143999999995
24.126044 30.657817 25.032655999999996
25.517598999999997 30.657817 25.935876
31.651393999999996 19.587521000000002 11.242259
32.921099 19.714306999999998 12.511963999999999
32.363887 18.09585 11.954751
31.376511 18.713262999999998 14.056476
30.206344 18.596418 12.88631
30.719873999999997 20.087995999999997 13.39984
32.842141 18.552501 25.944915
32.842141 18.675766 24.149035999999995
32.842141 20.16941 25.153726999999996
30.657817 19.667144 24.287808
30.657817 19.553541 25.942898999999997
30.657817 18.176992 25.01697
31.591611999999998 24.878003 11.182476999999999
32.547119 26.067282999999996 12.137984
32.797648 24.302389999999995 12.388513
31.431606000000002 25.271077999999996 14.111571
30.551004999999996 24.175032 13.230971
30.320116999999996 25.801567 13.000083
32.851795 25.787996 31.772458
31.610301999999997 25.390796 33.013951
32.474283 24.068885 32.149969999999996
30.270215999999998 24.432423999999997 31.264936999999996
31.414381 24.798485999999997 30.120770999999998
30.618132000000003 26.016765999999997 30.91702
31.951529 32.672724 25.988132999999998
33.046974 31.577278999999997 25.071411999999995
31.937877 32.686376 24.188131999999996
31.099905 30.435248 24.247977
30.090336999999998 31.444815 25.092832
31.112487 30.422666 25.906867
13.182559 19.132559 19.132559
13.182559 19.132559 31.032559
13.182559 25.082558999999996 13.182559
13.182559 25.082558999999996 19.132559
13.182559 25.082558999999996 31.032559
19.132559 13.182559 19.132559
19.132559 13.182559 25.082558999999996
19.132559 25.082558999999996 31.032559
19.132559 31.032559 25.082558999999996
25.082558999999996 13.182559 13.182559
25.082558999999996 13.182559 19.132559
25.082558999999996 13.182559 31.032559
25.082558999999996 19.132559 13.182559
25.082558999999996 19.132559 31.032559
25.082558999999996 25.082558999999996 13.182559
25.082558999999996 31.032559 19.132559
25.082558999999996 31.032559 25.082558999999996
31.032559 19.132559 13.182559
31.032559 19.132559 25.082558999999996
31.032559 25.082558999999996 13.182559
31.032559 25.082558999999996 31.032559
31.032559 31.032559 25.082558999999996
23.123332999999995 17.072918 30.471671
21.789270000000002 14.831926999999999 30.61108
24.321270999999996 14.918505999999999 30.483773
29.073332999999998 28.972918 30.471671
27.739269999999998 26.731927 30.61108
30.271271 26.818506 30.483773
23.123332999999995 23.022917999999997 30.471671
21.789270000000002 20.781927 30.61108
24.321270999999996 20.868505999999996 30.483773
17.173333 28.972918 30.471671
15.839269999999999 26.731927 30.61108
18.371271 26.818506 30.483773
27.041784999999997 28.972918 13.743447
28.375847999999998 26.731927 13.604038
25.843846999999997 26.818506 13.731345
15.141784999999999 28.972918 13.743447
16.475848 26.731927 13.604038
13.943847 26.818506 13.731345
27.041784999999997 17.072918 13.743447
28.375847999999998 14.831926999999999 13.604038
25.843846999999997 14.918505999999999 13.731345
27.041784999999997 23.022917999999997 13.743447
28.375847999999998 20.781927 13.604038
25.843846999999997 20.868505999999996 13.731345
13.743447 28.972918 29.073332999999998
13.604038 26.731927 27.739269999999998
13.731345 26.818506 30.271271
13.743447 23.022917999999997 17.173333
13.604038 20.781927 15.839269999999999
13.731345 20.868505999999996 18.371271
13.743447 23.022917999999997 29.073332999999998
13.604038 20.781927 27.739269999999998
13.731345 20.868505999999996 30.271271
13.743447 28.972918 17.173333
13.604038 26.731927 15.839269999999999
13.731345 26.818506 18.371271
30.471671 23.022917999999997 27.041784999999997
30.61108 20.781927 28.375847999999998
30.483773 20.868505999999996 25.843846999999997
30.471671 23.022917999999997 15.141784999999999
30.61108 20.781927 16.475848
30.483773 20.868505999999996 13.943847
30.471671 28.972918 15.141784999999999
30.61108 26.731927 16.475848
30.483773 26.818506 13.943847
30.471671 17.072918 21.091785
30.61108 14.831926999999999 22.425848000000002
30.483773 14.918505999999999 19.893847
23.123332999999995 13.743447 23.022917999999997
21.789270000000002 13.604038 20.781927
24.321270999999996 13.731345 20.868505999999996
17.173333 13.743447 28.972918
15.839269999999999 13.604038 26.731927
18.371271 13.731345 26.818506
29.073332999999998 13.743447 17.072918
27.739269999999998 13.604038 14.831926999999999
30.271271 13.731345 14.918505999999999
17.173333 13.743447 23.022917999999997
15.839269999999999 13.604038 20.781927
18.371271 13.731345 20.868505999999996
29.073332999999998 30.471671 21.1922
27.739269999999998 30.61108 23.433191
30.271271 30.483773 23.346612
23.123332999999995 30.471671 15.242199999999999
21.789270000000002 30.61108 17.483190999999998
24.321270999999996 30.483773 17.396611999999998
17.173333 30.471671 21.1922
15.839269999999999 30.61108 23.433191
18.371271 30.483773 23.346612
23.123332999999995 30.471671 21.1922
21.789270000000002 30.61108 23.433191
24.321270999999996 30.483773 23.346612
23.107559000000002 15.657559 31.032559
29.057558999999998 27.557558999999998 31.032559
23.107559000000002 21.607559000000002 31.032559
17.157559 27.557558999999998 31.032559
27.057558999999998 27.557558999999998 13.182559
15.157559 27.557558999999998 13.182559
27.057558999999998 15.657559 13.182559
27.057558999999998 21.607559000000002 13.182559
13.182559 27.557558999999998 29.057558999999998
13.182559 21.607559000000002 17.157559
13.182559 21.607559000000002 29.057558999999998
13.182559 27.557558999999998 17.157559
31.032559 21.607559000000002 27.057558999999998
31.032559 21.607559000000002 15.157559
31.032559 27.557558999999998 15.157559
31.032559 15.657559 21.107559000000002
23.107559000000002 13.182559 21.607559000000002
17.157559 13.182559 27.557558999999998
29.057558999999998 13.182559 15.657559
17.157559 13.182559 21.607559000000002
29.057558999999998 31.032559 22.607559000000002
23.107559000000002 31.032559 16.657559
17.157559 31.032559 22.607559000000002
23.107559000000002 31.032559 22.607559000000002
16.157559 16.157559 16.157559
16.157559 16.157559 22.107559000000002
16.157559 16.157559 28.057558999999998
16.157559 22.107559000000002 16.157559
16.157559 22.107559000000002 22.107559000000002
16.157559 22.107559000000002 28.057558999999998
16.157559 28.057558999999998 16.157559
16.157559 28.057558999999998 22.107559000000002
16.157559 28.057558999999998 28.057558999999998
22.107559000000002 16.157559 16.157559
22.107559000000002 16.157559 22.107559000000002
22.107559000000002 16.157559 28.057558999999998
22.107559000000002 22.107559000000002 16.157559
22.107559000000002 22.107559000000002 22.107559000000002
22.107559000000002 22.107559000000002 28.057558999999998
22.107559000000002 28.057558999999998 16.157559
22.107559000000002 28.057558999999998 22.107559000000002
22.107559000000002 28.057558999999998 28.057558999999998
28.057558999999998 16.157559 16.157559
28.057558999999998 16.157559 22.107559000000002
28.057558999999998 16.157559 28.057558999999998
28.057558999999998 22.107559000000002 16.157559
28.057558999999998 22.107559000000002 22.107559000000002
28.057558999999998 22.107559000000002 28.057558999999998
28.057558999999998 28.057558999999998 16.157559
28.057558999999998 28.057558999999998 22.107559000000002
28.057558999999998 28.057558999999998 28.057558999999998
