1_train/20_cspbbr3_methylammonium_3_0.30\20_cspbbr3_methylammonium_3_0.30.xyz
1.0
41.774377 0 0
0 41.774377 0
0 0 41.774377
Br C Cs H N Pb 
108 14 40 84 14 27 
Cartesian
29.9911215 15.0248705 26.6394265
26.792374499999998 15.1504155 17.8232855
23.6874145 14.7736695 14.9512175
29.6170595 20.9591785 14.7786335
26.7594435 11.7388115 15.0404895
26.6819575 15.0597285 12.0392575
29.7701085 20.7637535 21.0227125
20.955382500000002 29.5763155 26.955551500000002
20.8368805 29.6155975 20.7633705
29.9477575 20.7845025 26.6984125
26.7180225 27.0401065 23.9154625
26.875957500000002 11.9857015 21.0939095
17.933418500000002 26.9412935 27.0266985
21.055256500000002 23.690319499999998 26.751440499999998
21.101581499999998 26.899821499999998 23.7569775
29.9532475 26.9280215 14.797632499999999
18.013596500000002 26.7132835 21.0486385
20.692106499999998 23.9120145 20.9501435
29.9175635 27.036434500000002 20.779339500000003
20.741771500000002 26.9414005 18.0002355
29.8204415 27.0809805 26.7748295
18.1347935 26.9832035 15.0209905
21.011121499999998 23.9857175 15.0314735
20.8285855 29.6066235 15.0990365
20.6900315 26.7716375 29.7158015
30.0357825 14.8145545 20.788510499999997
26.7475855 14.677557499999999 23.8938455
26.646779499999997 23.9120465 20.6961005
26.9904145 27.029670499999998 17.8620795
26.916770500000002 23.788376500000002 27.0731605
23.7181255 27.0043415 15.070069499999999
26.8597165 23.9582445 15.1461435
26.830288499999998 26.7126535 11.7552405
24.0461165 26.9901385 26.858386499999998
26.9863965 20.8062145 29.7400635
23.6947955 20.762275499999998 27.000245500000002
26.6252785 17.9950035 26.951124500000002
26.6557155 26.7329325 29.6363725
26.733361499999997 20.7044715 23.7567365
26.8664565 29.6535555 14.7795065
23.966158500000002 20.981022499999998 20.7240255
26.6417225 17.9938925 20.7604555
20.790843499999998 26.960220500000002 12.0704415
26.9604225 29.6414055 20.7420795
23.5895045 20.9495005 15.0255865
27.016125499999998 18.0652695 15.101162500000001
26.5888535 20.9185335 12.0993645
26.6908905 29.6730295 26.7464345
26.795934499999998 14.7595095 29.6208225
23.674605500000002 15.0920885 26.8351565
26.7275145 11.7361185 26.9004845
29.6444225 15.0666565 14.9262755
24.1054725 15.0054185 20.8756875
26.9674985 20.960568499999997 17.8019685
23.634335500000002 26.8209015 21.0184475
12.004704499999999 20.686193499999998 26.7707695
14.821296499999999 29.7059765 26.7137445
15.1196145 21.006486499999998 17.8833485
14.787986499999999 29.8659105 21.0088175
15.165549500000001 15.0931335 23.9487415
14.7809115 29.9174825 15.0387875
14.948888499999999 26.959518499999998 29.9608955
14.8328025 11.7988755 26.8280285
11.7659315 26.7021205 26.9656335
15.0313565 23.6017725 26.8829045
14.8759835 26.6852105 23.9465085
12.0936785 26.7153745 20.8114885
14.8126905 24.0613895 20.7224375
14.7248245 26.7574075 17.9959095
11.9020305 14.8328855 26.5723445
12.1569795 26.8475435 15.093149499999999
15.0186685 14.7642145 30.0067535
14.9403325 23.632109500000002 14.9540985
14.762062499999999 27.0282385 11.8587335
14.8246875 21.0431095 29.6929395
15.0363525 20.9830665 12.1368015
14.8961685 17.6915215 26.7810185
14.8425875 20.7212875 23.985646499999998
14.9652535 18.1146895 14.7438845
11.8896145 21.0519875 20.752519500000002
15.0472375 17.9059615 20.6915075
20.9685135 15.1495345 11.9961825
20.7396365 11.8518565 15.0764405
12.1170095 15.0541195 21.0595745
14.8129165 11.8257495 20.8031765
17.7150425 20.707642500000002 26.842080499999998
20.739831499999998 21.008730500000002 29.900495499999998
20.6148115 17.9860795 26.7495345
20.9679055 20.928469500000002 24.0358695
18.0959715 20.6813235 20.9088765
20.777534499999998 17.9607785 20.6996635
20.7551015 20.9483705 18.0345375
14.7174665 14.8069705 12.0425035
17.7015125 20.7159595 14.8104925
20.9937345 17.7757565 14.990572499999999
17.8577565 15.1373905 14.957976500000001
20.7225255 20.822518499999997 11.8068445
14.7467655 12.149841499999999 14.8880175
11.7179215 20.8800135 15.1054545
12.1374335 14.7793615 15.1058005
21.010793500000002 14.7208465 17.8863975
21.0622955 12.0452945 21.0170785
17.7432385 14.7812845 26.799695500000002
20.7797405 12.1573815 26.6969375
21.0707405 14.8632685 23.682637500000002
15.0806875 15.1499265 17.834314499999998
20.9819715 14.7763745 29.9397785
18.0349885 15.1227825 21.0784645
23.8423945 30.8325245 30.9470235
17.8763005 23.8209795 31.3694015
17.8484655 10.9029075 10.8419285
10.864905499999999 10.8494005 23.8778235
31.3639115 23.930877499999998 17.9453645
10.9209935 10.8968915 18.0019885
17.990830499999998 10.5160205 23.870939500000002
10.4387285 17.9750035 23.846753500000002
31.2175155 17.9896345 23.8926635
23.8323535 10.4215615 23.8073895
30.8867655 23.8316675 30.9441405
10.4368135 17.8624955 17.8769205
10.5202135 23.800676499999998 23.7913515
17.8946105 23.8284445 10.5758755
23.561725499999998 23.5848585 29.4300575
30.1035195 17.7941405 18.2039965
30.0199195 29.5877825 23.4399965
23.9864545 30.1665305 11.5304145
29.5861555 29.6352015 17.6821175
11.6802955 18.1603575 12.045956499999999
30.2820795 18.0699395 11.6110825
24.222672499999998 29.7020685 23.4493925
29.4682415 12.1676955 23.491559499999997
30.0684335 17.4592105 30.0622665
29.9959545 24.2111475 12.1131795
29.6708805 12.3146455 17.8159155
23.6772065 30.0899295 17.4784225
30.1236515 23.5439135 23.6779165
18.1371005 17.412059499999998 29.8694485
17.6289545 18.299314499999998 23.9309775
23.678348500000002 23.4906185 23.7360475
17.4706925 23.7704485 23.9487235
18.1059585 17.5368165 18.2339065
17.778108500000002 29.8322385 12.4907795
18.3442745 29.9750875 17.5246745
18.2588675 30.1840265 23.7045735
18.0699945 12.3865225 29.9880095
17.7167675 29.5054305 29.9721305
17.7216525 24.2326755 17.6562735
18.1705565 12.3451935 17.8515975
11.6313325 29.9680875 23.6391935
23.384911499999998 11.9990845 30.006960499999998
23.624678499999998 12.1005105 17.3964755
12.0421445 30.0048165 18.3981985
24.1621105 17.610957499999998 12.2376105
12.008936499999999 17.3929375 29.7567755
11.5268095 24.1643865 12.2445435
23.6209285 24.131472499999997 12.4117445
23.9690425 24.408251500000002 17.9373005
11.8391105 23.5615215 18.2117465
23.790010499999998 17.5317035 24.0544005
23.914679500000002 18.4128465 18.2379295
11.5633945 23.7175895 30.0614485
23.589629499999997 17.7955495 30.1741175
31.6266635 18.9365245 23.8123455
18.2188765 22.9573275 12.3109985
18.5536885 24.5717475 12.3431555
16.9933115 24.050984500000002 12.3500625
17.5877185 24.854861500000002 10.1211565
17.2246025 23.0568965 10.1230785
18.9061355 23.686971500000002 10.1794575
12.3275215 24.7238525 23.5284555
12.3508225 23.0874805 23.2536235
18.7130045 12.3672435 23.3397385
17.9327185 12.3709975 24.792416499999998
17.0551925 10.1543145 24.3979835
18.8402465 10.1386105 24.4013655
17.9044485 10.1266585 22.7883955
10.1280445 18.9241715 23.7605355
10.1304375 17.3167905 23.055573499999998
11.5301815 12.8845625 17.8483515
17.0470205 12.3093865 23.407963499999997
12.3659115 23.7110565 24.8317415
10.1368755 24.6931135 24.5550255
24.1664915 10.1562115 24.8190605
12.3054425 17.0991155 17.4376435
10.1320285 16.972603499999998 18.3720385
10.1339495 17.9569305 16.8487955
10.1578955 18.7519535 18.4787015
12.3653075 17.8837205 18.8469215
28.8715665 23.9811065 30.1963225
30.0044245 24.5842745 29.0895795
29.7570175 22.9417835 29.3101745
12.5081885 11.9178525 18.7466695
31.8293695 23.678331500000002 30.3248145
30.8612995 24.8618665 31.374526499999998
10.1482165 24.0081415 22.849553500000003
10.1817375 22.9010635 24.2066805
23.2215065 12.3645195 24.6015205
24.8112845 12.3007425 24.0337295
23.5268895 12.3436925 22.9958755
24.5235315 10.1792885 23.0954355
22.8177675 10.1699965 23.6839915
30.6409935 23.0469275 31.5226445
12.5862085 11.8046995 17.1238605
11.3952225 9.9379315 17.9848675
10.3619695 10.9564565 16.9593335
18.8920045 23.5988195 31.5982375
17.2038605 23.1427485 31.6027055
10.6697835 10.7167175 22.8181305
11.3399475 10.0637555 24.3561885
24.302725499999998 28.9353805 30.1060085
22.9064895 29.5387625 29.5635115
24.3668595 30.1145195 28.9407545
23.361922500000002 31.6989595 30.4372735
24.9392915 31.0859155 31.1172455
23.3317145 30.4456595 31.7541525
12.8425005 11.6130625 23.396338500000002
12.2055215 12.2241395 24.798195500000002
29.4706735 18.398943499999998 24.655189500000002
29.4298895 18.3475955 23.0132995
29.4108325 16.9883825 23.8665405
31.6345735 17.3488105 22.985573499999997
31.6311915 17.4116135 24.7366505
17.6083375 24.8734625 31.6012205
18.6034845 24.577530499999998 29.4640445
16.9907585 24.0761225 29.3986965
18.1830445 22.9574845 29.4001015
10.2305615 11.1009215 18.7348005
10.1207495 17.4752585 24.8065485
12.2979985 16.9641545 23.9465215
29.4006615 24.7424265 18.273822499999998
29.4530745 23.7487805 16.9951515
29.4323355 23.1020365 18.4535285
31.6202275 22.8665225 17.5324485
31.6349595 23.9805475 18.9058785
11.6419225 12.8384665 23.3633245
31.5983385 24.684241500000002 17.2506525
12.303416499999999 18.2883395 22.9732305
18.1423515 11.589876499999999 12.9128275
18.6388975 12.7044345 11.795422499999999
17.0231515 12.4484865 12.0409955
17.7011435 11.4349075 9.9797755
17.1331365 10.1853605 11.1443725
18.9014055 10.4302305 10.9250685
10.0586605 11.3507365 24.392031499999998
12.3054595 18.4979755 24.6186385
12.3313895 18.7843195 17.4906915
17.8959215 23.925876499999998 12.0337155
17.9458725 11.8938605 23.7925875
11.9888745 12.0247865 17.8400595
23.792130500000003 12.0074445 23.8456845
29.7494355 23.868481499999998 17.9945525
29.8618105 23.8554685 29.8645525
17.8554065 11.9212615 12.0324825
17.8446775 23.8162665 29.7531665
23.7777375 29.7895675 29.7898455
29.7597285 17.929156499999998 23.7868255
11.9132015 17.9216815 17.819208500000002
11.9503795 17.9063755 23.7781035
12.0383865 23.8697675 23.8170745
11.8894345 11.9667475 23.9115585
15.1577325 15.0149285 14.7415845
15.113248500000001 26.676527500000002 14.6807955
26.6840685 27.038102499999997 14.6961425
14.8489355 27.0614945 21.1242925
26.8934075 20.9913825 27.0276265
15.1441865 26.659039500000002 26.6704175
26.7400985 21.1336385 20.9583885
27.0109575 20.6784915 15.0516425
20.700474500000002 14.765126500000001 14.7506525
26.7103045 26.7633525 21.0862035
27.0402915 14.9791695 26.9919215
26.6130915 15.0598385 20.6880415
20.7040525 15.1803795 26.7014665
27.1198625 14.9654525 15.1296645
21.104633500000002 20.860235499999998 15.1868655
20.7587965 20.7930125 21.0452415
20.7061035 26.7419635 26.7194865
20.703017499999998 20.9946125 26.5870365
20.773397499999998 26.957911499999998 20.6949495
20.7677685 15.0060925 21.103129499999998
14.8894185 20.6276525 27.0581905
21.205520500000002 26.722900499999998 15.053504499999999
26.8049935 26.9857645 26.5773935
14.7970805 15.0922745 26.9652235
14.7111005 20.658977500000002 20.8055335
14.774542499999999 15.1001325 21.064984499999998
14.7461045 21.0718275 15.099107499999999
