3_train/218_cspbbr3_MA-4-Br-2-TPC_3_0.40\218_cspbbr3_MA-4-Br-2-TPC_3_0.40.xyz
1.0
43.008448 0 0
0 43.008448 0
0 0 43.008448
Br C Cs H N O Pb S 
108 139 35 162 19 48 27 24 
Cartesian
15.554224 15.554224 12.579224
15.554224 12.579224 15.554224
15.554224 15.554224 18.529224
15.554224 12.579224 21.504224
12.579224 15.554224 21.504224
15.554224 15.554224 24.479224
12.579224 15.554224 27.454224
15.554224 15.554224 30.429224
15.554224 18.529224 15.554224
12.579224 21.504224 15.554224
15.554224 21.504224 18.529224
15.554224 18.529224 21.504224
15.554224 21.504224 24.479224
15.554224 18.529224 27.454224
15.554224 27.454224 12.579224
15.554224 24.479224 15.554224
12.579224 27.454224 15.554224
15.554224 27.454224 18.529224
15.554224 24.479224 21.504224
12.579224 27.454224 21.504224
15.554224 27.454224 24.479224
15.554224 24.479224 27.454224
15.554224 30.429224 15.554224
15.554224 30.429224 27.454224
18.529224 15.554224 15.554224
21.504224 15.554224 18.529224
18.529224 15.554224 21.504224
21.504224 15.554224 24.479224
18.529224 15.554224 27.454224
21.504224 15.554224 30.429224
21.504224 21.504224 12.579224
21.504224 18.529224 15.554224
18.529224 21.504224 15.554224
21.504224 21.504224 18.529224
21.504224 18.529224 21.504224
18.529224 21.504224 21.504224
21.504224 21.504224 24.479224
21.504224 18.529224 27.454224
18.529224 21.504224 27.454224
21.504224 24.479224 15.554224
18.529224 27.454224 15.554224
21.504224 27.454224 18.529224
21.504224 24.479224 21.504224
18.529224 27.454224 21.504224
21.504224 27.454224 24.479224
21.504224 24.479224 27.454224
18.529224 27.454224 27.454224
21.504224 30.429224 15.554224
27.454224 15.554224 12.579224
27.454224 12.579224 15.554224
24.479224 15.554224 15.554224
27.454224 15.554224 18.529224
27.454224 12.579224 21.504224
24.479224 15.554224 21.504224
27.454224 15.554224 24.479224
27.454224 12.579224 27.454224
24.479224 15.554224 27.454224
27.454224 15.554224 30.429224
27.454224 21.504224 12.579224
27.454224 18.529224 15.554224
24.479224 21.504224 15.554224
27.454224 21.504224 18.529224
27.454224 18.529224 21.504224
24.479224 21.504224 21.504224
27.454224 21.504224 24.479224
27.454224 18.529224 27.454224
24.479224 21.504224 27.454224
27.454224 21.504224 30.429224
27.454224 24.479224 15.554224
24.479224 27.454224 15.554224
27.454224 27.454224 18.529224
27.454224 24.479224 21.504224
24.479224 27.454224 21.504224
27.454224 27.454224 24.479224
27.454224 24.479224 27.454224
24.479224 27.454224 27.454224
27.454224 27.454224 30.429224
27.454224 30.429224 15.554224
27.454224 30.429224 21.504224
30.429224 15.554224 15.554224
30.429224 21.504224 15.554224
30.429224 21.504224 27.454224
30.429224 27.454224 21.504224
30.429224 27.454224 27.454224
14.45186 25.843518 35.508448
19.681029 28.151030000000002 35.508448
13.741144 20.781506 35.508448
19.995770999999998 22.742832 35.508448
13.603414 21.44162 7.5
29.153915 26.494729 7.5
22.721799999999998 17.079704 7.5
21.308347 25.512263 7.5
7.5 22.375524000000002 29.200768
7.5 25.609469999999998 28.091767
7.5 20.283297 19.981425
7.5 14.704718 17.311471
35.508448 17.044579 28.71455
35.508448 13.717292 20.844482
35.508448 27.032064000000002 13.648611
35.508448 22.528065 23.165949
14.556977 7.5 29.132044
23.269965 7.5 20.672517
19.827229 7.5 26.45559
19.983691 7.5 14.330476
17.386585 35.508448 20.831889
22.901664999999998 35.508448 22.866846
21.248229 35.508448 25.519270000000002
27.402735 35.508448 25.503089
15.149046 26.860778 34.076764
14.935024 26.539976 32.716546
15.554224 27.454224 31.882082
15.916473 27.994441 34.258629
15.554224 27.454224 30.429224
20.832715999999998 27.710006 34.076764
20.470883 27.843405999999998 32.716546
21.504224 27.454224 31.882082
22.113967 27.227790000000002 34.258629
21.504224 27.454224 30.429224
14.887025 21.237403 34.076764
14.530512 21.090376 32.716546
15.554224 21.504224 31.882082
16.156109999999998 21.750784 34.258629
15.554224 21.504224 30.429224
20.948366999999998 21.959604000000002 34.076764
20.647449 22.200782 32.716546
21.504224 21.504224 31.882082
22.010797999999998 21.096251 34.258629
21.504224 21.504224 30.429224
14.835995 21.48198 8.931684
14.450433 21.474176 10.291902
15.554224 21.504224 11.126366
16.204487999999998 21.518919999999998 8.749819
15.554224 21.504224 12.579224
28.07958 27.100279 8.931684
28.413138 26.906737 10.291902
27.454224 27.454224 11.126366
26.890871 27.779327 8.749819
27.454224 27.454224 12.579224
21.953112 16.115337 8.931684
22.197233 16.413871999999998 10.291902
21.504224 15.554224 11.126366
21.093672 15.049738 8.749819
21.504224 15.554224 12.579224
21.43131 26.739359 8.931684
21.388067 26.356151 10.291902
21.504224 27.454224 11.126366
21.575633 28.100722 8.749819
21.504224 27.454224 12.579224
8.931684 21.825719 28.096866000000002
10.291902 22.001946 28.439885999999998
11.126366 21.504224 27.454224
8.749819 21.208361999999997 26.874979
12.579224 21.504224 27.454224
8.931684 26.775329 27.6897
10.291902 26.412359 27.819974
11.126366 27.454224 27.454224
8.749819 28.066934 27.235946000000002
12.579224 27.454224 27.454224
8.931684 21.054104000000002 20.944099
10.291902 20.809326 20.646102
11.126366 21.504224 21.504224
8.749819 21.915884000000002 22.007806
12.579224 21.504224 21.504224
8.931684 15.242197 16.201515999999998
10.291902 15.078475000000001 16.550677
11.126366 15.554224 15.554224
8.749819 15.83175 14.965974
12.579224 15.554224 15.554224
34.076764 16.102387999999998 27.918836000000002
32.716546 16.393884 28.171321000000002
31.882082 15.554224 27.454224
34.258629 15.061578 27.029537
30.429224 15.554224 27.454224
34.076764 14.878218 21.260578
32.716546 14.516845 21.125937
31.882082 15.554224 21.504224
34.258629 16.164258 21.729874
30.429224 15.554224 21.504224
34.076764 27.299589 14.852485999999999
32.716546 27.220643 14.475013
31.882082 27.454224 15.554224
34.258629 27.588877 16.190563
30.429224 27.454224 15.554224
34.076764 21.880472 22.116421
32.716546 22.078861 22.447118
31.882082 21.504224 21.504224
34.258629 21.168302999999998 20.947254
30.429224 21.504224 21.504224
15.186389 8.931684 28.071513
14.985441 10.291902 28.400661
15.554224 11.126366 27.454224
15.891838 8.749819 26.898278
15.554224 12.579224 27.454224
22.154636 8.931684 21.198753999999997
22.505433999999997 10.291902 21.038567999999998
21.504224 11.126366 21.504224
20.9132 8.749819 21.775792
21.504224 12.579224 21.504224
20.887239 8.931684 27.085879000000002
20.558258000000002 10.291902 26.884657999999998
21.504224 11.126366 27.454224
22.059891 8.749819 27.792297
21.504224 12.579224 27.454224
20.944935 8.931684 15.103066
20.647391 10.291902 14.857737
21.504224 11.126366 15.554224
22.007042000000002 8.749819 15.966816999999999
21.504224 12.579224 15.554224
16.228542 34.076764 21.255944
16.588982 32.716546 21.118826000000002
15.554224 31.882082 21.504224
14.945754 34.258629 21.734056
15.554224 30.429224 21.504224
22.019263 34.076764 22.005306
22.298539 32.716546 22.271244
21.504224 31.882082 21.504224
21.03425 34.258629 21.054576
21.504224 30.429224 21.504224
21.40918 34.076764 26.741964
21.354076 32.716546 26.360281
21.504224 31.882082 27.454224
21.595644 34.258629 28.098197000000003
21.504224 30.429224 27.454224
27.434462999999997 34.076764 26.735922
27.419725 32.716546 26.350564000000002
27.454224 31.882082 27.454224
27.477548000000002 34.258629 28.104235
27.454224 30.429224 27.454224
24.479224 18.529224 31.904885
31.472674 24.479224 11.535774
11.103563000000001 24.479224 24.479224
11.535774 31.472674 18.529224
18.529224 31.472674 31.472674
11.535774 11.535774 18.529224
24.479224 31.472674 31.472674
31.472674 31.472674 24.479224
24.479224 11.103563000000001 18.529224
31.472674 18.529224 31.472674
31.904885 24.479224 18.529224
31.904885 24.479224 24.479224
18.529224 31.904885 24.479224
24.479224 31.472674 11.535774
11.535774 11.535774 24.479224
18.529224 24.479224 31.904885
24.479224 24.479224 11.103563000000001
18.529224 18.529224 11.103563000000001
24.479224 11.535774 11.535774
12.579224 18.529224 12.579224
12.579224 18.529224 18.529224
12.579224 18.529224 24.479224
12.579224 18.529224 30.429224
12.579224 24.479224 12.579224
12.579224 24.479224 18.529224
12.579224 24.479224 30.429224
12.579224 30.429224 24.479224
18.529224 12.579224 12.579224
18.529224 12.579224 18.529224
18.529224 12.579224 24.479224
18.529224 12.579224 30.429224
18.529224 18.529224 18.529224
18.529224 18.529224 24.479224
18.529224 24.479224 12.579224
18.529224 24.479224 18.529224
18.529224 24.479224 24.479224
18.529224 30.429224 12.579224
18.529224 30.429224 18.529224
24.479224 12.579224 24.479224
24.479224 12.579224 30.429224
24.479224 18.529224 12.579224
24.479224 18.529224 18.529224
24.479224 18.529224 24.479224
24.479224 24.479224 18.529224
24.479224 24.479224 24.479224
24.479224 24.479224 30.429224
24.479224 30.429224 18.529224
24.479224 30.429224 24.479224
30.429224 12.579224 18.529224
30.429224 12.579224 24.479224
30.429224 18.529224 12.579224
30.429224 18.529224 18.529224
30.429224 24.479224 30.429224
30.429224 30.429224 18.529224
16.22279 28.446653 35.198685999999995
14.358184 25.688216999999998 32.360323
22.625096 27.035247000000002 35.198685999999995
19.508178 28.205951000000002 32.360323
16.662503 21.95546 35.198685999999995
13.576801 20.704793000000002 32.360323
22.434579 20.751671 35.198685999999995
19.84923 22.849693 32.360323
16.750476 21.533820000000002 7.809762
13.422106 21.446214 10.648125
26.416526 28.050109000000003 7.809762
29.306477 26.396655 10.648125
20.750903 14.624490999999999 7.809762
22.842887 17.214728 10.648125
21.633053 28.643887 7.809762
21.279822 25.333154 10.648125
7.809762 20.962197 26.387404999999998
10.648125 22.465666000000002 29.358147
7.809762 28.582305 27.055063
10.648125 25.441733 28.160747
7.809762 22.259587 22.432299
10.648125 20.161914 19.846667
7.809762 16.067112 14.473094
10.648125 14.635279 17.479018
35.198685999999995 14.646217 26.674853000000002
32.360323 17.176116999999998 28.839415
35.198685999999995 16.677409 21.916959000000002
32.360323 13.5504 20.773484
35.198685999999995 27.704454000000002 16.724387
32.360323 27.003061 13.469579
35.198685999999995 20.884027 20.480871
32.360323 22.614185 23.325564
16.173155 7.809762 26.430105
14.455518 10.648125 29.282376
20.417967 7.809762 22.006162
23.438205 10.648125 20.604775
22.527831000000003 7.809762 28.074001
19.676980999999998 10.648125 26.354007
22.430896999999998 7.809762 16.311306000000002
19.849158 10.648125 14.208843
14.433898 35.198685999999995 21.924659000000002
17.552986 32.360323 20.759748000000002
20.641368 35.198685999999995 20.675143
23.038569 32.360323 22.985803
21.669878 35.198685999999995 28.639321
21.214164 32.360323 25.341131999999998
27.494576 35.198685999999995 28.650162
27.387555000000003 32.360323 25.322359000000002
25.420771 18.96924 32.238806
23.627385999999998 19.12462 32.238806
24.389515 17.493812 32.238806
23.611489000000002 18.123703 30.054482
25.264283000000002 17.980504 30.054482
24.561899999999998 19.483465 30.054482
31.251116 23.666087 10.841981
31.439687 25.446327999999998 11.030552
32.435572 24.325257 12.026437
30.586038 25.228615 13.266003
30.412249 23.587936 13.092215
29.494437 24.621121 12.174402
10.769642000000001 24.319667 25.506194
10.769642000000001 25.448384 24.103919
10.769642000000001 23.669621 23.827559
12.953966000000001 24.626272 23.532763
12.953966000000001 23.586040999999998 24.825107
12.953966000000001 25.225359 25.079802
10.989614 31.398749 19.471494
12.031698 32.440833 18.437812
10.877657 31.286793 17.678366
13.129943 30.449978 17.660823
12.169554 29.489588 18.61347
13.233122999999999 30.553158 19.313379
17.966388000000002 31.090997 32.326586
19.567283 31.673024 31.744559
18.054001 32.362353999999996 31.055229
19.047936 30.733604 29.594878
17.572544 30.197205 30.131278
18.967193 29.561915 30.766568
10.833442 11.76587 19.332601
11.040797999999999 11.558515 17.556542
12.024729 10.574584 18.698529
13.273872 12.414541 17.788828
13.082772 12.605641 19.425652
12.175976 13.512437 18.373191
23.699064 31.223264 32.194319
25.463952000000003 31.473807 31.943776
24.274656 32.429304 30.988279
25.198224 30.611707 29.716776
23.571693 30.380804 29.947678
24.667755 29.500213 30.828269
32.141704000000004 31.275879 25.319044
32.006618 31.410965 23.529106000000002
30.978053 32.439531 24.589522
29.765267 30.563216 23.705240999999997
29.889763 30.438719 25.354858
30.837694 29.490788 24.377573
24.944697 10.769642000000001 19.458449
23.441755 10.769642000000001 18.467723
25.05122 10.769642000000001 17.6615
24.050242 12.953966000000001 17.672845
25.435361 12.953966000000001 18.585904
23.952068999999998 12.953966000000001 19.328923
31.751699 19.566741999999998 31.665884
31.05199 18.063016 32.365593000000004
32.322685 17.957914 31.094898
30.124698 17.573042 30.203785
30.769552 18.958884 29.55893
29.598474 19.055746 30.730009
32.238806 24.984207 19.437584
32.238806 23.440070000000002 18.512372
32.238806 25.013395 17.637716
30.054482 24.013830000000002 17.692075
30.054482 25.436913999999998 18.544755000000002
30.054482 23.986929 19.350842
32.238806 24.276588 23.459879
32.238806 25.46332 24.813408
32.238806 23.697764 25.164384000000002
30.054482 24.665974000000002 25.418657
30.054482 23.572276 24.171238
30.054482 25.199422000000002 23.847777
18.998513 32.238806 25.406527999999998
19.097648 32.238806 23.609156000000002
17.491511 32.238806 24.421989
18.096724000000002 30.054482 23.624616
18.005361999999998 30.054482 25.281084
19.485585999999998 30.054482 24.531972
24.682617 32.429469999999995 12.020335
25.260175 31.2239 10.814765
23.49488 31.473005 11.063869
24.291774999999998 29.50006 12.180025
23.759496000000002 30.61112 13.291086
25.386401 30.381544 13.061509000000001
12.009347 10.589965 24.209405
11.110040999999999 11.489272 25.483324
10.779581 11.819732 23.744943
12.190152000000001 13.498262 24.727891
13.018958 12.669456 23.553839999999997
13.323511 12.364903 25.155941000000002
19.552144 24.295486999999998 32.238806
18.176884 25.456967000000002 32.238806
17.858643999999998 23.685216999999998 32.238806
17.586495 24.648556 30.054482
18.853942 23.578131000000003 30.054482
19.147234 25.210984999999997 30.054482
24.951273 23.553321999999998 10.769642000000001
23.441345000000002 24.533369 10.769642000000001
25.045055 25.350981 10.769642000000001
24.044182 25.332541 12.953966000000001
25.435739 24.429323 12.953966000000001
23.957751 23.675808 12.953966000000001
18.854952 19.516151999999998 10.769642000000001
19.221064 17.753671 10.769642000000001
17.511656000000002 18.317849 10.769642000000001
18.229031 17.619667 12.953966000000001
17.891621 19.243978 12.953966000000001
19.467019999999998 18.724028 12.953966000000001
25.48965 11.47165 11.127663
24.184659 10.594903 12.00441
23.763363000000002 11.832417 10.766896
23.54801 12.685697000000001 13.002716
24.750697 13.493712 12.194702
25.138965000000002 12.353212 13.335202
24.479224 18.529224 30.429224
30.429224 24.479224 12.579224
12.579224 24.479224 24.479224
12.579224 30.429224 18.529224
18.529224 30.429224 30.429224
12.579224 12.579224 18.529224
24.479224 30.429224 30.429224
30.429224 30.429224 24.479224
24.479224 12.579224 18.529224
30.429224 18.529224 30.429224
30.429224 24.479224 18.529224
30.429224 24.479224 24.479224
18.529224 30.429224 24.479224
24.479224 30.429224 12.579224
12.579224 12.579224 24.479224
18.529224 24.479224 30.429224
24.479224 24.479224 12.579224
18.529224 18.529224 12.579224
24.479224 12.579224 12.579224
14.947164 26.58675 29.715666
16.155571000000002 28.316948 29.70558
20.519197 27.842496 29.715666
22.483301 27.070401 29.70558
14.566664 21.12244 29.715666
16.534393 21.885248999999998 29.70558
20.692985 22.18461 29.715666
22.311229 20.829943999999998 29.70558
14.496391 21.459244 13.292782
16.604979 21.546944 13.302868
28.381615999999998 26.943364 13.292782
26.534055 27.963341 13.302868
22.15606 16.388576 13.292782
20.855257 14.726726 13.302868
21.408945 26.399731 13.292782
21.600807 28.501402000000002 13.302868
13.292782 21.96698 28.406532000000002
13.302868 21.042839999999998 26.509218
13.292782 26.449963999999998 27.789627
13.302868 28.451066 27.119235
13.292782 20.850555 20.671307
13.302868 22.155008 22.330293
13.292782 15.083494 16.502616
13.302868 16.020013 14.611381999999999
29.715666 16.369764 28.129448
29.70558 14.745453 26.782063
29.715666 14.554081 21.156735
29.70558 16.546953000000002 21.85121
29.715666 27.214464 14.522939000000001
29.70558 27.690454 16.578971
29.715666 22.068979000000002 22.399815999999998
29.70558 20.944948 20.61365
15.022763 13.292782 28.369965
16.083781000000002 13.302868 26.545665
22.457324 13.292782 21.043101
20.556724 13.302868 21.960463
20.588922 13.292782 26.922006
22.412345 13.302868 27.984531999999998
20.672521 13.292782 14.899011999999999
22.329085 13.302868 16.206539
16.551958 29.715666 21.149879000000002
14.563899 29.70558 21.858014999999998
22.254546 29.715666 22.251251999999997
20.757601 29.70558 20.763640000000002
21.376296 29.715666 26.403192
21.63323 29.70558 28.497904000000002
27.437318 29.715666 26.39557
27.472973 29.70558 28.50568
15.554224 15.554224 15.554224
15.554224 15.554224 21.504224
15.554224 15.554224 27.454224
15.554224 21.504224 15.554224
15.554224 21.504224 21.504224
15.554224 21.504224 27.454224
15.554224 27.454224 15.554224
15.554224 27.454224 21.504224
15.554224 27.454224 27.454224
21.504224 15.554224 15.554224
21.504224 15.554224 21.504224
21.504224 15.554224 27.454224
21.504224 21.504224 15.554224
21.504224 21.504224 21.504224
21.504224 21.504224 27.454224
21.504224 27.454224 15.554224
21.504224 27.454224 21.504224
21.504224 27.454224 27.454224
27.454224 15.554224 15.554224
27.454224 15.554224 21.504224
27.454224 15.554224 27.454224
27.454224 21.504224 15.554224
27.454224 21.504224 21.504224
27.454224 21.504224 27.454224
27.454224 27.454224 15.554224
27.454224 27.454224 21.504224
27.454224 27.454224 27.454224
16.383527 28.68226 32.769436999999996
22.891666 26.933819 32.769436999999996
16.927287 22.061462000000002 32.769436999999996
22.655274000000002 20.571003 32.769436999999996
17.035557 21.542545999999998 10.239011
26.168362 28.190686 10.239011
20.572651 14.40184 10.239011
21.662097 28.927619 10.239011
10.239011 20.834498 26.132375
10.239011 28.851736 26.961501000000002
10.239011 22.438328000000002 22.654557
10.239011 16.190868000000002 14.216128
32.769436999999996 14.428708 26.490362
32.769436999999996 16.945693 22.013764
32.769436999999996 27.76573 17.002941
32.769436999999996 20.734776 20.237825
16.319243 10.239011 26.185145000000002
20.159762999999998 10.239011 22.127315
22.77267 10.239011 28.220292
22.652824 10.239011 16.490459
14.166285 32.769436999999996 22.023301999999997
20.436868 32.769436999999996 20.476329
21.707705 32.769436999999996 28.922016
27.502523 32.769436999999996 28.935266
