1_train/48_cspbbr3_methylammonium_3_0.60\48_cspbbr3_methylammonium_3_0.60.xyz
1.0
41.870446 0 0
0 41.870446 0
0 0 41.870446
Br C Cs H N Pb 
108 28 26 168 28 27 
Cartesian
20.693093999999995 29.862682 26.827194
26.748331 15.035938999999997 29.69542
23.773607999999996 14.961070999999999 27.063209999999998
21.030032 26.976250999999998 18.146767999999994
27.042417 11.837577999999999 27.003018999999995
20.788782999999995 24.032928 20.885009999999994
26.844634 14.731338999999998 23.813629
17.957364999999996 26.803289999999997 20.769948
23.96284 15.015742999999999 21.181456999999995
21.03523 24.003788999999998 27.028563
26.712157999999995 12.102529999999998 20.745874999999998
27.019005999999997 15.011425999999998 17.798423
18.090809999999998 26.662555999999995 26.797489
24.061631999999996 15.066699999999999 14.856986999999998
21.161286999999994 26.998984 29.809021
20.677296 29.965088 14.890595999999999
20.785703999999996 29.82034 21.180740999999998
26.822844999999994 14.819898999999998 11.917019999999997
20.957724999999996 26.801882999999997 23.707285
26.985405 12.094459999999998 14.846387999999997
26.704558999999996 17.813356 21.057834999999997
27.019571999999997 18.052541999999995 15.189813
29.677546 26.754275 26.703398
29.837067999999995 27.017131999999997 20.764826
29.775183999999996 26.915808 15.165714999999999
29.806511 21.003926999999997 26.723005
29.712283999999997 21.008294 21.087343999999995
29.919301999999995 20.917916999999996 15.274281999999998
29.880505 15.155863999999998 26.704321999999998
29.924329 14.727547999999999 21.043471999999994
30.061627 14.875157999999997 14.908111999999997
26.700871999999997 29.802087 27.069945999999995
26.812977999999994 29.797865 14.780433999999998
27.077087999999996 26.954207999999994 29.641507999999995
23.924557 26.680243999999995 26.788475999999996
27.024755999999996 21.057094 12.077558999999997
27.020725 24.042953999999995 27.103057
23.880433999999994 26.768076999999998 21.078289999999996
26.9448 24.021594 21.078495999999994
26.963155 26.732177 18.122104
23.799656999999996 26.793927999999994 14.876250999999998
26.959543999999994 24.107051 14.827863999999998
26.8191 27.095969999999994 12.056592999999998
26.890273999999998 20.738875 29.681576999999997
24.056221 20.766776999999998 27.004489
26.636300999999996 17.846416999999995 26.984553
26.846584 21.026533999999998 24.071818
24.088189999999997 21.010090999999996 20.770210999999996
26.645632 20.899203 18.029244
24.087483 20.819008999999994 15.052406999999999
26.771850999999998 26.767333 23.762305999999995
17.796997999999995 26.885883999999997 14.905025999999998
26.748258999999997 29.778512 21.165018999999994
14.777782999999998 29.690684999999995 20.962815
15.065821999999999 30.063235 14.945434999999998
14.866470999999999 14.830756999999998 18.097186999999998
14.951123999999998 26.697786999999998 29.700091
11.841277999999997 26.788899 26.797356
14.961129999999999 24.112902999999996 26.948108999999995
15.068503999999999 26.816331999999996 24.188038999999996
12.075127999999998 26.835040999999997 20.716502
15.116742999999998 23.898027999999996 20.801440999999997
15.144055999999997 26.74035 18.020728999999996
14.932596999999998 11.833534999999998 20.922729999999994
11.870895999999998 26.903892999999997 14.868189999999998
12.181510999999999 15.124444999999998 20.769712
12.093440999999999 14.993702999999998 27.14906
14.880019999999998 24.010974999999995 14.830849999999998
15.112678999999998 20.849477999999998 29.718531
15.097970999999998 15.147436999999998 23.984375999999997
15.134333999999997 11.859989999999998 26.674633
11.812964999999998 20.899494999999995 27.059686999999997
14.818284999999998 18.063970999999995 27.044331999999997
14.846795999999998 21.037549999999996 24.145595
12.172401999999998 21.092479999999995 20.959512999999994
15.054175999999998 17.967375999999998 20.744031
14.783227999999998 21.052777 18.095191
12.178647999999997 21.096393 14.963140999999998
15.119460999999998 17.868294 14.879968999999997
15.060418999999998 20.780147999999997 12.073086999999997
14.879414999999998 26.997972999999995 11.863025999999998
15.169347999999998 29.924577 27.084576
14.887575999999997 15.090790999999998 29.706399999999995
21.125234999999996 20.913919 11.878028999999998
21.110326 17.9801 26.773159999999997
21.054314999999995 20.827659999999995 23.745835999999997
15.205960999999999 12.008235999999998 14.797109999999998
17.874873 20.811208 21.086633999999997
21.087253999999994 17.853719999999996 20.915596
20.772265999999995 21.053051999999994 17.938715
12.117689999999998 14.901828999999998 14.845267999999999
21.057603999999998 14.931181999999998 11.863299999999999
17.847482999999997 20.748726999999995 14.790558999999998
20.990302999999997 18.167454999999997 15.108123999999998
21.143497999999994 21.106302 29.990440999999997
14.814375999999998 14.948579999999998 12.211966999999998
20.803442999999994 15.000745999999998 29.683642
21.029695999999994 24.155389999999997 15.112152999999998
17.840069 15.240129999999999 26.826148999999994
20.856401999999996 27.137332999999998 11.875695999999998
21.013929999999995 11.946075999999998 27.110529
20.807584 14.866613 24.049619
17.923459 15.053070999999997 20.717852
20.941488 11.898198999999998 21.092174
21.099548999999996 14.759485999999997 17.937038
18.155076 14.841521999999998 14.826350999999997
21.075170999999997 11.847014999999999 15.024045999999998
18.034110999999996 21.009209999999996 27.088904
30.979983999999995 30.927465999999995 17.943469999999998
17.962902999999997 18.040408999999997 10.521411999999998
17.981361 10.470511999999998 18.013982
10.978022999999999 23.832673 30.941412
17.956539999999997 10.446098999999998 23.872853999999997
23.893335 10.950057999999999 10.860879999999998
11.019937999999998 30.831944 17.973264999999998
30.830205 10.918515999999999 23.903907999999994
23.903396 10.607053999999998 23.893238999999994
10.911775999999998 30.883623999999998 24.001562
11.059909999999999 10.923093999999997 23.945428999999997
30.962086 23.851409999999994 30.853482
18.024887 23.946756999999998 31.360644
17.887817 10.997273999999997 10.896094999999997
10.995877999999998 23.993837 10.946319999999998
18.016483 30.957884999999997 11.022009999999998
31.379591999999995 23.955137999999998 17.915965
23.985732999999996 31.272248999999995 23.897368
10.988725999999998 17.971280999999998 11.040356999999998
17.904303 31.297623 23.853874999999995
31.387895999999998 17.877054 23.907655999999996
23.945443999999995 11.061621999999998 30.885247
23.837562999999996 10.571420999999999 17.960124999999998
10.537483999999997 17.879472 23.937486999999997
23.889951999999994 31.294826999999998 18.034304999999996
10.447954999999999 23.886184 23.895129999999995
23.876799999999996 23.994301 31.275611999999995
18.009627 31.392024999999997 18.008882999999997
12.256202999999998 11.638004999999998 17.964658999999997
29.874755 24.278973999999998 12.435100999999998
23.847168999999994 30.294584 29.755334999999995
29.60978 17.932939999999995 11.601474999999999
29.901322 18.324351 29.486700999999996
29.60369 18.378791 17.778469
30.162619 24.240899999999996 23.550480999999998
17.519629 24.199951 17.826024999999998
30.110735 29.649629999999995 24.197263
24.212647999999994 30.278346 12.040599999999998
17.943568 18.204313999999997 29.319697999999995
18.338822999999998 24.021845 24.122239999999998
18.205393 17.682184999999997 23.96662
17.519579 17.916470999999998 17.683090999999997
17.899049999999995 30.229208999999997 29.48097
17.586999999999996 11.717134999999997 29.710513999999996
23.936384999999994 17.588074999999996 11.622047999999998
18.167823999999996 24.210043 12.290126999999998
23.584471 17.645868 23.627688
12.124636999999998 23.672698999999994 18.401579999999996
23.598462999999995 17.706977 29.56183
23.885141999999995 24.366304999999997 11.999903999999997
12.383162999999998 17.540189999999996 29.646315
23.82714 23.627280999999996 17.527583
24.116383999999996 23.551738999999998 23.492784999999998
23.399167 18.180181999999995 18.182159
17.038070999999995 31.668858999999998 17.550070999999996
10.849004999999998 31.261815 24.975187
11.761750999999999 29.036847 24.475268
24.397721999999995 12.891964999999997 11.676096999999999
17.362099 12.399446999999999 23.137136999999996
12.878079999999999 30.206997 24.286265
12.161194999999998 29.523975 22.969024999999995
18.855739999999997 31.676049999999996 17.376273999999995
18.085639999999998 31.664252999999995 18.995276999999994
10.043127999999998 30.482620999999995 23.553818
24.990164999999998 10.752966999999998 10.686497999999998
11.308064999999997 31.690692 23.239244999999997
18.34008 10.207127999999999 22.908936999999995
17.20453 29.48288 18.530777
18.804351999999994 29.471331999999997 18.350482999999997
17.633136999999998 12.379139999999998 24.837902
22.964225 12.260443999999998 12.256418999999998
24.404407999999997 11.734758999999999 12.874276999999998
18.895727 12.396730999999997 23.785815
18.614397999999994 10.172547999999997 24.729014
23.450544 10.092024999999998 11.358637999999997
23.384865999999995 11.381303999999998 10.134416999999997
16.932261999999998 10.165870999999997 24.082167999999996
17.867867999999998 29.513793 16.982656
11.701478999999997 24.398381999999998 29.035253999999995
22.89709 31.687582999999997 23.632368999999997
17.752485999999998 16.958211 10.197047999999999
18.629625999999995 17.263327999999998 12.391140999999998
17.008314 17.682212999999997 12.402921999999998
18.178185999999997 18.907157999999995 12.345163999999999
11.349799999999998 23.407083 31.800654
10.732486999999997 24.975890999999997 31.167601999999995
10.118235999999998 23.391600999999994 30.477472999999996
12.248779999999998 22.969977 29.627190999999996
12.887886999999997 24.375603999999996 30.179806999999997
24.287330999999995 10.004835999999997 30.471131
24.560218999999996 11.336180999999998 31.713003999999998
22.909723999999997 10.875690999999998 31.279540999999995
23.615161 12.909695999999999 30.242039
23.279883999999996 11.737169999999997 29.050956999999997
24.881843999999994 12.170018999999998 29.452898999999995
10.185855999999998 22.988110999999996 23.49196
10.227449999999997 24.014458999999995 24.966980999999997
10.200556999999998 24.741958999999994 23.306915999999994
12.380257999999998 24.801040999999998 24.303535999999994
18.983810999999996 18.263580999999995 10.220589999999998
17.189974 18.687006999999994 10.222487999999998
11.791464999999999 17.275259 12.728243999999998
12.961368999999998 17.729731 11.621836999999998
24.147914 31.650619999999996 24.947229999999998
23.226743 29.516509 24.552501
24.826843999999994 29.520686999999995 24.186692999999998
23.723323999999998 29.517871999999997 22.969936999999994
17.138296999999998 31.672261 24.607754
18.96264 31.650706999999997 24.255198
17.800843999999998 31.639876 22.877196999999995
18.680341999999996 29.45839 23.266647
17.071163999999996 29.461377 23.569558
24.681748999999996 31.687264999999996 23.173291
18.095652 29.478158999999998 24.860388
18.254452999999998 22.925863 31.636196999999996
18.665597999999996 24.616288999999995 31.669204999999998
18.851442 23.684503 29.480326999999996
17.678562 24.843629 29.508595
17.319018999999997 23.224717 29.461135
10.940259999999999 16.987763 10.537981999999998
9.997612999999998 18.182581 11.421403999999997
11.247131999999999 18.753229999999995 10.236504999999998
12.080373999999997 18.890667999999998 12.446139999999998
16.915093 24.169022 31.687199
23.621156999999997 12.351531999999999 17.060904999999998
12.664430999999999 30.02413 18.746058999999995
24.861503999999996 12.355342999999998 18.139927
30.652069999999995 10.275605999999998 24.715534999999996
30.92367 10.508493999999997 22.901685999999998
31.868058999999995 11.476470999999998 24.134867999999997
30.043321 12.699383999999998 23.221425999999994
29.806503 12.520339999999997 24.784912999999996
28.947916 11.645257999999998 23.722860999999995
31.012065 31.234412 18.957513
31.804521 30.480961999999998 17.580703
30.566797 31.734029 17.283715
12.357825999999998 23.810919 22.942451999999996
29.727210999999997 29.495568 17.035344
30.081886999999995 29.081565999999995 18.580433
24.277231999999998 10.185603999999998 24.857028999999997
22.890912999999998 10.181379999999999 23.768725999999994
24.614036 10.197863999999997 23.090739
23.547548 12.369329999999998 22.995259999999995
24.891914 12.392239999999997 24.077379999999998
23.294356999999998 12.403378999999997 24.676412
30.439681 23.606437999999997 31.879419999999996
31.644087999999996 23.185342999999996 30.640338
28.917980999999997 30.224993999999995 18.305296999999996
31.321889 24.888914 30.992745
11.604964999999998 28.927236999999998 18.118291
10.262121999999998 30.716040999999997 17.154078999999996
24.436194 31.637285999999996 17.032458
22.890673 31.666598999999998 17.993417
24.424803999999995 31.663646999999997 18.902108
23.393085 29.48288 18.772374
24.910810999999995 29.480815999999997 17.958360999999996
23.411614 29.490944999999996 17.096218999999998
10.200611999999998 18.995422999999995 23.865997
10.170825999999998 17.366014 23.078992999999997
10.223604999999997 17.515629999999998 24.880103
12.563133999999998 29.832935999999997 17.075105
12.363367999999998 17.029692999999998 24.015297999999994
12.358814999999998 18.342306 23.058101999999998
24.926918 23.634327 31.701226999999996
23.670997 24.943045999999995 31.689969999999995
23.167724 23.215089 31.704211
22.965733999999998 24.171521 29.515045
24.167203 22.962995999999997 29.497310999999996
24.612232 24.607816 29.493707
10.440914999999999 30.898384999999998 18.936031
11.498071999999999 31.851115999999998 17.813432
12.396576999999999 18.483902 24.666937999999995
30.243238999999996 24.165335999999996 28.981381999999996
29.078556999999996 24.599438 30.067504999999997
29.454612999999995 23.002128 29.756684
10.492289999999999 10.984668999999998 22.92532
11.437978999999999 10.041410999999998 24.066300999999996
12.674281999999998 11.874924999999998 23.178058999999998
12.503614999999998 11.992273999999998 24.788748999999996
11.632485999999998 12.972895999999999 23.751566999999994
18.715801 10.189857999999997 17.192218999999998
18.275662999999994 10.223077999999997 18.985546
16.961769999999998 10.177794999999998 17.742411999999998
17.327551 12.391569999999998 18.646617999999997
10.264960999999998 11.182305999999999 24.682812
17.668647999999997 12.371036999999998 17.019056
17.602477999999998 31.832969999999996 11.454275999999998
18.997287999999998 30.971458 10.615675999999999
17.262381999999995 30.560745999999995 10.190129999999998
18.252508 28.981283999999995 11.663129999999999
17.035395 29.747578999999995 12.384180999999998
18.605655 30.131878 12.754545999999998
22.849863999999997 10.184504999999998 17.754138999999995
24.572305999999998 10.204519999999999 17.20286
24.233677999999998 10.194809999999999 18.919008999999996
18.8703 12.405905999999998 18.213460999999995
12.499307999999997 23.024313999999997 12.016326999999999
12.693766999999998 24.695631999999996 11.896538999999999
11.618244999999998 24.002955999999998 12.922443999999999
17.139894999999996 10.321732999999998 11.133185999999998
17.819868999999997 11.455485999999999 10.023608999999999
18.908535 10.458853999999999 11.060544999999998
18.766115 12.661761999999998 11.854106999999997
18.046955999999994 11.555619999999998 12.950748999999998
17.054926 12.542093999999999 11.985860999999998
31.642145999999997 23.927110999999996 19.000761999999995
31.674835 22.976934 17.447094999999997
31.645938 24.832080999999995 17.475642
29.481093 23.963324 16.999131999999996
29.526778 24.744889 18.444145999999996
29.513197999999996 23.075446999999997 18.392882999999998
31.696196 18.73677 23.177059
31.697812 18.188629999999996 24.890679
31.645063 16.977686999999996 23.621508999999996
29.465610999999996 17.291131 24.572140999999995
29.508111999999997 17.733624 22.9936
29.487603999999997 18.840393999999996 24.211726999999996
11.431170999999997 23.793121999999997 10.018046999999997
10.298824999999999 23.058439999999997 11.186710999999997
10.467704999999999 24.842793 10.989594999999998
23.302918 12.366889999999998 18.664611
12.346451999999998 23.135982 24.446797999999994
18.040442 29.825789 12.062959999999999
17.929486999999998 29.777966999999997 17.914057
12.002262999999997 11.978932999999998 23.843843
12.067987999999998 23.988307999999996 23.869366
29.769107999999996 23.928652 29.813607999999995
23.878087999999998 11.975515999999999 17.903158999999995
11.966707999999999 29.927169999999997 23.951052999999995
18.004250999999996 11.981409999999999 11.962432999999999
23.868966 12.040903999999998 23.982414999999996
11.953700999999999 23.91592 12.097485999999998
17.889469999999996 12.067491999999998 23.886314999999996
17.988561999999998 29.817768 23.965125999999998
23.925553 29.828311 17.877440999999997
29.933119999999995 23.927957999999997 17.928565999999996
29.811065 17.985318 23.840829
23.946309 29.848138999999996 23.995711999999997
17.903433 23.883787999999996 29.775703999999998
12.058516999999998 18.041481999999995 23.933546
12.027974999999998 18.03911 12.034457999999997
29.880091999999998 12.072159999999998 23.985175999999996
23.955709999999996 12.068475999999999 29.822378999999998
23.915209999999995 23.949002 29.946951999999996
23.859429999999996 12.070422999999998 12.034919999999998
29.90094 29.807409999999997 17.901733999999998
11.964609999999999 29.802310999999996 18.009617
17.878059999999998 17.941944999999997 11.989352999999998
11.979460999999999 23.848352999999996 29.907784999999997
17.987396999999998 11.964460999999998 17.907745
14.882236999999998 14.917441999999998 14.801142999999998
15.208616999999998 20.786004999999996 27.108266999999998
20.722970999999994 14.841680999999998 14.937770999999998
20.753352999999997 20.891227 15.169540999999997
26.842650999999996 26.597406999999997 20.7699
26.798744999999997 15.210258999999999 21.048513
14.783324999999998 26.984085 15.247251999999998
26.880249 26.916002 14.702600999999998
14.820214999999997 26.72197 21.123762
20.991667 15.175018999999997 27.070459
26.782643999999998 14.779663999999999 26.936555
27.005347999999998 20.848841999999998 27.073829999999994
14.807851999999999 26.847497999999995 27.103744999999996
20.802197 26.789389999999997 20.653600999999995
26.985484 20.735971 21.114506
21.108024 15.133641999999998 21.138856999999994
26.679758999999997 26.993005999999994 26.750771999999998
26.678973999999997 14.847763999999998 14.843840999999998
26.907939 21.006496 15.219909999999999
20.878763999999997 20.773661999999995 21.155173999999995
14.785398999999998 21.027550999999995 15.076472999999998
20.78078 27.043589999999995 15.023045999999999
20.870193999999998 21.044686999999996 27.077929999999995
15.031704999999997 15.046055999999998 26.647062999999996
15.117878999999999 20.86213 20.677882999999994
15.251931999999998 14.954272999999999 20.771190999999995
20.860056999999998 26.752342 26.621224999999995
