3_train/220_cspbbr3_MA-4-Br-2-TPC_4_0.20\220_cspbbr3_MA-4-Br-2-TPC_4_0.20.xyz
1.0
48.958448000000004 0 0
0 48.958448000000004 0
0 0 48.958448000000004
Br C Cs H N O Pb S 
240 137 95 150 17 48 64 24 
Cartesian
12.579224000000002 15.554224000000001 15.554224000000001
15.554224000000001 15.554224000000001 18.529224
15.554224000000001 12.579224000000002 21.504224
12.579224000000002 15.554224000000001 21.504224
15.554224000000001 15.554224000000001 24.479224000000002
15.554224000000001 12.579224000000002 27.454224000000004
15.554224000000001 15.554224000000001 30.429224000000005
15.554224000000001 12.579224000000002 33.404224
15.554224000000001 15.554224000000001 36.379224
15.554224000000001 21.504224 12.579224000000002
15.554224000000001 18.529224 15.554224000000001
12.579224000000002 21.504224 15.554224000000001
15.554224000000001 21.504224 18.529224
15.554224000000001 18.529224 21.504224
12.579224000000002 21.504224 21.504224
15.554224000000001 21.504224 24.479224000000002
15.554224000000001 18.529224 27.454224000000004
12.579224000000002 21.504224 27.454224000000004
15.554224000000001 21.504224 30.429224000000005
15.554224000000001 18.529224 33.404224
12.579224000000002 21.504224 33.404224
15.554224000000001 21.504224 36.379224
15.554224000000001 27.454224000000004 12.579224000000002
15.554224000000001 24.479224000000002 15.554224000000001
12.579224000000002 27.454224000000004 15.554224000000001
15.554224000000001 27.454224000000004 18.529224
15.554224000000001 24.479224000000002 21.504224
15.554224000000001 27.454224000000004 24.479224000000002
15.554224000000001 24.479224000000002 27.454224000000004
12.579224000000002 27.454224000000004 27.454224000000004
15.554224000000001 27.454224000000004 30.429224000000005
15.554224000000001 24.479224000000002 33.404224
12.579224000000002 27.454224000000004 33.404224
15.554224000000001 27.454224000000004 36.379224
15.554224000000001 33.404224 12.579224000000002
15.554224000000001 30.429224000000005 15.554224000000001
12.579224000000002 33.404224 15.554224000000001
15.554224000000001 33.404224 18.529224
15.554224000000001 30.429224000000005 21.504224
12.579224000000002 33.404224 21.504224
15.554224000000001 33.404224 24.479224000000002
15.554224000000001 30.429224000000005 27.454224000000004
15.554224000000001 33.404224 30.429224000000005
15.554224000000001 30.429224000000005 33.404224
12.579224000000002 33.404224 33.404224
15.554224000000001 33.404224 36.379224
15.554224000000001 36.379224 15.554224000000001
15.554224000000001 36.379224 21.504224
15.554224000000001 36.379224 27.454224000000004
15.554224000000001 36.379224 33.404224
21.504224 15.554224000000001 12.579224000000002
18.529224 15.554224000000001 15.554224000000001
21.504224 15.554224000000001 18.529224
21.504224 12.579224000000002 21.504224
18.529224 15.554224000000001 21.504224
21.504224 15.554224000000001 24.479224000000002
21.504224 12.579224000000002 27.454224000000004
18.529224 15.554224000000001 27.454224000000004
21.504224 15.554224000000001 30.429224000000005
21.504224 12.579224000000002 33.404224
18.529224 15.554224000000001 33.404224
21.504224 15.554224000000001 36.379224
21.504224 21.504224 12.579224000000002
21.504224 18.529224 15.554224000000001
18.529224 21.504224 15.554224000000001
21.504224 21.504224 18.529224
21.504224 18.529224 21.504224
18.529224 21.504224 21.504224
21.504224 21.504224 24.479224000000002
21.504224 18.529224 27.454224000000004
18.529224 21.504224 27.454224000000004
21.504224 21.504224 30.429224000000005
21.504224 18.529224 33.404224
18.529224 21.504224 33.404224
21.504224 21.504224 36.379224
21.504224 27.454224000000004 12.579224000000002
21.504224 24.479224000000002 15.554224000000001
18.529224 27.454224000000004 15.554224000000001
21.504224 27.454224000000004 18.529224
21.504224 24.479224000000002 21.504224
18.529224 27.454224000000004 21.504224
21.504224 27.454224000000004 24.479224000000002
21.504224 24.479224000000002 27.454224000000004
18.529224 27.454224000000004 27.454224000000004
21.504224 27.454224000000004 30.429224000000005
21.504224 24.479224000000002 33.404224
18.529224 27.454224000000004 33.404224
21.504224 27.454224000000004 36.379224
21.504224 33.404224 12.579224000000002
21.504224 30.429224000000005 15.554224000000001
18.529224 33.404224 15.554224000000001
21.504224 33.404224 18.529224
21.504224 30.429224000000005 21.504224
18.529224 33.404224 21.504224
21.504224 33.404224 24.479224000000002
21.504224 30.429224000000005 27.454224000000004
18.529224 33.404224 27.454224000000004
21.504224 33.404224 30.429224000000005
21.504224 30.429224000000005 33.404224
18.529224 33.404224 33.404224
21.504224 36.379224 15.554224000000001
21.504224 36.379224 27.454224000000004
21.504224 36.379224 33.404224
27.454224000000004 15.554224000000001 12.579224000000002
27.454224000000004 12.579224000000002 15.554224000000001
24.479224000000002 15.554224000000001 15.554224000000001
27.454224000000004 15.554224000000001 18.529224
24.479224000000002 15.554224000000001 21.504224
27.454224000000004 15.554224000000001 24.479224000000002
27.454224000000004 12.579224000000002 27.454224000000004
24.479224000000002 15.554224000000001 27.454224000000004
27.454224000000004 15.554224000000001 30.429224000000005
27.454224000000004 12.579224000000002 33.404224
24.479224000000002 15.554224000000001 33.404224
27.454224000000004 15.554224000000001 36.379224
27.454224000000004 18.529224 15.554224000000001
24.479224000000002 21.504224 15.554224000000001
27.454224000000004 21.504224 18.529224
27.454224000000004 18.529224 21.504224
24.479224000000002 21.504224 21.504224
27.454224000000004 21.504224 24.479224000000002
27.454224000000004 18.529224 27.454224000000004
24.479224000000002 21.504224 27.454224000000004
27.454224000000004 21.504224 30.429224000000005
27.454224000000004 18.529224 33.404224
24.479224000000002 21.504224 33.404224
27.454224000000004 27.454224000000004 12.579224000000002
27.454224000000004 24.479224000000002 15.554224000000001
24.479224000000002 27.454224000000004 15.554224000000001
27.454224000000004 27.454224000000004 18.529224
27.454224000000004 24.479224000000002 21.504224
24.479224000000002 27.454224000000004 21.504224
27.454224000000004 27.454224000000004 24.479224000000002
27.454224000000004 24.479224000000002 27.454224000000004
24.479224000000002 27.454224000000004 27.454224000000004
27.454224000000004 27.454224000000004 30.429224000000005
27.454224000000004 24.479224000000002 33.404224
24.479224000000002 27.454224000000004 33.404224
27.454224000000004 33.404224 12.579224000000002
27.454224000000004 30.429224000000005 15.554224000000001
24.479224000000002 33.404224 15.554224000000001
27.454224000000004 33.404224 18.529224
27.454224000000004 30.429224000000005 21.504224
24.479224000000002 33.404224 21.504224
27.454224000000004 33.404224 24.479224000000002
27.454224000000004 30.429224000000005 27.454224000000004
24.479224000000002 33.404224 27.454224000000004
27.454224000000004 33.404224 30.429224000000005
27.454224000000004 30.429224000000005 33.404224
24.479224000000002 33.404224 33.404224
27.454224000000004 33.404224 36.379224
27.454224000000004 36.379224 15.554224000000001
27.454224000000004 36.379224 21.504224
27.454224000000004 36.379224 33.404224
33.404224 12.579224000000002 15.554224000000001
30.429224000000005 15.554224000000001 15.554224000000001
33.404224 15.554224000000001 18.529224
33.404224 12.579224000000002 21.504224
30.429224000000005 15.554224000000001 21.504224
33.404224 15.554224000000001 24.479224000000002
33.404224 12.579224000000002 27.454224000000004
30.429224000000005 15.554224000000001 27.454224000000004
33.404224 15.554224000000001 30.429224000000005
30.429224000000005 15.554224000000001 33.404224
33.404224 15.554224000000001 36.379224
33.404224 21.504224 12.579224000000002
33.404224 18.529224 15.554224000000001
30.429224000000005 21.504224 15.554224000000001
33.404224 21.504224 18.529224
33.404224 18.529224 21.504224
30.429224000000005 21.504224 21.504224
33.404224 21.504224 24.479224000000002
33.404224 18.529224 27.454224000000004
30.429224000000005 21.504224 27.454224000000004
33.404224 21.504224 30.429224000000005
33.404224 18.529224 33.404224
30.429224000000005 21.504224 33.404224
33.404224 21.504224 36.379224
33.404224 24.479224000000002 15.554224000000001
30.429224000000005 27.454224000000004 15.554224000000001
33.404224 27.454224000000004 18.529224
33.404224 24.479224000000002 21.504224
30.429224000000005 27.454224000000004 21.504224
33.404224 27.454224000000004 24.479224000000002
33.404224 24.479224000000002 27.454224000000004
30.429224000000005 27.454224000000004 27.454224000000004
33.404224 27.454224000000004 30.429224000000005
33.404224 24.479224000000002 33.404224
30.429224000000005 27.454224000000004 33.404224
33.404224 27.454224000000004 36.379224
33.404224 33.404224 12.579224000000002
33.404224 30.429224000000005 15.554224000000001
30.429224000000005 33.404224 15.554224000000001
33.404224 33.404224 18.529224
33.404224 30.429224000000005 21.504224
30.429224000000005 33.404224 21.504224
33.404224 33.404224 24.479224000000002
33.404224 30.429224000000005 27.454224000000004
30.429224000000005 33.404224 27.454224000000004
33.404224 33.404224 30.429224000000005
33.404224 30.429224000000005 33.404224
30.429224000000005 33.404224 33.404224
33.404224 36.379224 15.554224000000001
33.404224 36.379224 33.404224
36.379224 15.554224000000001 15.554224000000001
36.379224 15.554224000000001 21.504224
36.379224 15.554224000000001 27.454224000000004
36.379224 15.554224000000001 33.404224
36.379224 21.504224 15.554224000000001
36.379224 21.504224 21.504224
36.379224 21.504224 27.454224000000004
36.379224 21.504224 33.404224
36.379224 27.454224000000004 27.454224000000004
36.379224 33.404224 21.504224
36.379224 33.404224 27.454224000000004
36.379224 33.404224 33.404224
20.835281000000002 35.237826 41.458448000000004
28.59368 23.088907000000006 41.458448000000004
28.901356 26.144495 41.458448000000004
31.529386000000002 32.861487000000004 41.458448000000004
34.061306 17.392109 7.500000000000002
25.836759 20.411801000000004 7.500000000000002
13.628660000000002 15.873260000000002 7.500000000000002
33.810376000000005 29.363313000000005 7.500000000000002
7.500000000000002 15.275847000000002 29.386085
7.500000000000002 34.831430000000005 28.785637
7.500000000000002 17.439203 33.910616000000005
7.500000000000002 26.16118 22.966284
41.458448000000004 29.058549 16.665854000000003
41.458448000000004 28.912316000000004 20.206708
41.458448000000004 25.925781 32.190369000000004
41.458448000000004 32.922668 17.445701
23.094675000000002 7.500000000000002 14.422833000000002
31.812054000000003 7.500000000000002 32.275253
25.503915 7.500000000000002 21.580883
16.806502000000002 7.500000000000002 17.051348000000004
31.542445999999998 41.458448000000004 28.040195000000004
21.595253 41.458448000000004 19.554533
34.942996 41.458448000000004 20.303491
27.474856000000003 41.458448000000004 25.502519
21.257192000000003 34.079 40.02676400000001
21.120741000000002 34.439694 38.666546000000004
21.504224 33.404224 37.83208200000001
21.732930000000003 32.795329 40.208629
21.504224 33.404224 36.379224
27.873068000000004 22.088105000000006 40.02676400000001
28.094479 22.403852 38.666546000000004
27.454224000000004 21.504224 37.83208200000001
27.079533000000005 20.972561000000002 40.208629
27.454224000000004 21.504224 36.379224
27.987535 26.972636 40.02676400000001
28.276505 26.717263000000003 38.666546000000004
27.454224000000004 27.454224000000004 37.83208200000001
26.967859000000004 27.886090000000003 40.208629
27.454224000000004 27.454224000000004 36.379224
32.714214 33.203639 40.02676400000001
32.345079 33.092025 38.666546000000004
33.404224 33.404224 37.83208200000001
34.027258 33.591004000000005 40.208629
33.404224 33.404224 36.379224
33.646891000000004 16.230582000000002 8.931684000000002
33.781009000000005 16.592150000000004 10.291902000000002
33.404224 15.554224000000001 11.126366
33.179457 14.943864000000001 8.749819000000002
33.404224 15.554224000000001 12.579224000000002
26.858294 21.102708 8.931684000000002
26.53618 20.890667 10.291902000000002
27.454224000000004 21.504224 11.126366
27.996662 21.863139000000004 8.749819000000002
27.454224000000004 21.504224 12.579224000000002
14.845447000000002 15.672473000000002 8.931684000000002
14.465766000000002 15.740010000000002 10.291902000000002
15.554224000000001 15.554224000000001 11.126366
16.194869000000004 15.441827000000002 8.749819000000002
15.554224000000001 15.554224000000001 12.579224000000002
33.554539 28.1569 8.931684000000002
33.639248 28.533122000000006 10.291902000000002
33.404224 27.454224000000004 11.126366
33.262849 26.819344 8.749819000000002
33.404224 27.454224000000004 12.579224000000002
8.931684000000002 15.452534000000002 28.165566000000005
10.291902000000002 15.402057000000001 28.547888
11.126366 15.554224000000001 27.454224000000004
8.749819000000002 15.640882000000001 26.809593
12.579224000000002 15.554224000000001 27.454224000000004
8.931684000000002 33.930208 27.943804
10.291902000000002 34.215292000000005 28.203507000000002
11.126366 33.404224 27.454224000000004
8.749819000000002 32.92443 27.015069000000004
12.579224000000002 33.404224 27.454224000000004
8.931684000000002 16.248400000000004 33.589878
10.291902000000002 16.621994 33.685514000000005
11.126366 15.554224000000001 33.404224
8.749819000000002 14.924495000000002 33.241437000000005
12.579224000000002 15.554224000000001 33.404224
8.931684000000002 26.978785000000002 22.043024000000003
10.291902000000002 26.726743000000006 22.334904
11.126366 27.454224000000004 21.504224
8.749819000000002 27.880483000000005 21.012937
12.579224000000002 27.454224000000004 21.504224
40.02676400000001 28.044408000000004 15.964139000000001
38.666546000000004 28.358768000000005 16.187514
37.83208200000001 27.454224000000004 15.554224000000001
40.208629 26.92313 15.178727000000002
36.379224 27.454224000000004 15.554224000000001
40.02676400000001 27.991565 21.027136000000002
38.666546000000004 28.282671 20.774202000000002
37.83208200000001 27.454224000000004 21.504224
40.208629 26.964245000000005 21.931985000000005
36.379224 27.454224000000004 21.504224
40.02676400000001 26.892019000000005 32.956705
38.666546000000004 26.592890000000004 32.713312
37.83208200000001 27.454224000000004 33.404224
40.208629 27.959709000000004 33.813545000000005
36.379224 27.454224000000004 33.404224
40.02676400000001 33.226156 16.250385
38.666546000000004 33.126591000000005 16.622951
37.83208200000001 33.404224 15.554224000000001
40.208629 33.57067 14.925452000000002
36.379224 33.404224 15.554224000000001
22.090225000000004 8.931684000000002 15.138351000000002
22.407093000000003 10.291902000000002 14.918547000000002
21.504224 11.126366 15.554224000000001
20.970665000000004 8.749819000000002 15.926210000000001
21.504224 12.579224000000002 15.554224000000001
32.818522 8.931684000000002 32.987929
32.506604 10.291902000000002 32.761157000000004
33.404224 11.126366 33.404224
33.931213 8.749819000000002 33.785461000000005
33.404224 12.579224000000002 33.404224
26.736174000000005 8.931684000000002 21.531642000000005
26.350679 10.291902000000002 21.542224000000004
27.454224000000004 11.126366 21.504224
28.104365 8.749819000000002 21.484843000000005
27.454224000000004 12.579224000000002 21.504224
16.014641000000005 8.931684000000002 16.105916
16.258546000000003 10.291902000000002 16.404628000000002
15.554224000000001 11.126366 15.554224000000001
15.141661000000001 8.749819000000002 15.051382000000002
15.554224000000001 12.579224000000002 15.554224000000001
32.71904 40.02676400000001 27.670721
32.352586 38.666546000000004 27.790846000000002
33.404224 37.83208200000001 27.454224000000004
34.02277 40.208629 27.253078000000002
33.404224 36.379224 27.454224000000004
21.536933000000005 40.02676400000001 20.786395000000002
21.550355000000003 38.666546000000004 20.400989000000003
21.504224 37.83208200000001 21.504224
21.480052 40.208629 22.154205000000005
21.504224 36.379224 21.504224
33.970238 40.02676400000001 21.061532
34.271438 38.666546000000004 20.820707000000002
33.404224 37.83208200000001 21.504224
32.895256 40.208629 21.909206000000005
33.404224 36.379224 21.504224
27.461015000000003 40.02676400000001 26.735683
27.460524 38.666546000000004 26.350042000000002
27.454224000000004 37.83208200000001 27.454224000000004
27.453517000000005 40.208629 28.104653000000006
27.454224000000004 36.379224 27.454224000000004
11.535774000000002 18.529224 11.535774000000002
30.429224000000005 24.479224000000002 11.103563000000001
11.103563000000001 30.429224000000005 30.429224000000005
11.535774000000002 18.529224 37.42267400000001
11.103563000000001 18.529224 18.529224
37.42267400000001 11.535774000000002 24.479224000000002
11.535774000000002 37.42267400000001 24.479224000000002
37.42267400000001 18.529224 11.535774000000002
24.479224000000002 11.103563000000001 30.429224000000005
11.103563000000001 18.529224 24.479224000000002
24.479224000000002 37.42267400000001 11.535774000000002
37.42267400000001 30.429224000000005 37.42267400000001
30.429224000000005 11.103563000000001 24.479224000000002
11.535774000000002 11.535774000000002 24.479224000000002
24.479224000000002 11.535774000000002 11.535774000000002
18.529224 11.535774000000002 37.42267400000001
30.429224000000005 30.429224000000005 37.854885
12.579224000000002 12.579224000000002 18.529224
12.579224000000002 12.579224000000002 30.429224000000005
12.579224000000002 18.529224 30.429224000000005
12.579224000000002 24.479224000000002 12.579224000000002
12.579224000000002 24.479224000000002 18.529224
12.579224000000002 24.479224000000002 24.479224000000002
12.579224000000002 24.479224000000002 30.429224000000005
12.579224000000002 24.479224000000002 36.379224
12.579224000000002 30.429224000000005 12.579224000000002
12.579224000000002 30.429224000000005 18.529224
12.579224000000002 30.429224000000005 24.479224000000002
12.579224000000002 30.429224000000005 36.379224
12.579224000000002 36.379224 18.529224
12.579224000000002 36.379224 30.429224000000005
18.529224 12.579224000000002 12.579224000000002
18.529224 12.579224000000002 18.529224
18.529224 12.579224000000002 24.479224000000002
18.529224 12.579224000000002 30.429224000000005
18.529224 18.529224 12.579224000000002
18.529224 18.529224 18.529224
18.529224 18.529224 24.479224000000002
18.529224 18.529224 30.429224000000005
18.529224 18.529224 36.379224
18.529224 24.479224000000002 12.579224000000002
18.529224 24.479224000000002 18.529224
18.529224 24.479224000000002 24.479224000000002
18.529224 24.479224000000002 30.429224000000005
18.529224 24.479224000000002 36.379224
18.529224 30.429224000000005 18.529224
18.529224 30.429224000000005 24.479224000000002
18.529224 30.429224000000005 30.429224000000005
18.529224 36.379224 12.579224000000002
18.529224 36.379224 18.529224
18.529224 36.379224 24.479224000000002
18.529224 36.379224 30.429224000000005
18.529224 36.379224 36.379224
24.479224000000002 12.579224000000002 24.479224000000002
24.479224000000002 12.579224000000002 36.379224
24.479224000000002 18.529224 12.579224000000002
24.479224000000002 18.529224 18.529224
24.479224000000002 18.529224 24.479224000000002
24.479224000000002 18.529224 30.429224000000005
24.479224000000002 18.529224 36.379224
24.479224000000002 24.479224000000002 12.579224000000002
24.479224000000002 24.479224000000002 18.529224
24.479224000000002 24.479224000000002 24.479224000000002
24.479224000000002 24.479224000000002 30.429224000000005
24.479224000000002 24.479224000000002 36.379224
24.479224000000002 30.429224000000005 18.529224
24.479224000000002 30.429224000000005 24.479224000000002
24.479224000000002 30.429224000000005 30.429224000000005
24.479224000000002 30.429224000000005 36.379224
24.479224000000002 36.379224 18.529224
24.479224000000002 36.379224 24.479224000000002
24.479224000000002 36.379224 30.429224000000005
24.479224000000002 36.379224 36.379224
30.429224000000005 12.579224000000002 12.579224000000002
30.429224000000005 12.579224000000002 18.529224
30.429224000000005 12.579224000000002 30.429224000000005
30.429224000000005 12.579224000000002 36.379224
30.429224000000005 18.529224 12.579224000000002
30.429224000000005 18.529224 18.529224
30.429224000000005 18.529224 24.479224000000002
30.429224000000005 18.529224 30.429224000000005
30.429224000000005 18.529224 36.379224
30.429224000000005 24.479224000000002 18.529224
30.429224000000005 24.479224000000002 24.479224000000002
30.429224000000005 24.479224000000002 30.429224000000005
30.429224000000005 24.479224000000002 36.379224
30.429224000000005 30.429224000000005 12.579224000000002
30.429224000000005 30.429224000000005 18.529224
30.429224000000005 30.429224000000005 24.479224000000002
30.429224000000005 30.429224000000005 30.429224000000005
30.429224000000005 36.379224 12.579224000000002
30.429224000000005 36.379224 18.529224
30.429224000000005 36.379224 24.479224000000002
30.429224000000005 36.379224 30.429224000000005
30.429224000000005 36.379224 36.379224
36.379224 12.579224000000002 18.529224
36.379224 12.579224000000002 30.429224000000005
36.379224 18.529224 18.529224
36.379224 18.529224 24.479224000000002
36.379224 18.529224 30.429224000000005
36.379224 18.529224 36.379224
36.379224 24.479224000000002 12.579224000000002
36.379224 24.479224000000002 18.529224
36.379224 24.479224000000002 24.479224000000002
36.379224 24.479224000000002 36.379224
36.379224 30.429224000000005 12.579224000000002
36.379224 30.429224000000005 18.529224
36.379224 30.429224000000005 24.479224000000002
36.379224 30.429224000000005 30.429224000000005
36.379224 36.379224 18.529224
36.379224 36.379224 24.479224000000002
36.379224 36.379224 30.429224000000005
21.922585000000005 32.283122 41.148686000000005
20.763448000000004 35.404360000000004 38.310323000000004
26.762801000000003 20.527582000000002 41.148686000000005
28.690936 23.241992000000003 38.310323000000004
26.561143 28.250654000000004 41.148686000000005
29.042588000000002 26.03071 38.310323000000004
34.551175 33.745398 41.148686000000005
31.358354 32.801142 38.310323000000004
32.993115 14.430442000000001 7.809762000000002
34.132062000000005 17.559104 10.648125000000002
28.450752 22.166665000000002 7.809762000000002
25.680885000000004 20.319083 10.648125000000002
16.73328 15.349964000000002 7.809762000000002
13.451729000000002 15.913123000000002 10.648125000000002
33.14663 26.28566 7.809762000000002
33.858234 29.538251000000002 10.648125000000002
7.809762000000002 15.716188 26.268617000000006
10.648125000000002 15.260323000000001 29.566785000000003
7.809762000000002 32.523261000000005 26.64441
10.648125000000002 34.970929000000005 28.901541
7.809762000000002 14.396332000000001 33.102261
10.648125000000002 17.616770000000002 33.947543
7.809762000000002 28.240358 20.602066
10.648125000000002 26.049022 23.108811000000003
41.148686000000005 26.475677000000005 14.865500000000003
38.310323000000004 29.201453 16.777532
41.148686000000005 26.554478000000003 22.293118
38.310323000000004 29.054500000000004 20.094114000000005
41.148686000000005 28.38579 34.155276
38.310323000000004 25.790462000000005 32.069612
41.148686000000005 33.707966 14.396797000000001
38.310323000000004 32.867909000000004 17.618603
20.524082 7.809762000000002 16.240677
23.248251000000003 10.648125000000002 14.326356000000002
34.375241 7.809762000000002 34.103524
31.670371000000003 10.648125000000002 32.16203
28.650232000000003 7.809762000000002 21.466010000000004
25.322579000000005 10.648125000000002 21.577595000000002
14.793240000000003 7.809762000000002 14.630753000000002
16.914691000000005 10.648125000000002 17.196911
34.542973 41.148686000000005 27.086603000000004
31.372856 38.310323000000004 28.104482000000004
21.457197 41.148686000000005 22.699918000000004
21.593302 38.310323000000004 19.373178000000003
32.466266000000005 41.148686000000005 22.247278
35.079344 38.310323000000004 20.183896000000004
27.450364 41.148686000000005 28.650835999999998
27.466364000000006 38.310323000000004 25.321351
11.433843000000001 17.507406000000003 11.165470000000003
10.606830000000002 18.875788 11.992483000000002
11.858296000000003 19.204478 10.741016000000002
12.720540000000002 19.470937 12.967874000000002
13.482719000000001 18.209828 12.205694000000001
12.329361000000002 17.906907000000004 13.359052000000002
31.380732000000002 24.061183 10.769642000000001
29.591436 23.864215 10.769642000000001
30.315505 25.512274000000005 10.769642000000001
29.55231 24.864493000000003 12.953966000000001
31.201334000000003 25.046019 12.953966000000001
30.534028 23.527160000000002 12.953966000000001
10.769642000000001 31.421556000000002 30.120353
10.769642000000001 29.665568 29.724275
10.769642000000001 30.200548000000005 31.443045000000005
12.953966000000001 29.514685 30.713882000000005
12.953966000000001 31.133014000000003 31.078909000000003
12.953966000000001 30.639973000000005 29.494882000000004
12.011397000000002 18.270425000000003 38.370532000000004
11.102268000000002 19.530323000000003 37.461403000000004
10.785305000000001 17.786923 37.14444
12.188263000000003 18.767734000000004 35.458298
13.026122 17.606606 36.296156
13.318235000000001 19.213333 36.58827
10.769642000000001 18.193079000000004 17.545795000000002
10.769642000000001 17.845622 19.312048000000004
10.769642000000001 19.548970000000004 18.729828000000005
12.953966000000001 18.839017000000002 19.435557000000003
12.953966000000001 19.159235000000002 17.807769
12.953966000000001 17.589420000000004 18.344346
38.224918 11.865783000000002 23.816558
37.78152600000001 11.422391000000001 25.503918000000006
36.969930000000005 10.610795000000001 24.117196
35.592496000000004 12.322461 25.089940000000006
36.001129 12.731094000000002 23.534861
36.7491 13.479065000000002 24.812871
10.986238000000002 37.345373 23.539191000000002
10.880716000000001 37.23985100000001 25.333099000000004
12.032016000000002 38.391151 24.565382
13.133055000000002 36.40309 25.345563000000006
13.230305000000001 36.500339000000004 23.692288000000005
12.169260000000001 35.439295 24.399820000000005
38.080699 19.380172 11.721564
37.968935 17.587021 11.609800000000002
36.926741 18.62048 10.567605000000002
35.725409 17.744986000000004 12.455374000000003
35.828412 19.397564000000003 12.558377000000002
36.788903000000005 18.445122 13.518869000000002
25.515714000000003 10.769642000000001 30.352983000000002
24.027005000000003 10.769642000000001 31.364971000000004
23.894953 10.769642000000001 29.569717000000004
23.523989 12.953966000000001 30.499488
24.895991000000002 12.953966000000001 29.566834
25.017691 12.953966000000001 31.22135
10.769642000000001 18.063804000000005 25.408476
10.769642000000001 19.56669 24.417663000000005
10.769642000000001 17.957178 23.611533
12.953966000000001 18.958157 23.622820000000004
12.953966000000001 17.57309 24.535959000000005
12.953966000000001 19.056425000000004 25.278893000000004
23.786721 38.20677200000001 11.847637000000002
25.496611 37.808871 11.449736000000001
24.154339 36.960732 10.601597000000002
25.117438 35.60922 12.339185
23.541594000000003 35.975928 12.705893000000001
24.778640000000003 36.757577000000005 13.487542000000001
37.56213400000001 29.398962000000004 37.75545
38.338024000000004 30.825974000000002 36.979559
37.076217 31.062736 38.241367000000004
36.203322 31.378719000000004 36.025161000000004
35.488257000000004 30.063577000000002 36.740226
36.651145 29.845376 35.577337
29.637345000000003 10.769642000000001 25.152316000000006
30.242249 10.769642000000001 23.456891000000006
31.408078000000003 10.769642000000001 24.828466000000006
31.159024000000002 12.953966000000001 23.858900000000006
30.601541000000005 12.953966000000001 25.421412000000004
29.527107 12.953966000000001 24.157361
12.023851 10.575462000000002 24.302563
11.045742 11.553571000000002 25.454508000000004
10.829377000000001 11.769936000000001 23.680601000000003
12.176785000000002 13.511628000000002 24.642035
13.078216000000001 12.610197000000003 23.580397000000005
13.277619000000001 12.410795000000002 25.215239000000004
25.0903 10.705219000000001 11.894094000000003
23.445652000000003 11.222669000000002 11.376644000000002
24.901720000000005 11.971081000000002 10.628232
23.916054000000003 13.392043000000001 12.296370000000001
25.431769000000003 12.915158000000002 12.773255000000002
24.089849 12.225419000000002 13.462995000000001
19.555883 11.413887000000003 37.773022000000005
17.875992000000004 11.871239000000003 38.230374000000005
18.155798000000004 10.613844000000002 36.972979
17.58305 12.738931000000001 36.008966
19.131247000000002 12.317434000000002 35.587468
18.873375000000003 13.476255000000002 36.74629
30.442442 31.468431000000002 38.18880600000001
29.522636 29.921067999999998 38.18880600000001
31.322594000000002 29.898174000000004 38.18880600000001
30.417042000000002 29.471486 36.004482
31.264740000000003 30.897543 36.004482
29.605889000000005 30.918643000000003 36.004482
12.579224000000002 18.529224 12.579224000000002
30.429224000000005 24.479224000000002 12.579224000000002
12.579224000000002 30.429224000000005 30.429224000000005
12.579224000000002 18.529224 36.379224
12.579224000000002 18.529224 18.529224
36.379224 12.579224000000002 24.479224000000002
12.579224000000002 36.379224 24.479224000000002
36.379224 18.529224 12.579224000000002
24.479224000000002 12.579224000000002 30.429224000000005
12.579224000000002 18.529224 24.479224000000002