1_train/87_cspbbr3_methylammonium_4_0.50\87_cspbbr3_methylammonium_4_0.50.xyz
1.0
47.879401 0 0
0 47.879401 0
0 0 47.879401
Br C Cs H N Pb 
240 43 69 258 43 64 
Cartesian
27.0486935 24.032832499999998 15.103783499999999
27.0743205 21.0124685 35.674691499999994
32.7098495 26.8873875 24.110214499999998
32.9158065 36.02566449999999 27.0747685
23.7167785 20.9390545 32.9812465
27.004219499999998 27.016072499999996 12.235996499999999
32.6826415 17.9914685 20.8744925
30.1286655 26.8323285 21.0066225
32.9656685 35.820894499999994 20.767417499999997
27.0977385 26.892107499999998 18.1522145
26.913873499999998 24.118512499999998 20.8533105
24.072463499999998 27.0652345 21.1180605
32.95990449999999 24.0790075 20.854956499999997
27.0759875 26.7365845 23.7647995
26.862993499999998 23.807121499999997 27.0434605
24.1088645 27.011904499999996 27.0498545
32.9087945 35.60882049999999 14.991360499999999
32.769099499999996 26.997317499999998 17.8599805
24.1046575 26.9575585 14.847375499999998
26.840392499999997 18.0077535 32.6971315
24.138826499999997 20.774444499999998 26.8713935
32.790212499999996 24.1276785 26.788165499999998
35.96876949999999 14.995040499999998 26.6678855
26.7501835 15.2133785 24.049694499999998
32.6941455 27.009036499999997 36.05623349999999
26.8485695 12.174698499999998 27.107883499999996
24.0493585 14.852651499999999 27.126629499999996
30.0457605 32.942269499999995 14.845208499999998
26.9122745 15.152846499999999 29.7646035
27.1128665 12.0620085 32.777086499999996
24.1792635 15.1747825 32.8275385
27.0645725 15.160344499999999 35.75318349999999
26.9337195 21.103205499999998 11.923568499999998
30.0069485 27.0313865 32.7836395
27.0005265 17.987861499999998 15.178060499999999
23.9221345 21.208308499999998 14.856157499999998
35.59743449999999 14.940448499999999 21.0808805
32.9276615 23.772238499999997 32.9923555
32.7983505 26.851078499999996 30.106294499999997
26.962836499999998 20.7432755 17.902254499999998
26.8278665 17.896610499999998 20.8071745
23.6527335 20.9093925 20.9438765
36.036390499999996 15.192560499999999 15.015230499999998
27.050372499999998 20.7505165 23.8925885
26.7685355 17.9634555 26.7616185
30.037898499999997 27.085616499999997 26.9168585
32.6875785 35.720386500000004 32.7244385
27.058925499999997 21.0661505 30.050973499999998
26.9655965 26.9953325 29.6069425
33.0153615 32.978754499999994 35.9789315
23.8408945 27.169291499999996 32.7593325
29.945862499999997 32.6983845 27.133121499999998
32.8595225 21.1433875 29.9622425
32.7430765 15.119422499999999 12.255861499999998
32.84584649999999 12.2139005 14.830040499999999
29.9243545 14.834266499999998 15.218935499999999
32.8153355 30.1326535 26.772927499999998
32.9900545 14.8203445 17.8727435
32.9858025 11.9318295 21.140982499999996
30.002788499999998 15.142483499999999 20.7694685
33.0284535 33.0500525 24.1054615
29.7006165 32.9906455 20.9166195
30.0102075 20.8283065 26.8446515
32.9517355 14.856094499999998 24.133017499999998
32.9318245 11.846578499999998 27.0423965
32.7871295 18.1107305 26.762264499999997
30.0032955 15.2018095 26.8387475
32.6858875 15.145708499999998 29.7214645
32.9517665 12.148671499999999 33.0014465
32.9422425 20.9328595 23.683566499999998
29.6743475 14.940007499999998 32.6758445
33.0377595 14.796912499999998 35.8569375
33.01312849999999 21.1349685 12.131464499999998
33.0603265 17.849434499999997 15.075025499999999
29.925388499999997 21.156334499999996 14.805328499999998
29.6700625 20.841259499999996 21.0124255
27.0471695 35.7265675 32.8110375
26.717874499999997 36.014703499999996 26.9250285
32.9248475 18.2156885 32.7600735
29.990771499999997 21.1729235 32.8997145
26.8495045 27.1357775 35.8932545
33.0825805 20.9031195 18.1225585
32.9989785 32.9581045 18.2204445
26.9226605 33.009716499999996 12.198910499999998
29.7260535 27.0934355 14.868284499999998
26.784880499999996 29.7862245 14.823760499999999
24.0665285 32.6368085 14.875301499999999
32.9819895 23.9777365 14.783582499999998
27.0698305 33.0222565 17.9197545
27.1105715 29.9925565 21.101104499999998
24.026193499999998 32.791141499999995 20.8061945
29.932677499999997 32.8880905 32.5773075
27.019519499999998 23.8639155 32.99376049999999
32.9473535 26.6986885 12.143960499999999
26.7304275 30.0869385 26.8972785
23.8583145 33.0398705 26.8347305
33.0777805 29.955280499999997 33.0145605
33.0458985 29.808051499999998 21.059122499999997
27.0296465 32.8344745 30.0421995
26.885886499999998 29.7872755 33.0389895
24.1357185 32.8777905 32.8986605
32.8979035 20.7922945 35.6607535
27.155402499999997 32.7604665 35.84340449999999
27.079824499999997 36.0772145 15.019125499999998
32.724020499999995 32.9418405 30.0556965
26.737937499999997 35.8864775 21.063510499999996
26.796877499999997 32.7493865 24.0695625
23.7815375 14.926740499999998 21.0838795
20.797949499999998 32.922096499999995 35.70404049999999
27.109200499999996 15.031643499999998 18.188487499999997
14.866573499999998 27.0851555 29.8984055
15.082917499999999 24.016663499999996 32.6907355
12.030716499999999 26.709822499999998 32.862135499999994
35.74731849999999 32.5808585 32.8675295
15.026565499999998 26.7621695 36.03553049999999
35.8870785 32.7333405 26.719062499999996
14.876971499999998 32.9343415 11.916521499999998
14.936240499999998 29.733621499999998 15.093091499999998
11.944720499999999 32.992392499999994 15.143571499999998
14.8581905 32.7473885 18.1483045
15.0710135 29.9970665 21.1022165
11.8523465 33.0260665 20.9478975
15.1520175 32.9580735 23.7144925
15.210103499999999 29.9264475 27.0442755
12.1963315 33.0055875 26.9650215
15.1242615 32.7068835 29.828456499999998
15.130841499999999 30.0352905 32.7754735
17.8902805 15.2043165 21.0749605
26.8251735 11.878591499999999 21.1192065
20.7578635 15.099383499999998 17.9287605
17.9437385 15.124554499999999 14.799374499999999
20.9010905 11.867148499999999 15.241884499999998
21.002619499999998 15.122371499999998 11.850288499999998
11.795541499999999 26.999645499999996 26.9227775
35.9649955 32.774238499999996 15.204661499999998
14.8140425 35.7989355 26.910507499999998
15.148814499999999 35.7718845 20.8515525
14.9001215 35.63382849999999 15.115188499999999
15.0852195 32.7167345 35.983380499999996
35.775600499999996 32.6454815 21.0751775
12.159544499999999 32.7773895 32.6483415
15.1480775 36.0109935 32.7618155
21.0899045 15.157879499999998 24.078738499999996
15.162199499999998 23.751691499999996 27.0240585
11.8398475 26.925759499999998 20.9475545
14.960997499999998 14.907719499999999 12.220485499999999
14.8875725 11.854826499999998 14.860260499999999
12.190503499999998 15.059947499999998 15.226317499999999
14.880394499999998 15.003159499999999 17.7253465
14.987233499999999 12.259506499999999 21.0386135
12.179283499999999 14.865228499999999 21.036093499999996
14.994285499999998 14.845241499999998 23.816594499999997
15.124052499999998 12.141241499999998 26.709907499999996
11.928472499999998 14.947364499999999 27.075074499999996
14.836167499999998 15.1276245 29.8022495
14.895932499999999 12.0348455 32.6444585
11.939858499999998 15.150190499999999 32.7520985
15.117837499999998 14.899148499999999 35.70946649999999
14.883207499999997 20.820472499999997 12.2443035
15.202267499999998 18.0144175 15.150470499999999
12.0758035 20.828392499999996 15.1389515
14.830954499999999 21.092149499999998 17.8182965
15.061950499999998 24.086494499999997 21.1011815
15.245253499999999 26.9853015 17.964276499999997
11.911774499999998 26.786726499999997 14.877386499999998
15.141519499999998 23.8471175 15.126380499999998
15.277828499999998 26.941034499999997 12.0852785
15.139603499999998 20.840054499999997 35.88617649999999
15.164185499999999 26.713501499999996 23.8237335
12.089977499999998 20.803398499999997 32.746540499999995
15.203851499999999 20.8815435 29.7912815
11.933051499999998 20.9361615 27.0710455
14.916548499999998 17.822390499999997 27.115699499999998
15.006718499999998 20.9139625 24.1560225
11.9169925 20.986220499999998 20.766798499999997
15.216584499999998 18.138564499999998 20.873229499999997
15.167313499999999 17.973082499999997 32.9675035
20.847326499999998 12.244313499999999 26.9958305
21.107850499999998 12.156906499999998 20.9109595
35.93651849999999 26.7483315 32.6962085
20.7387065 32.9115175 17.8932765
36.0110605 20.816732499999997 20.775334499999996
17.9207775 32.6751945 15.1528435
20.811976499999997 29.8687555 15.206477499999998
20.867871499999996 32.7450645 11.891380499999999
21.018555499999998 26.7485425 35.952130499999996
20.838841499999997 30.0702735 20.8434895
17.8397315 26.942742499999998 32.6487055
20.843088499999997 27.072549499999997 29.9786185
35.67880749999999 21.0402715 26.7441785
17.9466835 27.069504499999997 27.1597685
21.1367375 23.8740155 26.762766499999998
20.841109499999998 27.049093499999998 24.028058499999997
18.1098285 14.822925499999998 27.0140155
20.908968499999997 23.7105045 32.9895925
18.1788505 26.7346155 21.0368565
17.7944575 32.914874499999996 20.7619255
21.1149845 32.8695585 24.1176445
23.8485405 14.975080499999999 14.845243499999999
26.8707215 12.201685499999998 15.218718499999998
27.095953499999997 15.118705499999999 12.152761499999999
21.162655499999996 35.7945325 32.8340275
35.6945765 14.8434645 33.0542885
20.7653975 35.8853055 27.105918499999998
35.656398499999995 20.9989265 15.146424499999998
21.098638499999996 35.8740665 21.089697499999996
33.0124945 33.0257655 11.836255499999998
17.7551405 32.7946495 32.7053655
21.0319455 29.8672325 32.6828085
20.7842465 32.835348499999995 29.962777499999998
17.852524499999998 32.6933905 26.967176499999997
20.8640275 29.9519895 26.644756499999996
21.1479105 35.7685455 14.9153855
21.201500499999998 23.924151499999997 21.0246545
35.88266949999999 21.237397499999997 32.7970725
32.7749055 29.730382499999997 15.140290499999999
35.9626645 26.9459805 26.771782499999997
21.082771499999996 20.8597815 12.138881499999998
20.7983545 21.1440765 18.0565155
20.7692565 18.0512505 20.771174499999997
17.9006045 21.1740185 21.0842645
21.0065055 26.847920499999997 18.2019715
20.879018499999997 14.915852499999998 35.619334499999994
20.8046755 20.8826215 24.1279835
21.091492499999998 17.8542845 27.0072275
18.1051155 20.780368499999998 26.9570435
35.67727049999999 27.0118665 21.057082499999996
20.8644455 17.796570499999998 15.135850499999998
21.055475499999996 20.9148665 30.0566395
17.7984595 20.754685499999997 32.8721755
35.57937249999999 26.906581499999998 14.983696499999999
21.1033145 20.8127745 35.770917499999996
18.1414065 15.043457499999999 33.107204499999995
20.9891945 12.213229499999999 32.9731825
21.110596499999996 27.039786499999998 12.009024499999999
21.0827155 14.831898499999998 29.9023315
21.1722805 24.1102705 15.122324499999998
17.9586185 27.0347435 14.859997499999999
21.0067845 18.1450455 33.0526215
17.813773499999996 20.7813865 14.879080499999999
37.2302485 17.9500235 17.9996415
10.920775499999998 11.0377695 23.9328715
17.929677499999997 36.93250449999999 10.920955499999998
36.92456349999999 36.83041849999999 23.8704535
29.8935705 18.0504785 37.234765499999995
29.981923499999997 37.2845605 29.855330499999997
36.918680499999994 11.0683315 29.8469405
18.072507499999997 37.329072499999995 17.9229925
10.482003499999998 18.049701499999998 29.9083895
10.533754499999999 29.926032499999998 29.973622499999998
29.929688499999997 36.94467349999999 36.90380549999999
24.0000885 10.938618499999999 36.9376645
23.8900765 10.504467499999999 17.9999125
10.979108499999999 11.078970499999999 18.018541499999998
36.95697249999999 36.80483149999999 29.8825585
23.8819785 29.933410499999997 37.34700049999999
36.9429835 11.070518499999999 17.9983045
11.012602499999998 17.8854075 10.985553499999998
29.9423575 10.5653315 29.827257499999998
29.8846225 29.8169075 10.6217145
11.036985499999998 36.79087249999999 29.871663499999997
10.487219499999998 24.0077595 23.9294355
29.9440155 18.0237405 10.633570499999998
37.2806705 18.036551499999998 23.8871365
37.2144435 18.0001085 29.891709499999997
10.595410499999998 29.965410499999997 23.910516499999996
18.0378135 23.9120855 10.614140499999998
11.0576365 18.0284415 36.9041435
10.959672499999998 36.85597849999999 24.027197499999996
29.824658499999998 11.067646499999999 36.912963500000004
18.0621945 29.8944855 37.263899499999994
23.883760499999998 36.844827499999994 11.0355935
10.538074499999999 17.951334499999998 17.931692499999997
17.9355375 11.062849499999999 36.889079499999994
17.9395015 36.8148255 36.9296315
37.348722499999994 23.8457135 29.8493565
24.023552499999997 17.9928185 10.496013499999998
37.253761499999996 29.9281875 29.9562185
18.0423115 37.2581675 23.9633875
18.038158499999998 24.0052165 37.26284749999999
23.9337575 10.909594499999999 10.9592365
17.979418499999998 29.872182499999997 10.664592499999998
29.912083499999998 11.0386385 10.9344425
36.0424515 11.958269499999998 23.371957499999997
36.13999849999999 29.6467915 11.842186499999999
29.482954499999998 29.8744405 18.362751499999998
36.03075249999999 23.7570395 35.584155499999994
35.5879145 18.2867875 35.56855349999999
30.048357499999998 29.864582499999997 29.5165185
35.81121949999999 17.7329935 12.299043499999998
35.6954315 29.873450499999997 18.3890365
29.5803005 35.9007005 11.549356499999998
35.51753649999999 35.5929895 17.9379355
35.52820849999999 29.955153499999998 24.3492505
30.251861499999997 36.10801049999999 18.0914315
30.0198535 30.244421499999998 23.8998715
30.0497385 35.5504505 23.5747485
36.1036295 29.594686499999998 36.09641549999999
29.6002245 30.3939505 35.77152649999999
35.9646635 24.4822605 23.9814745
35.6451855 24.163609499999996 18.228544499999998
29.6388625 23.7249405 29.5598295
18.193558499999998 36.18472349999999 29.4381395
18.2599265 29.5525415 29.808649499999998
17.589657499999998 29.7029745 23.8857595
17.7938855 30.1577745 17.5909385
18.062824499999998 24.3266715 30.0779335
17.662386499999997 23.7807725 24.084054499999997
17.7584905 24.1934515 17.8385875
17.6148485 17.6486225 35.8532735
18.3597045 18.029231499999998 29.7574215
17.931534499999998 17.8392515 23.4301955
23.546356499999998 12.033690499999999 24.3190615
18.1307065 18.376399499999998 18.157331499999998
17.8195375 12.054736499999999 23.5911205
18.109644499999998 11.575692499999999 11.9708335
12.385581499999999 35.5646175 18.2878395
12.239102499999998 29.5284525 35.5529705
12.2715515 29.7358245 18.4439255
12.319379499999998 29.7424635 11.718302499999998
11.7379375 23.819406499999996 35.48203149999999
11.726642499999999 23.789710499999998 29.7685955
12.432478499999998 24.069569499999997 12.456992499999998
29.434716499999997 23.798383499999996 35.82805449999999
17.980064499999997 11.633637499999999 29.5464575
24.2890245 12.203863499999999 30.0776915
18.376779499999998 12.1010295 17.928271499999997
24.463937499999997 18.1477355 23.8224755
29.831608499999998 23.744959499999997 24.279998499999998
23.645860499999998 17.770469499999997 18.1058995
30.1155185 23.7876275 17.577713499999998
29.5948815 24.225504499999996 11.852607499999998
30.114997499999998 17.8401335 29.564089499999998
29.487550499999998 17.9274475 23.546503499999996
29.6554015 11.663401499999999 23.8631605
30.0031285 12.140255499999999 17.6101535
23.583103499999996 35.6237455 36.01175049999999
23.8757235 35.6679455 30.2792295
24.3830395 35.84751849999999 24.0279275
23.7123435 36.07866349999999 18.255477499999998
30.347133499999998 17.7325895 17.704989499999996
23.7446155 30.206106499999997 23.7814565
24.248933499999996 30.158845499999998 30.0583785
24.0022785 18.3501895 30.2227815
23.9793165 24.3977575 11.927275499999999
23.9588695 24.3965255 17.7416525
24.4345525 18.2486085 35.78347149999999
24.122307499999998 23.6426785 30.078891499999997
23.4274125 24.011496499999996 24.258342499999998
23.899225499999996 23.9864775 36.35513449999999
23.892718499999997 29.6769605 11.7178145
23.7910665 30.2429895 18.359042499999997
23.0017405 36.871607499999996 10.4845125
37.66205649999999 29.449847499999997 30.8169185
35.471290499999995 28.902191499999997 30.0069825
10.0424505 36.4225945 29.735214499999998
11.2444195 37.60827549999999 23.1200535
10.024192499999998 36.4351915 23.720256499999998
37.6424205 29.2260365 29.0467755
12.114248499999999 35.38281549999999 23.013063499999998
30.683960499999998 12.389354499999998 30.4023115
10.964689499999999 37.3791305 24.9314695
35.49390249999999 30.2859235 29.0285455
22.9740905 17.7778645 12.418647499999999
11.8761915 35.1536375 24.6509975
12.991901499999999 36.2329635 24.1000335
29.995492499999997 12.393023499999998 28.9622535
11.248278499999998 37.58166249999999 29.0608245
30.536744499999998 18.722941499999997 12.392277499999999
17.9901415 22.948355499999998 12.400919499999999
11.0499415 37.3827835 30.8768875
30.198337499999997 17.1070055 12.445000499999999
28.953933499999998 18.220393499999997 12.4291045
29.5624315 18.9473005 10.2479725
24.982394499999998 18.2183565 10.250935499999999
29.182211499999998 17.1861455 10.200971499999998
10.2495345 30.9278995 23.732940499999998
10.225091499999998 29.211861499999998 23.1777045
30.9297795 17.7367945 10.227690499999998
23.6245995 17.0344055 10.2469925
24.1050515 37.8831215 11.483260499999998
10.234522499999999 29.5778935 24.9016925
12.443988499999998 28.9411755 24.142988499999998
12.381684499999999 30.477344499999997 24.668258499999997
12.395131499999998 30.1944725 23.012005499999997
35.435689499999995 30.474710499999997 30.6522595
23.2752335 18.7578565 10.207135499999998
17.998651499999998 24.9829625 10.189318499999999
18.8679035 23.4458165 10.2534885
12.0302955 35.2864165 29.0058945
12.9967835 36.275561499999995 30.028142499999998
11.915989499999998 35.17505249999999 30.6746275
17.120105499999998 23.442725499999998 10.206004499999999
17.1791655 24.4056265 12.3929935
18.8053465 24.441028499999998 12.430382499999999
17.028749499999996 10.581695499999999 36.9153795
35.45227349999999 18.6582185 30.5284195
37.634426500000004 30.926882499999998 29.797638499999998
36.95304349999999 37.3012665 30.9272015
37.80997649999999 36.39981349999999 29.548364499999998
36.093707499999994 35.09377649999999 30.498617499999998
35.7238145 35.468160499999996 28.939127499999998
29.0021055 12.436342499999999 30.2757425
34.89054449999999 36.2117265 30.161865499999998
17.0422455 37.665524500000004 23.4155725
10.220968499999998 18.3483105 28.885537499999998
10.214704499999998 17.0026935 30.050229499999997
10.244713499999998 18.6400485 30.6675115
12.4343405 17.6309965 30.808963499999997
12.448168499999998 18.941546499999998 29.7660405
12.444718499999999 17.360859499999997 29.1492135
10.216915499999999 29.3027335 30.712608499999998
17.3309565 12.7927425 36.077507499999996
10.272988499999999 30.933106499999997 29.9668775
10.2500565 29.4652285 28.9494905
12.403785499999998 30.390990499999997 29.1092825
12.442151499999998 28.9112695 29.8287245
12.385759499999999 30.2845195 30.7385895
18.9405875 12.4863565 35.78107349999999
17.7112815 11.643357499999999 34.89951649999999
22.9168925 10.271732499999999 17.8092625
24.598804499999996 10.200396499999998 17.204351499999998
24.299736499999998 10.254700499999998 18.9926295
24.9136835 12.431039499999999 18.147373499999997
23.3473765 12.3942255 18.7080855
23.640447499999997 12.396120499999999 17.0923415
18.233592499999997 11.453513499999998 37.8471785
36.5792105 37.687552499999995 29.1672725
24.7716535 36.63461149999999 10.3185045
36.02398049999999 35.1675405 23.1929785
34.91989649999999 36.26293849999999 23.7509925
24.8061125 35.8003875 12.5423415
23.7708615 34.882561499999994 11.636731499999998
23.1973125 35.9775745 12.699617499999999
37.6320065 19.0123215 29.625521499999998
37.62568949999999 17.7233645 30.8752145
37.6863455 17.234491499999997 29.164889499999997
35.4849275 17.080647499999998 30.1890775
35.4416435 18.242595499999997 28.948098499999997
18.751534499999998 10.242520499999998 36.581931499999996
23.9423155 11.513349499999999 37.85717149999999
23.043981499999997 10.439000499999999 36.7731515
24.8328125 10.352714499999998 36.752242499999994
23.9261875 11.6074595 34.90380549999999
24.781950499999997 12.641105499999998 35.8640195
17.1449165 35.486769499999994 24.4281805
23.1512225 12.6456925 35.90171049999999
17.964308499999998 35.50464649999999 22.9880285
28.846061499999998 18.0887135 37.6527155
30.310798499999997 16.9960825 37.6411935
30.5150255 18.8009575 37.6793485
18.8129995 35.47414049999999 24.3751565
30.8611945 17.8276145 35.47142649999999
29.5332275 18.9021625 35.4388445
29.2856925 17.2067975 35.4931435
18.8604485 37.6726525 23.3944115
37.8820255 36.3795435 24.121533499999998
18.0194205 37.672535499999995 25.0135345
36.8977395 37.3918175 22.9385905
36.6056195 37.6099705 24.7358925
35.77832049999999 35.3651335 24.808205499999996
29.0541345 10.2086885 29.281543499999998
30.448406499999997 11.390075499999998 37.7740565
30.8035765 10.203591499999998 29.4665805
36.98056249999999 10.618312499999998 30.877867499999997
37.8250525 11.425632499999999 29.5131885
28.9167965 35.65468849999999 35.5010635
30.4528905 36.15461049999999 35.0495315
30.342563499999997 34.9516895 36.1757425
30.9519365 37.09595949999999 37.1696295
36.5771405 10.222095499999998 29.243432499999997
29.2873305 36.5280585 37.74835349999999
11.764398499999999 12.9057205 17.4625925
12.2310565 12.362587499999998 18.965625499999998
12.880504499999999 11.727004499999998 17.582288499999997
11.344348499999999 10.143146499999999 18.533945499999998
10.825716499999999 10.7346355 16.9675145
10.084432499999998 11.3814275 18.4351815
29.4699635 37.808648500000004 36.4459755
34.9576885 11.680442499999998 30.1846155
35.674460499999995 12.4089605 28.9661865
36.1096055 12.859286499999998 30.5091215
30.622801499999998 37.6797895 29.1403115
30.1665125 37.670813499999994 30.903940499999997
28.896578499999997 37.66054249999999 29.6780935
18.3133645 35.4449585 17.1199315
18.567348499999998 35.4793255 18.7001395
17.020438499999997 35.4856345 18.1305585
17.5872645 37.6351775 18.973035499999998
17.3632945 37.6583335 17.2143895
18.988255499999998 37.6353955 17.791250499999997
17.3002015 36.07681049999999 35.11403249999999
18.877398499999998 35.763324499999996 35.41766249999999
17.763560499999997 34.9480475 36.260634499999995
18.7017445 36.5911335 37.662983499999996
16.953387499999998 36.927012500000004 37.342637499999995
18.220359499999997 37.82708649999999 36.3729625
29.5784615 30.792630499999998 12.406708499999999
30.864786499999997 35.47497349999999 30.1081935
29.267493499999997 29.1746765 12.419523499999999
30.2404975 28.9370825 10.251645499999999
22.927680499999997 10.5022305 10.985286499999999
18.742748499999998 29.290508499999998 12.424380499999998
18.183483499999998 30.8452505 12.379028499999999
17.120800499999998 29.574298499999998 12.414760499999998
17.2144105 30.572356499999998 10.267648499999998
17.780353499999997 28.8878065 10.2467505
24.1516475 11.479866499999998 10.006871499999999
18.957199499999998 30.270708499999998 10.250900499999998
18.8260745 23.4711745 35.4480865
17.136166499999998 23.5079235 35.4519385
17.978111499999997 22.8636575 37.6246855
17.0938645 24.4482495 37.651996499999996
18.896893499999997 24.4670395 37.6682605
24.2290285 18.9280085 12.397068499999998
18.0422445 24.884196499999998 35.474326500000004
24.7140845 10.309792499999999 11.255334499999998
24.8037435 12.516464499999998 12.0784215
23.7448055 11.612299499999999 12.954662499999998
30.5667975 30.678510499999998 10.250375499999999
28.8330785 30.043456499999998 10.196556499999998
30.306139499999997 11.663122499999998 12.8923575
30.464591499999997 12.8625835 11.775551499999999
28.957015499999997 12.352231499999998 12.221158499999998
29.4260095 11.415006499999999 10.105479499999998
29.317458499999997 10.141602499999998 11.357106499999999
30.903715499999997 10.714556499999999 10.8151535
35.48545849999999 23.152726499999996 30.4874855
35.4434675 24.818297499999996 30.214200499999997
35.4805815 23.827843499999997 28.961215499999998
37.68029349999999 24.752555499999996 29.272284499999998
37.684682499999994 22.951220499999998 29.4890725
37.64701749999999 24.0767415 30.8881485
23.237954499999997 12.7655155 11.840315499999999
30.823071499999998 29.7657495 12.433000499999999
29.826123499999998 10.2548225 30.9188035
29.625006499999998 35.43768849999999 28.9468945
11.5187675 10.003720499999998 23.8598255
12.4182575 17.198834499999997 18.529846499999998
12.377675499999999 17.9373355 17.047710499999997
10.2500425 17.096500499999998 17.5317285
10.248583499999999 18.880625499999997 17.397529499999997
10.243188499999999 18.0667865 19.047475499999997
12.933408499999999 18.333494499999997 36.21998049999999
12.4539815 18.8225615 18.435107499999997
12.2635885 17.024095499999998 35.51209849999999
10.068479499999999 17.600046499999998 36.48049949999999
10.825717499999998 19.000216499999997 37.23046149999999
11.376076499999998 17.3769185 37.732119499999996
29.4103125 12.914129499999998 36.1891665
30.8426175 12.309888499999998 35.52773049999999
29.388585499999998 11.730480499999999 34.9648955
11.7537925 18.547375499999998 35.0610475
36.963235499999996 10.5461885 18.9871455
36.573055499999995 10.219754499999999 17.2540335
37.855042499999996 11.470066499999998 17.6845975
12.391860499999998 23.002304499999997 23.6746505
12.424538499999999 24.6332915 23.2898905
12.437195499999998 24.1885025 24.8269125
10.239313499999998 24.9209665 24.1808565
10.195684499999999 23.2019645 24.659978499999998
10.199857499999998 23.6601175 22.9335195
35.465774499999995 18.513571499999998 23.101261499999996
35.4542385 17.004789499999998 23.905031499999996
35.494699499999996 18.4679265 24.7621595
37.63053049999999 17.4672545 24.8083955
37.6234985 19.0175235 23.986384499999996
37.66843849999999 17.5066745 23.004229499999997
34.92512049999999 11.612121499999999 18.261238499999997
36.0747315 12.762327499999998 18.6421745
35.75931849999999 12.4389025 17.075242499999998
30.3714625 10.146545499999998 36.45684349999999
29.255142499999998 35.48659549999999 30.610569499999997
28.8828885 10.7517915 37.1273985
17.006713499999996 29.7248715 35.46405349999999
19.0338435 36.9941645 10.6008965
17.6209135 37.8255635 11.423045499999999
17.3297515 36.58113349999999 10.221409499999998
35.4490605 17.0514735 18.185656499999997
35.46472949999999 18.6414525 18.7172995
35.4345515 18.2540765 17.0950845
18.6114255 36.09367949999999 12.778537499999999
37.6738065 19.027610499999998 17.7390355
37.6332245 17.674494499999998 19.0090255
12.7071455 11.9474925 24.7431095
12.570532499999999 12.012343499999998 23.097454499999998
11.6626795 12.949618499999998 24.027017499999996
10.326058499999998 11.213491499999998 23.0645605
10.473639499999999 11.0876805 24.9030325
37.6222765 17.261925499999997 17.265578499999997
18.3063665 34.9607225 11.698925499999998
17.0541475 35.6826695 12.459625499999998
23.262534499999997 29.0583505 37.6544595
18.3059975 30.7996305 35.42774849999999
17.3469555 30.705301499999997 37.6759555
19.0448095 30.0716285 37.6216125
17.6537525 28.8731455 37.6579615
12.829822499999999 18.545108499999998 11.779581499999999
11.6999585 18.343289499999997 12.904174499999998
12.376232499999999 17.0572645 12.174888499999998
10.156550499999998 17.3139295 11.340866499999999
11.4705585 17.6336715 10.0573585
10.620405499999999 19.0195345 10.872501499999998
24.2973115 28.972398499999997 35.44319349999999
22.9590225 30.0376555 35.46592249999999
24.5290665 30.6022435 35.47988649999999
23.552500499999997 30.8911195 37.6316135
24.9805845 29.727378499999997 37.60851149999999
18.5796225 29.139062499999998 35.4453685
24.5901965 17.2837975 12.3721845
17.8927375 35.8300565 18.0213795
11.983668499999999 17.979155499999997 35.7746355
35.7993465 24.0007615 29.8362005
35.8285695 35.7551845 29.8346645
11.9771115 29.936918499999997 23.9016885
23.8577135 17.954548499999998 12.066498499999998
29.8545785 35.8756705 29.8335765
35.746320499999996 35.81446749999999 23.9815835
18.0557385 23.9097065 11.974201499999998
11.949995499999998 18.0316615 18.025971499999997
17.8935185 29.928775499999997 12.049572499999998
29.8002455 18.030029499999998 35.829984499999995
18.0623105 35.79039949999999 35.8876355
35.789925499999995 18.0120835 17.9051545
29.9007205 12.136099499999998 35.83484249999999
12.083113499999998 35.77882249999999 23.9457695
23.891812499999997 11.987558499999999 35.88473449999999
17.986945499999997 35.736602500000004 12.037402499999999
24.0213285 11.975909499999998 12.049313499999998
17.943862499999998 29.903774499999997 35.77884949999999
23.985604499999997 29.868851499999998 35.9289905
35.9018325 18.059427499999998 29.9080095
35.77959249999999 29.858651499999997 29.916627499999997
23.986417499999998 35.88903549999999 12.100149499999999
12.059640499999999 12.079319499999999 24.0189915
35.834869499999996 12.042283499999998 17.9091915
11.981204499999999 18.0566045 12.016698499999999
11.999093499999999 29.945085499999998 29.954282499999998
11.977945499999999 23.8908985 24.006951499999996
12.033733499999999 17.9076625 29.8242585
12.010891499999998 11.9778025 17.955412499999998
23.901749499999998 11.9794995 18.0327265
29.9251085 35.81910049999999 35.908537499999994
12.058243499999998 35.899486499999995 29.827495499999998
29.8888245 17.944601499999997 12.111841499999999
35.875846499999994 18.0137785 23.8571735
29.8275065 29.931461499999997 12.051509499999998
17.918096499999997 23.947584499999998 35.84297649999999
29.825580499999997 12.030036499999998 12.109673499999998
29.937554499999997 11.9706295 29.8364685
18.0509675 12.0526355 35.891960499999996
35.8214045 11.9699295 29.912632499999997
17.9554825 35.90488549999999 23.948666499999998