3_train/252_cspbbr3_MA-PhS_3_0.60\252_cspbbr3_MA-PhS_3_0.60.xyz
1.0
44.095282 0 0
0 44.095282 0
0 0 44.095282
Br C Cs H N Pb S 
72 244 26 348 28 27 36 
Cartesian
13.122640999999998 16.097640999999996 16.097640999999996
16.097640999999996 16.097640999999996 19.072640999999997
16.097640999999996 13.122640999999998 22.047641
16.097640999999996 16.097640999999996 25.022640999999997
13.122640999999998 16.097640999999996 27.997640999999998
16.097640999999996 22.047641 13.122640999999998
16.097640999999996 19.072640999999997 16.097640999999996
16.097640999999996 22.047641 19.072640999999997
16.097640999999996 19.072640999999997 22.047641
16.097640999999996 22.047641 25.022640999999997
16.097640999999996 19.072640999999997 27.997640999999998
13.122640999999998 22.047641 27.997640999999998
16.097640999999996 25.022640999999997 16.097640999999996
16.097640999999996 27.997640999999998 19.072640999999997
16.097640999999996 25.022640999999997 22.047641
16.097640999999996 27.997640999999998 25.022640999999997
16.097640999999996 25.022640999999997 27.997640999999998
19.072640999999997 16.097640999999996 16.097640999999996
22.047641 16.097640999999996 19.072640999999997
19.072640999999997 16.097640999999996 22.047641
22.047641 16.097640999999996 25.022640999999997
19.072640999999997 16.097640999999996 27.997640999999998
22.047641 22.047641 13.122640999999998
22.047641 19.072640999999997 16.097640999999996
19.072640999999997 22.047641 16.097640999999996
22.047641 22.047641 19.072640999999997
22.047641 19.072640999999997 22.047641
19.072640999999997 22.047641 22.047641
22.047641 22.047641 25.022640999999997
22.047641 19.072640999999997 27.997640999999998
19.072640999999997 22.047641 27.997640999999998
22.047641 25.022640999999997 16.097640999999996
19.072640999999997 27.997640999999998 16.097640999999996
22.047641 27.997640999999998 19.072640999999997
22.047641 25.022640999999997 22.047641
19.072640999999997 27.997640999999998 22.047641
22.047641 27.997640999999998 25.022640999999997
22.047641 25.022640999999997 27.997640999999998
19.072640999999997 27.997640999999998 27.997640999999998
22.047641 27.997640999999998 30.972641
22.047641 30.972641 16.097640999999996
22.047641 30.972641 22.047641
27.997640999999998 13.122640999999998 16.097640999999996
25.022640999999997 16.097640999999996 16.097640999999996
27.997640999999998 16.097640999999996 19.072640999999997
25.022640999999997 16.097640999999996 22.047641
27.997640999999998 16.097640999999996 25.022640999999997
27.997640999999998 13.122640999999998 27.997640999999998
25.022640999999997 16.097640999999996 27.997640999999998
27.997640999999998 16.097640999999996 30.972641
27.997640999999998 19.072640999999997 16.097640999999996
25.022640999999997 22.047641 16.097640999999996
27.997640999999998 22.047641 19.072640999999997
27.997640999999998 19.072640999999997 22.047641
25.022640999999997 22.047641 22.047641
27.997640999999998 22.047641 25.022640999999997
27.997640999999998 19.072640999999997 27.997640999999998
25.022640999999997 22.047641 27.997640999999998
27.997640999999998 22.047641 30.972641
27.997640999999998 27.997640999999998 13.122640999999998
27.997640999999998 25.022640999999997 16.097640999999996
25.022640999999997 27.997640999999998 16.097640999999996
27.997640999999998 27.997640999999998 19.072640999999997
27.997640999999998 25.022640999999997 22.047641
25.022640999999997 27.997640999999998 22.047641
27.997640999999998 27.997640999999998 25.022640999999997
27.997640999999998 25.022640999999997 27.997640999999998
25.022640999999997 27.997640999999998 27.997640999999998
27.997640999999998 30.972641 16.097640999999996
30.972641 22.047641 27.997640999999998
30.972641 27.997640999999998 16.097640999999996
30.972641 27.997640999999998 27.997640999999998
21.466580999999998 20.979865999999998 34.804179
21.470717999999998 20.970869999999998 33.416140999999996
22.047641 22.047641 32.684892
22.611811 23.123853 34.804672
22.034353 22.054284 35.503874999999994
22.621664999999997 23.125705999999997 33.416608
16.298218999999996 17.296616999999998 34.804179
16.291372 17.303769 33.416140999999996
16.097640999999996 16.097640999999996 32.684892
15.915780999999999 14.896204999999998 34.804672
16.11237 16.095701 35.503874999999994
15.907071999999998 14.891235999999997 33.416608
15.776680999999998 26.825139999999998 34.804179
15.782767999999997 26.817331 33.416140999999996
16.097640999999996 27.997640999999998 32.684892
16.400228 29.174484999999997 34.804672
16.083183999999996 28.001063 35.503874999999994
16.409394999999996 29.178547 33.416608
23.101488999999997 16.703594 34.804179
23.10267 16.713424999999997 33.416140999999996
22.047641 16.097640999999996 32.684892
21.003771999999998 15.475660999999999 34.804672
22.055489999999995 16.085026999999997 35.503874999999994
20.994404999999997 15.479236999999998 33.416608
16.515397999999998 20.906039999999997 34.804179
16.524884 20.903201999999997 33.416140999999996
16.097640999999996 22.047641 32.684892
15.662392999999998 23.182136999999997 34.804672
16.083875 22.042053 35.503874999999994
15.667511999999999 23.190758999999996 33.416608
27.373339999999995 29.040723999999997 34.804179
27.36349 29.041733999999998 33.416140999999996
27.997640999999998 27.997640999999998 32.684892
28.637790999999996 26.964814999999998 34.804672
28.010116 28.005709 35.503874999999994
28.634379999999997 26.955386999999998 33.416608
21.079178999999996 16.832389999999997 9.291102999999998
21.079254 16.842290999999996 10.679140999999998
22.047641 16.097640999999996 11.410389999999998
23.004172 15.348260999999997 9.290609999999997
22.038254999999996 16.086124999999996 8.591406999999997
23.013916999999996 15.350619999999997 10.678673999999997
22.786690999999998 28.962823999999998 9.291102999999998
22.796592 28.962704999999996 10.679140999999998
22.047641 27.997640999999998 11.410389999999998
21.294012 27.044453999999998 9.290609999999997
22.036166999999995 28.007077999999996 8.591406999999997
21.296327999999995 27.034699 10.678673999999997
28.977839999999997 16.816657999999997 9.291102999999998
28.987309 16.813764999999997 10.679140999999998
27.997640999999998 16.097640999999996 11.410389999999998
27.006815999999997 15.394229999999999 9.290609999999997
27.989276 16.109918 8.591406999999997
27.006300999999997 15.384215999999999 10.678673999999997
27.008295999999998 21.341262999999998 9.291102999999998
26.998863999999998 21.344276999999998 10.679140999999998
27.997640999999998 22.047641 11.410389999999998
28.997410999999996 22.738279 9.290609999999997
28.005847999999997 22.035256999999998 8.591406999999997
28.998054 22.748285 10.678673999999997
14.994550999999998 15.586791999999999 9.291102999999998
14.985840999999997 15.591500999999997 10.679140999999998
16.097640999999996 16.097640999999996 11.410389999999998
17.208059 16.591091 9.290609999999997
16.103412 16.083951 8.591406999999997
17.210544999999996 16.600804999999998 10.678673999999997
14.953993999999998 27.585518999999998 9.291102999999998
14.945729999999998 27.590974 10.679140999999998
16.097640999999996 27.997640999999998 11.410389999999998
17.247062 28.391788 9.290609999999997
16.102188999999996 27.983497999999997 8.591406999999997
17.250390999999997 28.401246999999998 10.678673999999997
9.291102999999998 26.805291 22.284446
10.679140999999998 26.801025 22.293381999999998
11.410389999999998 27.997640999999998 22.047641
9.290609999999997 29.185665999999998 21.792458999999997
8.591406999999997 27.994241999999996 22.033179
10.678673999999997 29.193395999999996 21.798844999999996
9.291102999999998 21.467723999999997 17.166037
10.679140999999998 21.471869999999996 17.175029
11.410389999999998 22.047641 16.097640999999996
9.290609999999997 22.61066 15.020825999999998
8.591406999999997 22.034345 16.091012
10.678673999999997 22.620511999999998 15.018961999999998
9.291102999999998 26.793812999999997 15.928607999999997
10.679140999999998 26.786841999999996 15.935640999999999
11.410389999999998 27.997640999999998 16.097640999999996
9.290609999999997 29.203436999999997 16.247897
8.591406999999997 27.999194 16.082865999999996
10.678673999999997 29.208633 16.256472
9.291102999999998 28.761591999999997 28.943237
10.679140999999998 28.771486999999997 28.94286
11.410389999999998 27.997640999999998 27.997640999999998
9.290609999999997 27.219428999999998 27.064417
8.591406999999997 27.986416 28.007374
10.678673999999997 27.22149 27.054603999999998
9.291102999999998 16.010444 23.260147
10.679140999999998 16.017932 23.266626
11.410389999999998 16.097640999999996 22.047641
9.290609999999997 16.165971 20.834442
8.591406999999997 16.082794999999997 22.047090999999998
10.678673999999997 16.174175999999996 20.828677999999996
9.291102999999998 21.046621 22.737374999999997
10.679140999999998 21.046243999999998 22.747269999999997
11.410389999999998 22.047641 22.047641
9.290609999999997 23.037409999999998 21.342745999999998
8.591406999999997 22.038791 22.035707999999996
10.678673999999997 23.047037999999997 21.345546999999996
34.804179 16.251627 29.203485999999998
33.416140999999996 16.244507999999996 29.210368
32.684892 16.097640999999996 27.997640999999998
34.804672 15.962453999999997 26.790063
35.503874999999994 16.112434 27.996273
33.416608 15.953943999999998 26.78476
34.804179 17.151936999999997 16.702814999999998
33.416140999999996 17.153125 16.712645
32.684892 16.097640999999996 16.097640999999996
34.804672 15.053312999999998 15.476432999999998
35.503874999999994 16.10548 16.085020999999998
33.416608 15.043947999999999 15.480016999999998
34.804179 28.956957 21.30099
33.416140999999996 28.966504999999998 21.303611999999998
32.684892 27.997640999999998 22.047641
34.804672 27.027258999999997 22.778995
35.503874999999994 27.988929 22.035607
33.416608 27.027029 22.789019999999997
34.804179 16.553050999999996 23.174750999999997
33.416140999999996 16.547914999999996 23.183215999999998
32.684892 16.097640999999996 22.047641
34.804672 15.659972999999997 20.914077
35.503874999999994 16.111601 22.042557999999996
33.416608 15.650394999999998 20.911111
34.804179 22.67787 21.008128999999997
33.416140999999996 22.687725999999998 21.007174999999997
32.684892 22.047641 22.047641
34.804672 21.401621 23.076804999999997
35.503874999999994 22.035211999999998 22.039502
33.416608 21.404978999999997 23.086252999999996
34.804179 21.341828999999997 17.08739
33.416140999999996 21.33193 17.087607999999996
32.684892 22.047641 16.097640999999996
34.804672 22.76843 15.119385999999999
35.503874999999994 22.059429999999995 16.106682
33.416608 22.765784 15.109713999999999
22.621808999999995 9.291102999999998 29.069138
22.617614 10.679140999999998 29.078107
22.047641 11.410389999999998 27.997640999999998
21.490415999999996 9.290609999999997 26.917816
22.060971999999996 8.591406999999997 27.991083999999997
21.480574999999998 10.678673999999997 26.915899
17.099943999999997 9.291102999999998 28.685509
17.100339999999996 10.679140999999998 28.695403
16.097640999999996 11.410389999999998 27.997640999999998
15.106559999999998 9.290609999999997 27.294591
16.106468 8.591406999999997 27.985691
15.096937999999998 10.678673999999997 27.297409999999996
20.969013999999998 9.291102999999998 22.608299999999996
20.960098 10.679140999999998 22.603993
22.047641 11.410389999999998 22.047641
23.134382999999996 9.290609999999997 21.504028999999996
22.054029999999997 8.591406999999997 22.061052999999998
23.136422999999997 10.678673999999997 21.494211999999997
15.571080999999998 9.291102999999998 15.001963999999997
15.575664999999997 10.679140999999998 14.993186999999999
16.097640999999996 11.410389999999998 16.097640999999996
16.606907999999997 9.290609999999997 17.200893999999998
16.084035 8.591406999999997 16.103606999999997
16.616656999999996 10.678673999999997 17.203241
22.090659 9.291102999999998 14.882764999999997
22.098798 10.679140999999998 14.877124999999998
22.047641 11.410389999999998 16.097640999999996
21.985789999999998 9.290609999999997 17.311187999999998
22.032821 8.591406999999997 16.096598999999998
21.993330999999998 10.678673999999997 17.317795999999998
26.782079 9.291102999999998 22.061145999999997
26.776065999999997 10.679140999999998 22.053278
27.997640999999998 11.410389999999998 22.047641
29.212750999999997 9.290609999999997 22.053009999999997
27.997289 8.591406999999997 22.062493
29.219002 10.678673999999997 22.045171
16.506543999999998 34.804179 23.192442999999997
16.516008999999997 33.416140999999996 23.195354
16.097640999999996 32.684892 22.047641
15.671191999999998 34.804672 20.909809
16.083831999999997 35.503874999999994 22.053122
15.676376999999999 33.416608 20.901227
16.618776999999998 34.804179 14.999373999999998
16.61415 33.416140999999996 14.990619999999998
16.097640999999996 32.684892 16.097640999999996
15.593834999999999 34.804672 17.203398999999997
16.111275999999997 35.503874999999994 16.103538999999998
15.584097999999997 33.416608 17.205793999999997
27.840028999999998 34.804179 20.842264
27.831394 33.416140999999996 20.837418
27.997640999999998 32.684892 22.047641
28.173875999999996 34.804672 23.249914999999998
28.012295999999996 35.503874999999994 22.045204
28.166994 33.416608 23.257206
20.938588999999997 34.804179 28.495414999999998
20.936432999999997 33.416140999999996 28.505079
22.047641 32.684892 27.997640999999998
23.148363 34.804672 27.482924999999998
22.04109 35.503874999999994 27.984306999999998
23.157325999999998 33.416608 27.487417999999998
16.329449999999998 34.804179 26.804309999999997
16.322791 33.416140999999996 26.796981
16.097640999999996 32.684892 27.997640999999998
15.884479999999998 34.804672 29.19392
16.112315 35.503874999999994 27.999965
15.875644999999999 33.416608 29.198659999999997
29.162255 34.804179 28.346135
29.170205999999997 33.416140999999996 28.340232999999998
27.997640999999998 32.684892 27.997640999999998
26.828251999999996 34.804672 27.667412
27.993879999999997 35.503874999999994 28.012013
26.824408 33.416608 27.658151999999998
32.016091 12.079190999999998 25.022640999999997
19.072640999999997 19.072640999999997 32.448302
12.079190999999998 12.079190999999998 25.022640999999997
25.022640999999997 11.64698 25.022640999999997
19.072640999999997 19.072640999999997 11.64698
12.079190999999998 32.016091 25.022640999999997
25.022640999999997 32.448302 19.072640999999997
32.016091 19.072640999999997 32.016091
19.072640999999997 25.022640999999997 11.64698
19.072640999999997 32.016091 32.016091
25.022640999999997 12.079190999999998 12.079190999999998
12.079190999999998 19.072640999999997 12.079190999999998
11.64698 19.072640999999997 19.072640999999997
25.022640999999997 32.448302 25.022640999999997
32.016091 32.016091 19.072640999999997
12.079190999999998 32.016091 19.072640999999997
11.64698 25.022640999999997 25.022640999999997
19.072640999999997 11.64698 25.022640999999997
25.022640999999997 19.072640999999997 32.448302
19.072640999999997 32.016091 12.079190999999998
32.016091 25.022640999999997 12.079190999999998
25.022640999999997 25.022640999999997 11.64698
12.079190999999998 12.079190999999998 19.072640999999997
11.64698 25.022640999999997 19.072640999999997
12.079190999999998 25.022640999999997 32.016091
32.016091 32.016091 25.022640999999997
19.072640999999997 32.448302 25.022640999999997
25.022640999999997 32.016091 32.016091
13.122640999999998 19.072640999999997 25.022640999999997
13.122640999999998 19.072640999999997 30.972641
13.122640999999998 25.022640999999997 13.122640999999998
19.072640999999997 13.122640999999998 13.122640999999998
19.072640999999997 13.122640999999998 19.072640999999997
19.072640999999997 13.122640999999998 30.972641
19.072640999999997 19.072640999999997 19.072640999999997
19.072640999999997 19.072640999999997 25.022640999999997
19.072640999999997 25.022640999999997 19.072640999999997
19.072640999999997 25.022640999999997 25.022640999999997
19.072640999999997 25.022640999999997 30.972641
19.072640999999997 30.972641 19.072640999999997
25.022640999999997 13.122640999999998 19.072640999999997
25.022640999999997 13.122640999999998 30.972641
25.022640999999997 19.072640999999997 19.072640999999997
25.022640999999997 19.072640999999997 25.022640999999997
25.022640999999997 25.022640999999997 19.072640999999997
25.022640999999997 25.022640999999997 25.022640999999997
25.022640999999997 25.022640999999997 30.972641
25.022640999999997 30.972641 13.122640999999998
30.972641 13.122640999999998 19.072640999999997
30.972641 19.072640999999997 13.122640999999998
30.972641 19.072640999999997 25.022640999999997
30.972641 25.022640999999997 19.072640999999997
30.972641 25.022640999999997 25.022640999999997
30.972641 25.022640999999997 30.972641
23.054428999999995 23.957306999999997 35.353637
22.026830999999998 22.057793999999998 36.595282
21.019562999999998 20.148521 35.352734999999996
21.032359 20.140839 32.85907
23.067874 23.951661999999995 32.859825
15.769549999999999 13.963911999999999 35.353637
16.120625999999998 16.094839 36.595282
16.449298999999996 18.228353999999996 35.352734999999996
16.434696 18.231437 32.85907
15.754997999999997 13.964856999999999 32.859825
16.640114999999998 30.087177999999998 35.353637
16.075058 28.002755999999998 36.595282
15.532026999999998 25.913490999999997 35.352734999999996
15.546241999999998 25.908945 32.85907
16.654497 30.084763999999996 32.859825
20.190504999999998 14.996964999999998 35.353637
22.060064 16.078100999999997 36.595282
23.917403999999998 17.178190999999998 35.352734999999996
23.910518 17.191432 32.85907
20.181998999999998 15.008809999999999 32.859825
15.329091999999997 24.065009999999997 35.353637
16.076271999999996 22.038724999999996 36.595282
16.844208 20.021255999999997 35.352734999999996
16.858427999999996 20.025786999999998 32.85907
15.342211999999998 24.071375 32.859825
29.130644999999998 26.160048999999997 35.353637
28.016961 28.010403999999998 36.595282
26.884539999999998 29.848209999999998 35.352734999999996
26.871420999999998 29.841094 32.85907
29.118949999999998 26.151336999999998 32.859825
23.750140999999996 14.770261999999999 8.741644999999998
22.032839999999997 16.079833999999998 7.499999999999998
20.330063 17.406658 8.742546999999998
20.338572999999997 17.418919 11.236211999999998
23.760080999999996 14.780931999999998 11.235456999999998
20.712698999999997 26.301064 8.741644999999998
22.029901 28.012520999999996 7.499999999999998
23.364288 29.709376999999996 8.742546999999998
23.376510999999997 29.700812999999997 11.236211999999998
20.723326 26.291076999999998 11.235456999999998
26.240254999999998 14.843830999999998 8.741644999999998
27.984788999999996 16.116901999999996 7.499999999999998
29.741721 17.371133999999998 8.742546999999998
29.751049 17.359484 11.236211999999998
26.247652 14.831263999999997 11.235456999999998
29.770972999999998 23.278793999999998 8.741644999999998
28.010244999999998 22.028216999999998 7.499999999999998
26.237361999999997 20.796635 8.742546999999998
26.228182999999998 20.808403999999996 11.236211999999998
29.763737999999996 23.291456 11.235456999999998
18.068371 16.978927999999996 8.741644999999998
16.106427999999998 16.076217999999997 7.499999999999998
14.136058999999998 15.194426999999997 8.742546999999998
14.129219999999998 15.207691999999998 11.236211999999998
18.063606999999998 16.99271 11.235456999999998
18.138077 28.702668 8.741644999999998
16.104515 27.975529999999996 7.499999999999998
14.064393999999998 27.269969 8.742546999999998
14.058744999999998 27.283782999999996 11.236211999999998
18.134541 28.716815 11.235456999999998
8.741644999999998 30.109361999999997 21.599221999999997
7.499999999999998 27.992125999999995 22.025153
8.742546999999998 25.880399999999998 22.472951
11.236211999999998 25.882685 22.4877
11.235456999999998 30.113629 21.613166
8.741644999999998 23.052384999999997 14.186899999999998
7.499999999999998 22.026819999999997 16.087509999999998
8.742546999999998 21.021594999999998 17.997859
11.236211999999998 21.034398999999997 18.005526999999997
11.235456999999998 23.065837 14.192529999999998
8.741644999999998 30.139248 16.369602
7.499999999999998 27.999838 16.074590999999998
8.742546999999998 25.858431 15.802041999999998
11.236211999999998 25.855732 15.816720999999998
11.235456999999998 30.138685 16.384173999999998
8.741644999999998 26.618940999999996 26.336426999999997
7.499999999999998 27.980293999999997 28.012978
8.742546999999998 29.358446999999998 29.674484999999997
11.236211999999998 29.370442999999998 29.665605
11.235456999999998 26.629303999999998 26.326166999999998
8.741644999999998 16.224083 19.892540999999998
7.499999999999998 16.074495 22.047007999999998
8.742546999999998 15.947452999999998 24.201948999999995
11.236211999999998 15.962280999999997 24.203647999999998
11.235456999999998 16.238659 19.892117
8.741644999999998 23.809009 20.799431
7.499999999999998 22.033669 22.029176999999997
8.742546999999998 20.27205 23.276819
11.236211999999998 20.279991 23.289455999999998
11.235456999999998 23.81845 20.810544999999998
35.353637 15.852444999999998 25.852805
36.595282 16.120717 27.995732
35.352734999999996 16.366502999999998 30.140375999999996
32.85907 16.351791999999996 30.142891
32.859825 15.837866999999997 25.853185
35.353637 14.239690999999999 14.998338999999998
36.595282 16.110048999999997 16.078091999999998
35.352734999999996 17.968201999999998 17.176806999999997
32.85907 17.961326999999997 17.190053999999996
32.859825 14.231193999999999 15.010189999999998
35.353637 26.27669 23.35101
36.595282 27.984244999999998 22.028753999999996
35.352734999999996 29.704731 20.724975999999998
32.85907 29.714388 20.736354999999996
32.859825 26.284442 23.363360999999998
35.353637 15.315359999999998 20.035556999999997
36.595282 16.119473999999997 22.039928999999997
35.352734999999996 16.902275999999997 24.051676999999998
32.85907 16.888686999999997 24.057848999999997
32.859825 15.301357999999997 20.039631
35.353637 20.904193999999997 23.878753
36.595282 22.028394 22.034768999999997
35.352734999999996 23.17126 20.203438999999996
32.85907 23.184338 20.21063
32.859825 20.915839 23.887531
35.353637 23.324136 14.356662999999998
36.595282 22.065876999999997 16.111908999999997
35.352734999999996 20.789945999999997 17.853147
32.85907 20.777438999999998 17.845003999999996
32.859825 23.313176 14.347042999999998
21.053178 8.741644999999998 26.081528
22.068516 7.499999999999998 27.987621999999998
23.063461 8.742546999999998 29.903344999999998
23.050615999999998 11.236211999999998 29.910943999999997
21.039696999999997 11.235456999999998 26.087085999999996
14.333950999999999 8.741644999999998 26.752715
16.111579 7.499999999999998 27.979150999999998
17.875518 8.742546999999998 29.223508999999996
17.867600999999997 11.236211999999998 29.236161
14.324529999999998 11.235456999999998 26.763845999999997
23.976097999999997 8.741644999999998 21.077333999999997
22.057395999999997 7.499999999999998 22.06864
20.129323 8.742546999999998 23.039434999999997
20.121885999999996 11.236211999999998 23.026495
23.97071 11.235456999999998 21.063782999999997
17.006999999999998 8.741644999999998 18.055576
16.076345999999997 7.499999999999998 16.106733
15.166487999999998 8.742546999999998 14.149165999999997
15.179653999999998 11.236211999999998 14.142137999999997
17.020712999999997 11.235456999999998 18.050615999999998
21.942802999999998 8.741644999999998 18.253899999999998
22.024559999999997 7.499999999999998 16.095793999999998
22.128784999999997 8.742546999999998 13.939628999999998
22.143708999999998 11.236211999999998 13.939525999999997
21.95725 11.235456999999998 18.255881
30.156442 8.741644999999998 22.052127
27.996869 7.499999999999998 22.070783
25.838189999999997 8.742546999999998 22.066905
25.837393 11.236211999999998 22.052001999999998
30.157749999999997 11.235456999999998 22.037602999999997
15.344737999999998 35.353637 20.024380999999998
16.076203 36.595282 22.056390999999998
16.828492999999998 35.352734999999996 24.079746999999998
16.842748 32.85907 24.075326
15.357906999999997 32.859825 20.018116999999997
15.197973999999999 35.353637 18.060048
16.118980999999998 36.595282 16.106627999999997
17.019149 35.352734999999996 14.144585999999999
17.005947999999997 32.85907 14.137623999999999
15.184236999999998 32.859825 18.055155999999997
28.305742999999996 35.353637 24.184347999999996
28.020443999999998 36.595282 22.043620999999998
27.712961999999997 35.352734999999996 19.90695
27.698095 32.85907 19.908257999999996
28.291546999999998 32.859825 24.187685999999996
24.005336999999997 35.353637 27.087768
22.037229999999997 36.595282 27.976958999999997
20.079389999999997 35.352734999999996 28.886228
20.084919999999997 32.85907 28.900091
24.012618 32.859825 27.100402
15.713961999999999 35.353637 30.122078
16.120545 36.595282 28.001041999999998
16.504799999999996 35.352734999999996 25.876834
16.490282999999998 32.85907 25.873371
15.699439999999997 32.859825 30.120753999999998
25.921463999999997 35.353637 27.406089999999995
27.991995999999997 36.595282 28.020096999999996
30.067887 35.352734999999996 28.612199
30.072765999999998 32.85907 28.598094999999997
25.924215999999998 32.859825 27.391769
31.544491999999998 11.135356999999999 24.742642
32.777530999999996 12.368395999999997 24.295868
32.434602999999996 12.025467999999998 26.029412999999998
31.359893999999997 14.039858999999998 25.280689999999996
30.223519 12.903483999999999 25.692438
30.539562999999998 13.219527999999997 24.094794999999998
18.562914 18.166935 32.782223
20.111869 19.084056999999998 32.782223
18.543139999999998 19.966929999999998 32.782223
19.542408 19.907344 30.597898999999998
18.114883 19.062119 30.597898999999998
19.560632 18.248458999999997 30.597898999999998
12.041062999999998 11.645083999999997 24.021779
12.356978999999999 11.329167999999997 25.765559
11.131177999999998 12.554968999999998 25.280585
13.205154999999998 13.570091999999999 25.945041
12.914005999999997 13.861241999999997 24.337963999999996
14.043709999999997 12.731536999999998 24.784917999999998
24.512914 11.313058999999999 24.116934999999998
26.061868999999998 11.313058999999999 25.034056999999997
24.49314 11.313058999999999 25.916929999999997
25.492407999999998 13.497383 25.857343999999998
24.064883 13.497383 25.012119
25.510631999999998 13.497383 24.198458999999996
19.582368 18.166935 11.313058999999999
18.033412999999996 19.084056999999998 11.313058999999999
19.602141999999997 19.966929999999998 11.313058999999999
18.602874 19.907344 13.497383
20.030399 19.062119 13.497383
18.584649999999996 18.248458999999997 13.497383
11.135356999999999 31.544491999999998 25.30264
12.368395999999997 32.777530999999996 25.749413999999998
12.025467999999998 32.434602999999996 24.015869
14.039858999999998 31.359893999999997 24.764591999999997
12.903483999999999 30.223519 24.352843999999997
13.219527999999997 30.539562999999998 25.950487
24.512914 32.782223 19.978347
26.061868999999998 32.782223 19.061224999999997
24.49314 32.782223 18.178351999999997
25.492407999999998 30.597898999999998 18.237938
24.064883 30.597898999999998 19.083163
25.510631999999998 30.597898999999998 19.896822999999998
31.891776999999998 18.166935 32.61264
32.987054 19.084056999999998 31.517363
31.877795 19.966929999999998 32.626622
31.039834 19.907344 30.375483
30.030420999999997 19.062119 31.384894999999997
31.052719999999997 18.248458999999997 30.362596999999997
19.582368 24.116934999999998 11.313058999999999
18.033412999999996 25.034056999999997 11.313058999999999
19.602141999999997 25.916929999999997 11.313058999999999
18.602874 25.857343999999998 13.497383
20.030399 25.012119 13.497383
18.584649999999996 24.198458999999996 13.497383
18.562914 31.611777999999997 32.892639
20.111869 32.260281 32.244136
18.543139999999998 32.884567 31.619850999999997
19.542408 31.297883 30.117434
18.114883 30.700218 30.715097999999998
19.560632 30.124874 31.290442999999996
24.512914 12.483503999999998 11.202642999999998
26.061868999999998 11.835000999999998 11.851145999999998
24.49314 11.210714999999997 12.475430999999997
25.492407999999998 12.797398999999999 13.977847999999998
24.064883 13.395063999999998 13.380183999999998
25.510631999999998 13.970407999999997 12.804838999999998
12.203504999999998 18.166935 11.482641999999998
11.108227999999999 19.084056999999998 12.577918999999998
12.217486999999998 19.966929999999998 11.468659999999998
13.055447999999998 19.907344 13.719798999999998
14.064860999999999 19.062119 12.710386999999997
13.042561999999998 18.248458999999997 13.732684999999998
11.313058999999999 18.166935 18.562914
11.313058999999999 19.084056999999998 20.111869
11.313058999999999 19.966929999999998 18.543139999999998
13.497383 19.907344 19.542408
13.497383 19.062119 18.114883
13.497383 18.248458999999997 19.560632
24.512914 32.782223 25.928347
26.061868999999998 32.782223 25.011225
24.49314 32.782223 24.128351999999996
25.492407999999998 30.597898999999998 24.187938
24.064883 30.597898999999998 25.033163
25.510631999999998 30.597898999999998 25.846822999999997
32.450198 32.054218999999996 20.073503
32.766114 31.738303 18.329722999999998
31.540312999999998 32.964104 18.814697
30.52519 30.890127 18.150240999999998
30.234039999999997 31.181275999999997 19.757317999999998
31.363744999999998 30.051571999999997 19.310364
11.135356999999999 31.544491999999998 19.352639999999997
12.368395999999997 32.777530999999996 19.799414
12.025467999999998 32.434602999999996 18.065869
14.039858999999998 31.359893999999997 18.814591999999998
12.903483999999999 30.223519 18.402843999999998
13.219527999999997 30.539562999999998 20.000487