3_train/249_cspbbr3_MA-Py_4_0.60\249_cspbbr3_MA-Py_4_0.60.xyz
1.0
46.607088000000005 0 0
0 46.607088000000005 0
0 0 46.607088000000005
Br C Cs H N Pb 
180 351 61 606 111 64 
Cartesian
14.378544 11.403544 14.378544
14.378544 14.378544 17.353544
14.378544 14.378544 23.303544
11.403544 14.378544 26.278544
14.378544 14.378544 29.253544
14.378544 11.403544 32.228544
14.378544 14.378544 35.203544
14.378544 20.328544 11.403544
14.378544 17.353544 14.378544
11.403544 20.328544 14.378544
14.378544 20.328544 17.353544
14.378544 17.353544 20.328544
14.378544 20.328544 23.303544
14.378544 17.353544 26.278544
14.378544 20.328544 29.253544
14.378544 17.353544 32.228544
14.378544 26.278544 11.403544
14.378544 23.303544 14.378544
14.378544 26.278544 17.353544
14.378544 23.303544 20.328544
14.378544 26.278544 23.303544
14.378544 23.303544 26.278544
14.378544 26.278544 29.253544
14.378544 23.303544 32.228544
11.403544 26.278544 32.228544
14.378544 32.228544 11.403544
14.378544 29.253544 14.378544
11.403544 32.228544 14.378544
14.378544 32.228544 17.353544
14.378544 29.253544 20.328544
11.403544 32.228544 20.328544
14.378544 32.228544 23.303544
14.378544 29.253544 26.278544
14.378544 32.228544 29.253544
14.378544 29.253544 32.228544
11.403544 32.228544 32.228544
14.378544 32.228544 35.203544
14.378544 35.203544 32.228544
20.328544 14.378544 11.403544
20.328544 11.403544 14.378544
17.353544 14.378544 14.378544
20.328544 14.378544 17.353544
17.353544 14.378544 20.328544
20.328544 14.378544 23.303544
17.353544 14.378544 26.278544
20.328544 14.378544 29.253544
20.328544 11.403544 32.228544
17.353544 14.378544 32.228544
20.328544 14.378544 35.203544
20.328544 20.328544 11.403544
20.328544 17.353544 14.378544
17.353544 20.328544 14.378544
20.328544 20.328544 17.353544
20.328544 17.353544 20.328544
17.353544 20.328544 20.328544
20.328544 20.328544 23.303544
20.328544 17.353544 26.278544
17.353544 20.328544 26.278544
20.328544 20.328544 29.253544
20.328544 17.353544 32.228544
17.353544 20.328544 32.228544
20.328544 20.328544 35.203544
20.328544 23.303544 14.378544
17.353544 26.278544 14.378544
20.328544 26.278544 17.353544
20.328544 23.303544 20.328544
17.353544 26.278544 20.328544
20.328544 26.278544 23.303544
20.328544 23.303544 26.278544
17.353544 26.278544 26.278544
20.328544 26.278544 29.253544
20.328544 23.303544 32.228544
17.353544 26.278544 32.228544
20.328544 26.278544 35.203544
20.328544 29.253544 14.378544
17.353544 32.228544 14.378544
20.328544 32.228544 17.353544
20.328544 29.253544 20.328544
17.353544 32.228544 20.328544
20.328544 32.228544 23.303544
20.328544 29.253544 26.278544
17.353544 32.228544 26.278544
20.328544 32.228544 29.253544
20.328544 29.253544 32.228544
17.353544 32.228544 32.228544
20.328544 35.203544 20.328544
23.303544 14.378544 14.378544
26.278544 14.378544 17.353544
23.303544 14.378544 20.328544
26.278544 14.378544 23.303544
26.278544 11.403544 26.278544
23.303544 14.378544 26.278544
26.278544 14.378544 29.253544
26.278544 11.403544 32.228544
23.303544 14.378544 32.228544
26.278544 20.328544 11.403544
26.278544 17.353544 14.378544
23.303544 20.328544 14.378544
26.278544 20.328544 17.353544
26.278544 17.353544 20.328544
23.303544 20.328544 20.328544
26.278544 20.328544 23.303544
26.278544 17.353544 26.278544
23.303544 20.328544 26.278544
26.278544 20.328544 29.253544
26.278544 17.353544 32.228544
23.303544 20.328544 32.228544
26.278544 23.303544 14.378544
23.303544 26.278544 14.378544
26.278544 26.278544 17.353544
26.278544 23.303544 20.328544
23.303544 26.278544 20.328544
26.278544 26.278544 23.303544
26.278544 23.303544 26.278544
23.303544 26.278544 26.278544
26.278544 26.278544 29.253544
26.278544 23.303544 32.228544
23.303544 26.278544 32.228544
26.278544 29.253544 14.378544
23.303544 32.228544 14.378544
26.278544 32.228544 17.353544
26.278544 29.253544 20.328544
23.303544 32.228544 20.328544
26.278544 32.228544 23.303544
26.278544 29.253544 26.278544
23.303544 32.228544 26.278544
26.278544 32.228544 29.253544
26.278544 29.253544 32.228544
23.303544 32.228544 32.228544
26.278544 32.228544 35.203544
26.278544 35.203544 26.278544
26.278544 35.203544 32.228544
29.253544 14.378544 14.378544
32.228544 14.378544 17.353544
29.253544 14.378544 20.328544
32.228544 14.378544 23.303544
29.253544 14.378544 26.278544
32.228544 14.378544 29.253544
29.253544 14.378544 32.228544
32.228544 17.353544 14.378544
29.253544 20.328544 14.378544
32.228544 20.328544 17.353544
32.228544 17.353544 20.328544
29.253544 20.328544 20.328544
32.228544 20.328544 23.303544
32.228544 17.353544 26.278544
29.253544 20.328544 26.278544
32.228544 20.328544 29.253544
32.228544 17.353544 32.228544
29.253544 20.328544 32.228544
32.228544 23.303544 14.378544
29.253544 26.278544 14.378544
32.228544 26.278544 17.353544
32.228544 23.303544 20.328544
29.253544 26.278544 20.328544
32.228544 26.278544 23.303544
32.228544 23.303544 26.278544
29.253544 26.278544 26.278544
32.228544 26.278544 29.253544
32.228544 23.303544 32.228544
29.253544 26.278544 32.228544
32.228544 29.253544 14.378544
29.253544 32.228544 14.378544
32.228544 32.228544 17.353544
32.228544 29.253544 20.328544
29.253544 32.228544 20.328544
32.228544 32.228544 23.303544
32.228544 29.253544 26.278544
29.253544 32.228544 26.278544
32.228544 32.228544 29.253544
32.228544 29.253544 32.228544
29.253544 32.228544 32.228544
32.228544 35.203544 20.328544
32.228544 35.203544 26.278544
35.203544 14.378544 20.328544
35.203544 20.328544 14.378544
35.203544 20.328544 32.228544
35.203544 26.278544 14.378544
35.203544 26.278544 26.278544
35.203544 32.228544 32.228544
26.441546 13.245526 35.905792000000005
26.449063 13.191147 37.302058
26.278544 14.378544 38.015077000000005
26.114586 15.511503000000001 35.905394
26.10643 15.564952 37.301339
32.391546000000005 13.245526 35.905792000000005
32.399063 13.191147 37.302058
32.228544 14.378544 38.015077000000005
32.064586 15.511503000000001 35.905394
32.05643 15.564952 37.301339
32.391546000000005 25.145526 35.905792000000005
32.399063 25.091147 37.302058
32.228544 26.278544 38.015077000000005
32.064586 27.411503 35.905394
32.05643 27.464952 37.301339
26.441546 25.145526 35.905792000000005
26.449063 25.091147 37.302058
26.278544 26.278544 38.015077000000005
26.114586 27.411503 35.905394
26.10643 27.464952 37.301339
32.391546000000005 19.195526 35.905792000000005
32.399063 19.141147 37.302058
32.228544 20.328544 38.015077000000005
32.064586 21.461503 35.905394
32.05643 21.514952 37.301339
32.391546000000005 31.095526 35.905792000000005
32.399063 31.041147 37.302058
32.228544 32.228544 38.015077000000005
32.064586 33.361503 35.905394
32.05643 33.414952 37.301339
26.441546 19.195526 35.905792000000005
26.449063 19.141147 37.302058
26.278544 20.328544 38.015077000000005
26.114586 21.461503 35.905394
26.10643 21.514952 37.301339
14.541546 25.145526 35.905792000000005
14.549063 25.091147 37.302058
14.378544 26.278544 38.015077000000005
14.214586 27.411503 35.905394
14.206430000000001 27.464952 37.301339
20.491546 31.095526 35.905792000000005
20.499063 31.041147 37.302058
20.328544 32.228544 38.015077000000005
20.164586 33.361503 35.905394
20.15643 33.414952 37.301339
14.541546 19.195526 35.905792000000005
14.549063 19.141147 37.302058
14.378544 20.328544 38.015077000000005
14.214586 21.461503 35.905394
14.206430000000001 21.514952 37.301339
26.115542 25.145526 10.701296
26.108025 25.091147 9.30503
26.278544 26.278544 8.592011
26.442502 27.411503 10.701694
26.450658 27.464952 9.305749
14.215542 13.245526 10.701296
14.208025 13.191147 9.30503
14.378544 14.378544 8.592011
14.542502 15.511503000000001 10.701694
14.550658 15.564952 9.305749
32.065542 25.145526 10.701296
32.058025 25.091147 9.30503
32.228544 26.278544 8.592011
32.392502 27.411503 10.701694
32.400658 27.464952 9.305749
26.115542 31.095526 10.701296
26.108025 31.041147 9.30503
26.278544 32.228544 8.592011
26.442502 33.361503 10.701694
26.450658 33.414952 9.305749
20.165542 25.145526 10.701296
20.158025 25.091147 9.30503
20.328544 26.278544 8.592011
20.492501999999998 27.411503 10.701694
20.500657999999998 27.464952 9.305749
26.115542 13.245526 10.701296
26.108025 13.191147 9.30503
26.278544 14.378544 8.592011
26.442502 15.511503000000001 10.701694
26.450658 15.564952 9.305749
32.065542 31.095526 10.701296
32.058025 31.041147 9.30503
32.228544 32.228544 8.592011
32.392502 33.361503 10.701694
32.400658 33.414952 9.305749
32.065542 19.195526 10.701296
32.058025 19.141147 9.30503
32.228544 20.328544 8.592011
32.392502 21.461503 10.701694
32.400658 21.514952 9.305749
20.165542 31.095526 10.701296
20.158025 31.041147 9.30503
20.328544 32.228544 8.592011
20.492501999999998 33.361503 10.701694
20.500657999999998 33.414952 9.305749
32.065542 13.245526 10.701296
32.058025 13.191147 9.30503
32.228544 14.378544 8.592011
32.392502 15.511503000000001 10.701694
32.400658 15.564952 9.305749
10.701296 13.245526 20.491546
9.30503 13.191147 20.499063
8.592011 14.378544 20.328544
10.701694 15.511503000000001 20.164586
9.305749 15.564952 20.15643
10.701296 13.245526 32.391546000000005
9.30503 13.191147 32.399063
8.592011 14.378544 32.228544
10.701694 15.511503000000001 32.064586
9.305749 15.564952 32.05643
10.701296 13.245526 14.541546
9.30503 13.191147 14.549063
8.592011 14.378544 14.378544
10.701694 15.511503000000001 14.214586
9.305749 15.564952 14.206430000000001
10.701296 19.195526 26.441546
9.30503 19.141147 26.449063
8.592011 20.328544 26.278544
10.701694 21.461503 26.114586
9.305749 21.514952 26.10643
10.701296 25.145526 26.441546
9.30503 25.091147 26.449063
8.592011 26.278544 26.278544
10.701694 27.411503 26.114586
9.305749 27.464952 26.10643
10.701296 31.095526 26.441546
9.30503 31.041147 26.449063
8.592011 32.228544 26.278544
10.701694 33.361503 26.114586
9.305749 33.414952 26.10643
10.701296 19.195526 20.491546
9.30503 19.141147 20.499063
8.592011 20.328544 20.328544
10.701694 21.461503 20.164586
9.305749 21.514952 20.15643
10.701296 25.145526 20.491546
9.30503 25.091147 20.499063
8.592011 26.278544 20.328544
10.701694 27.411503 20.164586
9.305749 27.464952 20.15643
10.701296 25.145526 14.541546
9.30503 25.091147 14.549063
8.592011 26.278544 14.378544
10.701694 27.411503 14.214586
9.305749 27.464952 14.206430000000001
10.701296 19.195526 32.391546000000005
9.30503 19.141147 32.399063
8.592011 20.328544 32.228544
10.701694 21.461503 32.064586
9.305749 21.514952 32.05643
35.905792000000005 13.245526 14.215542
37.302058 13.191147 14.208025
38.015077000000005 14.378544 14.378544
35.905394 15.511503000000001 14.542502
37.301339 15.564952 14.550658
35.905792000000005 25.145526 32.065542
37.302058 25.091147 32.058025
38.015077000000005 26.278544 32.228544
35.905394 27.411503 32.392502
37.301339 27.464952 32.400658
35.905792000000005 31.095526 14.215542
37.302058 31.041147 14.208025
38.015077000000005 32.228544 14.378544
35.905394 33.361503 14.542502
37.301339 33.414952 14.550658
35.905792000000005 25.145526 20.165542
37.302058 25.091147 20.158025
38.015077000000005 26.278544 20.328544
35.905394 27.411503 20.492501999999998
37.301339 27.464952 20.500657999999998
35.905792000000005 19.195526 26.115542
37.302058 19.141147 26.108025
38.015077000000005 20.328544 26.278544
35.905394 21.461503 26.442502
37.301339 21.514952 26.450658
35.905792000000005 13.245526 26.115542
37.302058 13.191147 26.108025
38.015077000000005 14.378544 26.278544
35.905394 15.511503000000001 26.442502
37.301339 15.564952 26.450658
35.905792000000005 13.245526 32.065542
37.302058 13.191147 32.058025
38.015077000000005 14.378544 32.228544
35.905394 15.511503000000001 32.392502
37.301339 15.564952 32.400658
35.905792000000005 31.095526 26.115542
37.302058 31.041147 26.108025
38.015077000000005 32.228544 26.278544
35.905394 33.361503 26.442502
37.301339 33.414952 26.450658
35.905792000000005 19.195526 20.165542
37.302058 19.141147 20.158025
38.015077000000005 20.328544 20.328544
35.905394 21.461503 20.492501999999998
37.301339 21.514952 20.500657999999998
35.905792000000005 31.095526 20.165542
37.302058 31.041147 20.158025
38.015077000000005 32.228544 20.328544
35.905394 33.361503 20.492501999999998
37.301339 33.414952 20.500657999999998
32.391546000000005 10.701296 31.095526
32.399063 9.30503 31.041147
32.228544 8.592011 32.228544
32.064586 10.701694 33.361503
32.05643 9.305749 33.414952
26.441546 10.701296 13.245526
26.449063 9.30503 13.191147
26.278544 8.592011 14.378544
26.114586 10.701694 15.511503000000001
26.10643 9.305749 15.564952
26.441546 10.701296 19.195526
26.449063 9.30503 19.141147
26.278544 8.592011 20.328544
26.114586 10.701694 21.461503
26.10643 9.305749 21.514952
32.391546000000005 10.701296 19.195526
32.399063 9.30503 19.141147
32.228544 8.592011 20.328544
32.064586 10.701694 21.461503
32.05643 9.305749 21.514952
32.391546000000005 10.701296 13.245526
32.399063 9.30503 13.191147
32.228544 8.592011 14.378544
32.064586 10.701694 15.511503000000001
32.05643 9.305749 15.564952
20.491546 10.701296 25.145526
20.499063 9.30503 25.091147
20.328544 8.592011 26.278544
20.164586 10.701694 27.411503
20.15643 9.305749 27.464952
14.541546 10.701296 19.195526
14.549063 9.30503 19.141147
14.378544 8.592011 20.328544
14.214586 10.701694 21.461503
14.206430000000001 9.305749 21.514952
14.541546 10.701296 25.145526
14.549063 9.30503 25.091147
14.378544 8.592011 26.278544
14.214586 10.701694 27.411503
14.206430000000001 9.305749 27.464952
32.391546000000005 10.701296 25.145526
32.399063 9.30503 25.091147
32.228544 8.592011 26.278544
32.064586 10.701694 27.411503
32.05643 9.305749 27.464952
20.491546 10.701296 19.195526
20.499063 9.30503 19.141147
20.328544 8.592011 20.328544
20.164586 10.701694 21.461503
20.15643 9.305749 21.514952
26.441546 35.905792000000005 21.461562
26.449063 37.302058 21.515941
26.278544 38.015077000000005 20.328544
26.114586 35.905394 19.195585
26.10643 37.301339 19.142136
20.491546 35.905792000000005 15.511562000000001
20.499063 37.302058 15.565941
20.328544 38.015077000000005 14.378544
20.164586 35.905394 13.245585
20.15643 37.301339 13.192136
32.391546000000005 35.905792000000005 15.511562000000001
32.399063 37.302058 15.565941
32.228544 38.015077000000005 14.378544
32.064586 35.905394 13.245585
32.05643 37.301339 13.192136
20.491546 35.905792000000005 27.411562
20.499063 37.302058 27.465941
20.328544 38.015077000000005 26.278544
20.164586 35.905394 25.145585
20.15643 37.301339 25.092136
14.541546 35.905792000000005 15.511562000000001
14.549063 37.302058 15.565941
14.378544 38.015077000000005 14.378544
14.214586 35.905394 13.245585
14.206430000000001 37.301339 13.192136
32.391546000000005 35.905792000000005 33.361562
32.399063 37.302058 33.415941000000004
32.228544 38.015077000000005 32.228544
32.064586 35.905394 31.095585
32.05643 37.301339 31.042136
14.541546 35.905792000000005 27.411562
14.549063 37.302058 27.465941
14.378544 38.015077000000005 26.278544
14.214586 35.905394 25.145585
14.206430000000001 37.301339 25.092136
26.441546 35.905792000000005 15.511562000000001
26.449063 37.302058 15.565941
26.278544 38.015077000000005 14.378544
26.114586 35.905394 13.245585
26.10643 37.301339 13.192136
14.541546 35.905792000000005 21.461562
14.549063 37.302058 21.515941
14.378544 38.015077000000005 20.328544
14.214586 35.905394 19.195585
14.206430000000001 37.301339 19.142136
20.491546 35.905792000000005 33.361562
20.499063 37.302058 33.415941000000004
20.328544 38.015077000000005 32.228544
20.164586 35.905394 31.095585
20.15643 37.301339 31.042136
10.360094 36.246994 23.303544
23.303544 23.303544 36.679204999999996
17.353544 23.303544 36.679204999999996
29.253544 36.679204999999996 17.353544
10.360094 29.253544 10.360094
36.246994 29.253544 36.246994
23.303544 10.360094 10.360094
23.303544 29.253544 9.927883000000001
29.253544 10.360094 36.246994
17.353544 23.303544 9.927883000000001
36.679204999999996 23.303544 23.303544
17.353544 36.246994 10.360094
17.353544 10.360094 10.360094
36.246994 36.246994 23.303544
10.360094 29.253544 36.246994
36.679204999999996 23.303544 29.253544
10.360094 23.303544 36.246994
23.303544 23.303544 9.927883000000001
17.353544 17.353544 9.927883000000001
10.360094 17.353544 10.360094
36.246994 10.360094 29.253544
23.303544 36.246994 10.360094
17.353544 10.360094 36.246994
29.253544 29.253544 9.927883000000001
9.927883000000001 17.353544 23.303544
29.253544 29.253544 36.679204999999996
9.927883000000001 17.353544 17.353544
23.303544 36.679204999999996 23.303544
29.253544 23.303544 36.679204999999996
36.246994 29.253544 10.360094
36.246994 36.246994 29.253544
9.927883000000001 29.253544 23.303544
10.360094 23.303544 10.360094
29.253544 9.927883000000001 23.303544
23.303544 36.679204999999996 29.253544
17.353544 9.927883000000001 29.253544
36.679204999999996 17.353544 23.303544
23.303544 36.246994 36.246994
17.353544 9.927883000000001 23.303544
17.353544 36.246994 36.246994
36.679204999999996 23.303544 17.353544
23.303544 9.927883000000001 23.303544
36.679204999999996 29.253544 23.303544
17.353544 36.679204999999996 17.353544
23.303544 17.353544 9.927883000000001
29.253544 17.353544 9.927883000000001
36.246994 17.353544 10.360094
17.353544 29.253544 36.679204999999996
9.927883000000001 23.303544 23.303544
36.246994 23.303544 36.246994
23.303544 9.927883000000001 17.353544
11.403544 11.403544 17.353544
11.403544 11.403544 23.303544
11.403544 11.403544 29.253544
11.403544 17.353544 29.253544
11.403544 23.303544 17.353544
11.403544 23.303544 29.253544
11.403544 29.253544 17.353544
11.403544 35.203544 17.353544
11.403544 35.203544 29.253544
17.353544 11.403544 17.353544
17.353544 17.353544 17.353544
17.353544 17.353544 23.303544
17.353544 17.353544 29.253544
17.353544 17.353544 35.203544
17.353544 23.303544 17.353544
17.353544 23.303544 23.303544
17.353544 23.303544 29.253544
17.353544 29.253544 11.403544
17.353544 29.253544 17.353544
17.353544 29.253544 23.303544
17.353544 29.253544 29.253544
17.353544 35.203544 23.303544
17.353544 35.203544 29.253544
23.303544 11.403544 29.253544
23.303544 11.403544 35.203544
23.303544 17.353544 17.353544
23.303544 17.353544 23.303544
23.303544 17.353544 29.253544
23.303544 23.303544 17.353544
23.303544 23.303544 23.303544
23.303544 23.303544 29.253544
23.303544 29.253544 17.353544
23.303544 29.253544 23.303544
23.303544 29.253544 29.253544
23.303544 29.253544 35.203544
23.303544 35.203544 17.353544
29.253544 11.403544 17.353544
29.253544 11.403544 29.253544
29.253544 17.353544 17.353544
29.253544 17.353544 23.303544
29.253544 17.353544 29.253544
29.253544 17.353544 35.203544
29.253544 23.303544 11.403544
29.253544 23.303544 17.353544
29.253544 23.303544 23.303544
29.253544 23.303544 29.253544
29.253544 29.253544 17.353544
29.253544 29.253544 23.303544
29.253544 29.253544 29.253544
29.253544 35.203544 11.403544
29.253544 35.203544 29.253544
29.253544 35.203544 35.203544
35.203544 11.403544 17.353544
35.203544 11.403544 23.303544
35.203544 17.353544 17.353544
35.203544 17.353544 29.253544
35.203544 17.353544 35.203544
35.203544 23.303544 11.403544
35.203544 29.253544 17.353544
35.203544 29.253544 29.253544
35.203544 35.203544 17.353544
26.280049 14.382564 39.107088000000005
25.983282 16.42569 35.317633
26.574428 12.332298 35.316863
26.586035 12.236527 37.813964999999996
25.967589999999998 16.518075 37.815220999999994
32.230049 14.382564 39.107088000000005
31.933282 16.42569 35.317633
32.524428 12.332298 35.316863
32.536035 12.236527 37.813964999999996
31.91759 16.518075 37.815220999999994
32.230049 26.282564 39.107088000000005
31.933282 28.32569 35.317633
32.524428 24.232298 35.316863
32.536035 24.136527 37.813964999999996
31.91759 28.418075 37.815220999999994
26.280049 26.282564 39.107088000000005
25.983282 28.32569 35.317633
26.574428 24.232298 35.316863
26.586035 24.136527 37.813964999999996
25.967589999999998 28.418075 37.815220999999994
32.230049 20.332564 39.107088000000005
31.933282 22.375690000000002 35.317633
32.524428 18.282298 35.316863
32.536035 18.186526999999998 37.813964999999996
31.91759 22.468075000000002 37.815220999999994
32.230049 32.232563999999996 39.107088000000005
31.933282 34.27569 35.317633
32.524428 30.182298 35.316863
32.536035 30.086527 37.813964999999996
31.91759 34.368075000000005 37.815220999999994
26.280049 20.332564 39.107088000000005
25.983282 22.375690000000002 35.317633
26.574428 18.282298 35.316863
26.586035 18.186526999999998 37.813964999999996
25.967589999999998 22.468075000000002 37.815220999999994
14.380049 26.282564 39.107088000000005
14.083282 28.32569 35.317633
14.674428 24.232298 35.316863
14.686035 24.136527 37.813964999999996
14.06759 28.418075 37.815220999999994
20.330049 32.232563999999996 39.107088000000005
20.033282 34.27569 35.317633
20.624427999999998 30.182298 35.316863
20.636035 30.086527 37.813964999999996
20.017590000000002 34.368075000000005 37.815220999999994
14.380049 20.332564 39.107088000000005
14.083282 22.375690000000002 35.317633
14.674428 18.282298 35.316863
14.686035 18.186526999999998 37.813964999999996
14.06759 22.468075000000002 37.815220999999994
26.277039 26.282564 7.5
26.573806 28.32569 11.289455
25.98266 24.232298 11.290225
25.971053 24.136527 8.793123
26.589498000000003 28.418075 8.791867
14.377039 14.382564 7.5
14.673805999999999 16.42569 11.289455
14.08266 12.332298 11.290225
14.071053 12.236527 8.793123
14.689498 16.518075 8.791867
32.227039000000005 26.282564 7.5
32.523806 28.32569 11.289455
31.93266 24.232298 11.290225
31.921053 24.136527 8.793123
32.539498 28.418075 8.791867
26.277039 32.232563999999996 7.5
26.573806 34.27569 11.289455
25.98266 30.182298 11.290225
25.971053 30.086527 8.793123
26.589498000000003 34.368075000000005 8.791867
20.327039000000003 26.282564 7.5
20.623806 28.32569 11.289455
20.03266 24.232298 11.290225
20.021053 24.136527 8.793123
20.639498 28.418075 8.791867
26.277039 14.382564 7.5
26.573806 16.42569 11.289455
25.98266 12.332298 11.290225
25.971053 12.236527 8.793123
26.589498000000003 16.518075 8.791867
32.227039000000005 32.232563999999996 7.5
32.523806 34.27569 11.289455
31.93266 30.182298 11.290225
31.921053 30.086527 8.793123
32.539498 34.368075000000005 8.791867
32.227039000000005 20.332564 7.5
32.523806 22.375690000000002 11.289455
31.93266 18.282298 11.290225
31.921053 18.186526999999998 8.793123
32.539498 22.468075000000002 8.791867
20.327039000000003 32.232563999999996 7.5
20.623806 34.27569 11.289455
20.03266 30.182298 11.290225
20.021053 30.086527 8.793123
20.639498 34.368075000000005 8.791867
32.227039000000005 14.382564 7.5
32.523806 16.42569 11.289455
31.93266 12.332298 11.290225
31.921053 12.236527 8.793123
32.539498 16.518075 8.791867
7.5 14.382564 20.330049
11.289455 16.42569 20.033282
11.290225 12.332298 20.624427999999998
8.793123 12.236527 20.636035
8.791867 16.518075 20.017590000000002
7.5 14.382564 32.230049
11.289455 16.42569 31.933282
11.290225 12.332298 32.524428
8.793123 12.236527 32.536035
8.791867 16.518075 31.91759
7.5 14.382564 14.380049
11.289455 16.42569 14.083282
11.290225 12.332298 14.674428
8.793123 12.236527 14.686035
8.791867 16.518075 14.06759
7.5 20.332564 26.280049
11.289455 22.375690000000002 25.983282
11.290225 18.282298 26.574428
8.793123 18.186526999999998 26.586035
8.791867 22.468075000000002 25.967589999999998
7.5 26.282564 26.280049
11.289455 28.32569 25.983282
11.290225 24.232298 26.574428
8.793123 24.136527 26.586035
8.791867 28.418075 25.967589999999998
7.5 32.232563999999996 26.280049
11.289455 34.27569 25.983282
11.290225 30.182298 26.574428
8.793123 30.086527 26.586035
8.791867 34.368075000000005 25.967589999999998
7.5 20.332564 20.330049
11.289455 22.375690000000002 20.033282
11.290225 18.282298 20.624427999999998
8.793123 18.186526999999998 20.636035
8.791867 22.468075000000002 20.017590000000002
7.5 26.282564 20.330049
11.289455 28.32569 20.033282
11.290225 24.232298 20.624427999999998
8.793123 24.136527 20.636035
8.791867 28.418075 20.017590000000002
7.5 26.282564 14.380049
11.289455 28.32569 14.083282
11.290225 24.232298 14.674428
8.793123 24.136527 14.686035
8.791867 28.418075 14.06759
7.5 20.332564 32.230049
11.289455 22.375690000000002 31.933282
11.290225 18.282298 32.524428
8.793123 18.186526999999998 32.536035
8.791867 22.468075000000002 31.91759
39.107088000000005 14.382564 14.377039
35.317633 16.42569 14.673805999999999
35.316863 12.332298 14.08266
37.813964999999996 12.236527 14.071053
37.815220999999994 16.518075 14.689498
39.107088000000005 26.282564 32.227039000000005
35.317633 28.32569 32.523806
35.316863 24.232298 31.93266
37.813964999999996 24.136527 31.921053
37.815220999999994 28.418075 32.539498
39.107088000000005 32.232563999999996 14.377039
35.317633 34.27569 14.673805999999999
35.316863 30.182298 14.08266
37.813964999999996 30.086527 14.071053
37.815220999999994 34.368075000000005 14.689498
39.107088000000005 26.282564 20.327039000000003
35.317633 28.32569 20.623806
35.316863 24.232298 20.03266
37.813964999999996 24.136527 20.021053
37.815220999999994 28.418075 20.639498
39.107088000000005 20.332564 26.277039
35.317633 22.375690000000002 26.573806
35.316863 18.282298 25.98266
37.813964999999996 18.186526999999998 25.971053
37.815220999999994 22.468075000000002 26.589498000000003
39.107088000000005 14.382564 26.277039
35.317633 16.42569 26.573806
35.316863 12.332298 25.98266
37.813964999999996 12.236527 25.971053
37.815220999999994 16.518075 26.589498000000003
39.107088000000005 14.382564 32.227039000000005
35.317633 16.42569 32.523806
35.316863 12.332298 31.93266
37.813964999999996 12.236527 31.921053
37.815220999999994 16.518075 32.539498
39.107088000000005 32.232563999999996 26.277039
35.317633 34.27569 26.573806
35.316863 30.182298 25.98266
37.813964999999996 30.086527 25.971053
37.815220999999994 34.368075000000005 26.589498000000003
39.107088000000005 20.332564 20.327039000000003
35.317633 22.375690000000002 20.623806
35.316863 18.282298 20.03266
37.813964999999996 18.186526999999998 20.021053
37.815220999999994 22.468075000000002 20.639498
39.107088000000005 32.232563999999996 20.327039000000003
35.317633 34.27569 20.623806
35.316863 30.182298 20.03266
37.813964999999996 30.086527 20.021053
37.815220999999994 34.368075000000005 20.639498
32.230049 7.5 32.232563999999996
31.933282 11.289455 34.27569
32.524428 11.290225 30.182298
32.536035 8.793123 30.086527
31.91759 8.791867 34.368075000000005
26.280049 7.5 14.382564
25.983282 11.289455 16.42569
26.574428 11.290225 12.332298
26.586035 8.793123 12.236527
25.967589999999998 8.791867 16.518075
26.280049 7.5 20.332564
25.983282 11.289455 22.375690000000002
26.574428 11.290225 18.282298
26.586035 8.793123 18.186526999999998
25.967589999999998 8.791867 22.468075000000002
32.230049 7.5 20.332564
31.933282 11.289455 22.375690000000002
32.524428 11.290225 18.282298
32.536035 8.793123 18.186526999999998
31.91759 8.791867 22.468075000000002
32.230049 7.5 14.382564
31.933282 11.289455 16.42569
32.524428 11.290225 12.332298
32.536035 8.793123 12.236527
31.91759 8.791867 16.518075
20.330049 7.5 26.282564
20.033282 11.289455 28.32569
20.624427999999998 11.290225 24.232298
20.636035 8.793123 24.136527
20.017590000000002 8.791867 28.418075
14.380049 7.5 20.332564
14.083282 11.289455 22.375690000000002
14.674428 11.290225 18.282298
14.686035 8.793123 18.186526999999998
14.06759 8.791867 22.468075000000002
14.380049 7.5 26.282564
14.083282 11.289455 28.32569
14.674428 11.290225 24.232298
14.686035 8.793123 24.136527
14.06759 8.791867 28.418075
32.230049 7.5 26.282564
31.933282 11.289455 28.32569
32.524428 11.290225 24.232298
32.536035 8.793123 24.136527
31.91759 8.791867 28.418075
20.330049 7.5 20.332564
20.033282 11.289455 22.375690000000002
20.624427999999998 11.290225 18.282298
20.636035 8.793123 18.186526999999998
20.017590000000002 8.791867 22.468075000000002
26.280049 39.107088000000005 20.324524
25.983282 35.317633 18.281398
26.574428 35.316863 22.37479
26.586035 37.813964999999996 22.470561
25.967589999999998 37.815220999999994 18.189013
20.330049 39.107088000000005 14.374524000000001
20.033282 35.317633 12.331398
20.624427999999998 35.316863 16.42479
20.636035 37.813964999999996 16.520561
20.017590000000002 37.815220999999994 12.239013
32.230049 39.107088000000005 14.374524000000001
31.933282 35.317633 12.331398
32.524428 35.316863 16.42479
32.536035 37.813964999999996 16.520561
31.91759 37.815220999999994 12.239013
20.330049 39.107088000000005 26.274524
20.033282 35.317633 24.231398000000002
20.624427999999998 35.316863 28.32479
20.636035 37.813964999999996 28.420561
20.017590000000002 37.815220999999994 24.139013000000002
14.380049 39.107088000000005 14.374524000000001
14.083282 35.317633 12.331398
14.674428 35.316863 16.42479
14.686035 37.813964999999996 16.520561
14.06759 37.815220999999994 12.239013
32.230049 39.107088000000005 32.224524
31.933282 35.317633 30.181398
32.524428 35.316863 34.274789999999996
32.536035 37.813964999999996 34.370560999999995
31.91759 37.815220999999994 30.089013
14.380049 39.107088000000005 26.274524
14.083282 35.317633 24.231398000000002
14.674428 35.316863 28.32479
14.686035 37.813964999999996 28.420561
14.06759 37.815220999999994 24.139013000000002
26.280049 39.107088000000005 14.374524000000001
25.983282 35.317633 12.331398