3_train/235_cspbbr3_MA-INC_3_0.20\235_cspbbr3_MA-INC_3_0.20.xyz
1.0
41.68719 0 0
0 41.68719 0
0 0 41.68719
Br C Cs H N O Pb 
96 82 44 108 22 24 27 
Cartesian
14.893595 14.893595 11.918595
14.893595 11.918595 14.893595
11.918595 14.893595 14.893595
14.893595 14.893595 17.868595
14.893595 11.918595 20.843595
14.893595 14.893595 23.818595
14.893595 11.918595 26.793595
11.918595 14.893595 26.793595
14.893595 14.893595 29.768595
14.893595 20.843595 11.918595
14.893595 17.868595 14.893595
14.893595 20.843595 17.868595
14.893595 17.868595 20.843595
11.918595 20.843595 20.843595
14.893595 20.843595 23.818595
14.893595 17.868595 26.793595
11.918595 20.843595 26.793595
14.893595 20.843595 29.768595
14.893595 26.793595 11.918595
14.893595 23.818595 14.893595
11.918595 26.793595 14.893595
14.893595 26.793595 17.868595
14.893595 23.818595 20.843595
11.918595 26.793595 20.843595
14.893595 26.793595 23.818595
14.893595 23.818595 26.793595
11.918595 26.793595 26.793595
14.893595 26.793595 29.768595
14.893595 29.768595 14.893595
14.893595 29.768595 26.793595
20.843595 14.893595 11.918595
20.843595 11.918595 14.893595
17.868595 14.893595 14.893595
20.843595 14.893595 17.868595
17.868595 14.893595 20.843595
20.843595 14.893595 23.818595
20.843595 11.918595 26.793595
17.868595 14.893595 26.793595
20.843595 20.843595 11.918595
20.843595 17.868595 14.893595
17.868595 20.843595 14.893595
20.843595 20.843595 17.868595
20.843595 17.868595 20.843595
17.868595 20.843595 20.843595
20.843595 20.843595 23.818595
20.843595 17.868595 26.793595
17.868595 20.843595 26.793595
20.843595 20.843595 29.768595
20.843595 26.793595 11.918595
20.843595 23.818595 14.893595
17.868595 26.793595 14.893595
20.843595 26.793595 17.868595
20.843595 23.818595 20.843595
17.868595 26.793595 20.843595
20.843595 26.793595 23.818595
20.843595 23.818595 26.793595
17.868595 26.793595 26.793595
20.843595 26.793595 29.768595
20.843595 29.768595 14.893595
20.843595 29.768595 20.843595
20.843595 29.768595 26.793595
26.793595 11.918595 14.893595
23.818595 14.893595 14.893595
26.793595 14.893595 17.868595
23.818595 14.893595 20.843595
26.793595 14.893595 23.818595
26.793595 11.918595 26.793595
23.818595 14.893595 26.793595
26.793595 14.893595 29.768595
26.793595 17.868595 14.893595
23.818595 20.843595 14.893595
26.793595 20.843595 17.868595
26.793595 17.868595 20.843595
23.818595 20.843595 20.843595
26.793595 20.843595 23.818595
26.793595 17.868595 26.793595
23.818595 20.843595 26.793595
26.793595 26.793595 11.918595
26.793595 23.818595 14.893595
23.818595 26.793595 14.893595
26.793595 26.793595 17.868595
26.793595 23.818595 20.843595
23.818595 26.793595 20.843595
26.793595 26.793595 23.818595
26.793595 23.818595 26.793595
23.818595 26.793595 26.793595
26.793595 26.793595 29.768595
26.793595 29.768595 20.843595
26.793595 29.768595 26.793595
29.768595 14.893595 14.893595
29.768595 14.893595 26.793595
29.768595 20.843595 14.893595
29.768595 20.843595 20.843595
29.768595 20.843595 26.793595
29.768595 26.793595 14.893595
29.768595 26.793595 20.843595
27.375305 19.861707 33.508123
27.409096 19.810119999999998 32.102737000000005
26.793595 20.843595 31.411436
26.203481999999997 21.826378000000002 33.505365
26.793595 20.843595 29.768595
26.176085 21.877464999999997 32.100269
21.834711000000002 14.327753 33.508123
21.889590000000002 14.299621 32.102737000000005
20.843595 14.893595 31.411436
19.844732 15.456061 33.505365
20.843595 14.893595 29.768595
19.795658 15.48692 32.100269
26.119252 19.922862000000002 8.179067
26.080608 19.874800999999998 9.584453
26.793595 20.843595 10.275754
27.476389 21.764402999999998 8.181825
26.793595 20.843595 11.918595
27.508619 21.812587 9.586921
25.86701 14.227315 8.179067
25.815369999999998 14.193604 9.584453
26.793595 14.893595 10.275754
27.728237 15.557326 8.181825
26.793595 14.893595 11.918595
27.773819 15.593143 9.586921
8.179067 15.891943 20.290612
9.584453 15.944489 20.258331
10.275754 14.893595 20.843595
8.181825 13.894108 21.404951999999998
11.918595 14.893595 20.843595
9.586921 13.842248 21.430854999999998
8.179067 19.709234 15.018948
9.584453 19.648305 15.028476
10.275754 20.843595 14.893595
8.181825 21.982235 14.760955
11.918595 20.843595 14.893595
9.586921 22.040073 14.757047
33.508123 26.576807 25.673108
32.102737000000005 26.567832 25.612095
31.411436 26.793595 26.793595
33.505365 27.004693 27.920331
29.768595 26.793595 26.793595
32.100269 27.018117999999998 27.976724
33.508123 14.131743 21.693341999999998
32.102737000000005 14.088548 21.737358
31.411436 14.893595 20.843595
33.505365 15.663864 19.994607000000002
29.768595 14.893595 20.843595
32.100269 15.700689 19.949835999999998
21.964446 8.179067 21.058494
22.024428 9.584453 21.072823
20.843595 10.275754 20.843595
19.719056000000002 8.181825 20.621092
20.843595 11.918595 20.843595
19.66171 9.586921 20.612610999999998
25.960083 8.179067 20.064014
25.916987000000002 9.584453 20.019902000000002
26.793595 10.275754 20.843595
27.626171 8.181825 21.631575
26.793595 11.918595 20.843595
27.670156000000002 9.586921 21.669335
26.644219 33.508123 13.762146
26.633401 32.102737000000005 13.701433
26.793595 31.411436 14.893595
26.950348 33.505365 16.029167
26.793595 29.768595 14.893595
26.955481000000002 32.100269 16.086909
13.937954 33.508123 21.467485999999997
13.887886 32.102737000000005 21.50349
14.893595 31.411436 20.843595
15.849765 33.505365 20.21127
14.893595 29.768595 20.843595
15.899611 32.100269 20.181676
17.868595 30.812045 10.875145
23.818595 17.868595 31.244256
17.868595 10.875145 10.875145
10.875145 17.868595 30.812045
17.868595 31.244256 17.868595
23.818595 10.875145 30.812045
31.244256 23.818595 23.818595
10.442934000000001 17.868595 23.818595
10.875145 30.812045 17.868595
10.442934000000001 23.818595 17.868595
11.918595 11.918595 17.868595
11.918595 11.918595 23.818595
11.918595 17.868595 11.918595
11.918595 17.868595 17.868595
11.918595 23.818595 11.918595
11.918595 23.818595 23.818595
11.918595 29.768595 23.818595
17.868595 11.918595 17.868595
17.868595 11.918595 23.818595
17.868595 11.918595 29.768595
17.868595 17.868595 11.918595
17.868595 17.868595 17.868595
17.868595 17.868595 23.818595
17.868595 17.868595 29.768595
17.868595 23.818595 11.918595
17.868595 23.818595 17.868595
17.868595 23.818595 23.818595
17.868595 23.818595 29.768595
17.868595 29.768595 23.818595
23.818595 11.918595 11.918595
23.818595 11.918595 17.868595
23.818595 11.918595 23.818595
23.818595 17.868595 11.918595
23.818595 17.868595 17.868595
23.818595 17.868595 23.818595
23.818595 23.818595 11.918595
23.818595 23.818595 17.868595
23.818595 23.818595 23.818595
23.818595 23.818595 29.768595
23.818595 29.768595 11.918595
23.818595 29.768595 17.868595
23.818595 29.768595 23.818595
23.818595 29.768595 29.768595
29.768595 11.918595 17.868595
29.768595 11.918595 23.818595
29.768595 17.868595 11.918595
29.768595 17.868595 17.868595
29.768595 17.868595 23.818595
29.768595 17.868595 29.768595
29.768595 23.818595 11.918595
29.768595 23.818595 17.868595
29.768595 23.818595 29.768595
29.768595 29.768595 17.868595
29.768595 29.768595 23.818595
25.725766 22.625505 34.081942
27.849833 19.062654000000002 34.087651
27.902314 18.985695 31.590646
25.686244 22.702572999999997 31.586135
19.034371999999998 15.914465 34.081942
22.642264 13.867836 34.087651
22.725933 13.826891999999999 31.590646
18.961914 15.961911 31.586135
28.029477 22.513343 7.605248
25.569343 19.173685 7.599539
25.509635 19.102187999999998 10.096544
28.076299 22.586206999999998 10.101054999999999
28.486278 16.097874 7.605248
25.111919 13.685556 7.599539
25.032985 13.636096 10.096544
28.553384 16.152630000000002 10.101054999999999
7.605248 13.08146 21.859286
7.599539 16.704425999999998 19.839462
10.096544 16.782874 19.789234999999998
10.101054999999999 13.003278 21.896556
7.605248 22.90722 14.655033
7.599539 18.785629 15.121996
10.096544 18.693881 15.138096
10.101054999999999 22.993727 14.650784
34.081942 27.177927999999998 28.835102
34.087651 26.401237 24.760507
31.590646 26.389396 24.668113
31.586135 27.199532 28.918975
34.081942 16.288111 19.303859
34.087651 13.510637 22.384639
31.590646 13.444169 22.449899
31.586135 16.34189 19.235967
18.805381 7.605248 20.442164000000002
22.876973 7.599539 21.234447
22.967155 10.096544 21.257772
18.719484 10.101054999999999 20.431070000000002
28.303617 7.605248 22.270232
25.282021 7.599539 19.428485000000002
25.218176 10.096544 19.360657
28.370361 10.101054999999999 22.325429
27.075858 34.081942 16.951698
26.521612 34.087651 12.840934
26.50357 31.590646 12.749548
27.081939000000002 31.586135 17.038095
16.627344 34.081942 19.699227999999998
13.160309 34.087651 21.97634
13.085707 31.590646 22.03212
16.702619 31.586135 19.656389
17.852496 30.313361 9.904226
16.9767 31.425422 11.016287
18.776589 31.405704 10.996569000000001
17.883432 30.180809 12.860774
18.690569 29.155928 11.835892999999999
17.031783 29.1741 11.854064999999999
23.290791000000002 18.763887 31.578177
23.307151 16.963858000000002 31.578177
24.857843 17.87804 31.578177
24.305021999999997 17.043489 29.393853
24.289944000000002 18.702406 29.393853
22.860819 17.85989 29.393853
17.809076 9.905344 11.372710999999999
16.99978 11.042317 10.235738
18.79693 10.969421 10.308634
17.923448999999998 12.859744 11.507411
18.669299 11.811904 12.555252
17.013037 11.879086000000001 12.48807
9.981085 18.331574 30.39022
10.684483 16.831294 31.093618
11.251514 18.442917 31.660649
12.789940999999999 17.441912 30.109975
12.141686 18.824576999999998 29.46172
11.619107 17.339297000000002 28.939142
17.206936 31.578177 18.670052
18.893506 31.578177 18.04088
17.505342 31.578177 16.894854
18.478383 29.393853 17.129967999999998
16.924032 29.393853 17.709817
18.203371 29.393853 18.766
24.397026 10.028476999999999 30.437612
24.277148 11.298517 31.707653
22.781612 10.590087 30.999223
23.28551 12.746264 30.066298
23.39599 11.575788 28.895823
24.774283999999998 12.228681 29.548716
31.578177 23.112368999999997 23.056118
31.578177 24.832032 23.588224
31.578177 23.511384 24.811442
29.393853 24.469455999999997 24.521297999999998
29.393853 22.884606 24.030905999999998
29.393853 24.101723 22.903582
10.109013000000001 17.323689 24.703582
10.109013000000001 18.907469 23.848004
10.109013000000001 17.374626 22.904199000000002
12.293337000000001 18.370783 23.002986
12.293337000000001 16.911163000000002 23.791492
12.293337000000001 18.323839 24.661306999999997
10.005372 30.414507 17.342204
10.633507999999999 31.042642999999998 18.907856
11.278202 31.687337 17.355724
12.767558 30.087592 18.353718999999998
12.188664 29.508699 16.910806
11.594511 28.914546 18.34126
10.109013000000001 22.916596000000002 18.384854
10.109013000000001 24.716688 18.391619
10.109013000000001 23.822501 16.829312
12.293337000000001 24.649882 17.392808
12.293337000000001 22.990908 17.386573
12.293337000000001 23.814995999999997 18.826404
26.78799 20.844147 34.18719
20.838449999999998 14.891303 34.18719
26.799227 20.843599 7.5
26.798951 14.891853 7.5
7.5 14.892881 20.849182
7.5 20.846408 14.888715
34.18719 26.789769 26.797729
34.18719 14.8992 20.844146
20.841178 7.5 20.838508
26.792925999999998 7.5 20.849187
26.798533 34.18719 14.896303
14.893902 34.18719 20.837971
17.868595 29.768595 11.918595
23.818595 17.868595 29.768595
17.868595 11.918595 11.918595
11.918595 17.868595 29.768595
17.868595 29.768595 17.868595
23.818595 11.918595 29.768595
29.768595 23.818595 23.818595
11.918595 17.868595 23.818595
11.918595 29.768595 17.868595
11.918595 23.818595 17.868595
27.386611 19.845864 29.33084
26.199021 21.841586 29.332915
21.852373 14.319572 29.33084
19.833334999999998 15.467074 29.332915
26.106458999999997 19.908191 12.356349999999999
27.482305999999998 21.779106000000002 12.354275
25.850299 14.217334 12.356349999999999
27.738421 15.569469999999999 12.354275
12.356349999999999 15.908108 20.27977
12.354275 13.878777 21.408969
12.356349999999999 19.690138 15.02272
12.354275 21.99793 14.763158
29.33084 26.574745 25.653753
29.332915 27.011453 27.934665
29.33084 14.117566 21.706678999999998
29.332915 15.671202 19.980559
21.983182 12.356349999999999 21.063769
19.703236 12.354275 20.622044
25.947047 12.356349999999999 20.049559000000002
27.640061 12.354275 21.639208
26.640041999999998 29.33084 13.743135
26.948477999999998 29.332915 16.044905
13.922616999999999 29.33084 21.479471
15.864764 29.332915 20.206152
14.893595 14.893595 14.893595
14.893595 14.893595 20.843595
14.893595 14.893595 26.793595
14.893595 20.843595 14.893595
14.893595 20.843595 20.843595
14.893595 20.843595 26.793595
14.893595 26.793595 14.893595
14.893595 26.793595 20.843595
14.893595 26.793595 26.793595
20.843595 14.893595 14.893595
20.843595 14.893595 20.843595
20.843595 14.893595 26.793595
20.843595 20.843595 14.893595
20.843595 20.843595 20.843595
20.843595 20.843595 26.793595
20.843595 26.793595 14.893595
20.843595 26.793595 20.843595
20.843595 26.793595 26.793595
26.793595 14.893595 14.893595
26.793595 14.893595 20.843595
26.793595 14.893595 26.793595
26.793595 20.843595 14.893595
26.793595 20.843595 20.843595
26.793595 20.843595 26.793595
26.793595 26.793595 14.893595
26.793595 26.793595 20.843595
26.793595 26.793595 26.793595
