130_cspbbr3_3\130_cspbbr3_3.xyz
1.0
38.723189000000005 0 0
0 38.723189000000005 0
0 0 38.723189000000005
Br Cs Pb 
108 54 27 
Cartesian
19.2102755 25.449057500000002 10.6369315
25.162285499999996 13.6436185 16.3753995
19.196853499999996 19.2788745 28.482400499999997
22.184855499999998 13.5001835 13.3004405
25.2055195 10.6640265 13.2604085
28.315723499999997 13.5907635 25.0844765
25.4318015 13.5237635 10.6080715
28.1974965 19.445930499999996 13.1593845
19.190962499999998 28.208208499999998 25.2659655
19.5729665 28.2466145 19.248158500000002
28.266526499999998 19.5469175 19.296366499999998
19.2767975 28.367244499999998 13.5517945
19.400395500000002 25.1736565 28.4577205
28.4263805 13.6246265 19.2512295
19.3065725 22.1486545 25.516650499999997
19.269101499999998 25.140842499999998 22.4667855
28.153521499999997 19.401349500000002 25.444925499999997
28.3558205 25.4390895 25.556797500000002
16.2471205 25.422827499999997 19.482318499999998
19.399618500000003 22.5490585 19.5342275
28.2513675 25.1892585 13.5629635
16.436187500000003 25.118720500000002 13.4182845
28.167807500000002 25.454372499999998 19.3320705
19.3714815 22.4931585 13.1875835
16.453905499999998 25.1325815 25.529630499999996
22.502638499999996 25.437838499999998 19.1975305
22.509508500000003 13.5181285 19.463269499999996
28.477563500000002 13.2794095 13.3085765
25.3227725 22.207547499999997 19.2137205
25.561972499999996 25.2414555 16.424516500000003
25.4480145 25.275197499999997 22.468166500000002
22.3871515 25.066387499999998 13.4978055
25.081430499999996 22.227872499999997 13.5135885
25.1470755 25.2751285 10.6012325
25.1788455 22.274102499999998 25.438185499999996
25.1429835 19.485116499999997 28.2412135
22.4168965 25.4946635 25.2977955
22.5187685 19.3262875 25.4887825
25.236278499999997 16.571017499999996 25.3032525
25.0800025 19.297675499999997 22.280030500000002
25.457981500000002 10.6317515 19.3468855
25.1491855 25.4619225 28.439753500000002
25.1545585 16.248655499999998 19.419315499999996
25.513355499999996 19.5579235 16.2894655
25.205256499999997 28.153411499999997 13.5556015
25.306535500000003 28.099697499999998 19.5773205
22.3605375 19.139858500000003 13.2768345
25.5360985 16.481060499999998 13.3848995
25.4965025 19.270996500000003 10.2978215
25.318757499999997 28.1204545 25.0859435
25.5065235 13.3647235 28.4691435
22.067567499999996 13.4475595 25.377253500000002
25.156336500000002 10.5697975 25.138560499999997
25.4877375 13.5028255 22.1290555
22.3771725 19.5739875 19.332890499999998
16.2382275 19.4909945 25.2261945
19.2854635 25.159330499999996 16.271224500000002
19.568997500000002 19.358670500000002 22.2262085
13.3136905 28.1281695 13.5020905
13.4534885 25.3319155 28.0692655
10.5277675 25.509553500000003 25.4422225
13.5687425 22.490036500000002 25.4370355
13.2343465 25.213710499999998 22.217875499999998
10.5171645 25.1538375 19.410836500000002
19.436530499999996 16.2221805 25.247417499999997
13.1897035 25.316984499999997 16.1991415
10.6155275 25.4438035 13.6030125
13.5984725 22.3017575 13.606346499999999
13.5406355 25.510316500000002 10.6020835
13.5124525 19.2202535 28.1501035
10.2304125 19.453149500000002 25.1363525
13.2577575 16.306852499999998 25.137615500000003
13.5100605 19.2832785 22.540037499999997
10.2556025 19.1368205 19.366066500000002
13.4278485 16.2156795 19.5373655
13.245122499999999 13.2313585 10.2694145
13.566473499999999 10.4291405 13.3172275
10.2155005 13.3837305 13.463276500000001
13.5893835 13.2733175 16.4091035
13.3878785 10.3673645 19.5966155
10.6010725 13.2872945 19.246084500000002
13.4562175 28.1028655 19.182165499999996
13.437540499999999 13.4647805 22.147667499999997
10.6600005 13.3376235 25.1462305
13.2928625 13.592444500000001 28.2966015
13.3978525 19.226287499999998 10.1991005
13.2570175 16.2886455 13.2499495
10.2188475 19.2283165 13.4477055
13.225839500000001 19.495797500000002 16.4202265
13.1406565 10.3466885 25.2753265
13.539519499999999 28.2824485 25.4487435
13.4652115 22.135549499999996 19.2164645
19.2075635 19.2142925 10.4401025
16.4054365 19.186722500000002 13.2709655
16.5427155 13.3544765 19.1168435
19.3407785 19.5722295 16.517660499999998
19.2420015 16.5079025 19.5200885
19.1838275 10.2883435 25.2421955
19.5194415 10.6604805 19.3911115
16.5625725 19.1591905 19.3622855
19.107853499999997 13.3066555 16.457525500000003
16.206771500000002 13.5595215 25.223195499999996
16.3074695 13.2366995 13.3283985
19.291022499999997 13.592648500000001 10.2441135
19.428127500000002 13.3218015 28.0907955
19.3754815 16.5246735 13.2469575
19.486239499999996 10.5039085 13.2744125
19.561457499999996 13.451083500000001 22.291546500000003
22.2549565 27.8222685 16.041698500000003
16.2375715 22.394045499999997 16.0173365
22.081712500000002 28.524947500000003 10.5852015
28.5321645 28.266034500000004 16.678098499999997
22.0753925 28.183449500000002 22.074949500000002
22.4212365 28.7247245 28.003029499999997
10.8789885 16.074330500000002 10.4357055
16.612086499999997 10.1874175 10.7017925
16.3198975 16.573485499999997 16.0601505
28.5645485 10.2026295 22.1754385
22.688795499999998 22.2774585 28.139014500000002
27.9847555 16.057781499999997 10.6148685
28.4781585 16.406361500000003 16.9187195
28.0822905 16.1216495 22.0220075
28.258210499999997 16.2500305 27.754568499999998
28.398548499999997 22.0770015 10.7656755
16.838756500000002 22.312816499999997 10.0826635
16.622088499999997 16.760219499999998 22.078159499999998
28.2069015 21.9921375 21.969213500000002
16.601225499999998 16.466088499999998 27.823269500000002
28.227242500000003 22.2622175 28.7183385
28.158978500000003 10.8412885 16.522940499999997
10.8048045 10.7943335 22.0893085
16.4137685 10.7418835 28.498867500000003
10.5795655 16.0404615 16.220541500000003
22.4814395 10.3482125 21.946484499999997
10.3168985 28.688992499999998 21.897814500000003
22.6304965 10.7127025 16.752469499999997
10.0029175 28.2383575 16.7755655
22.895151499999997 10.5634375 28.416773499999998
16.822576499999997 10.5339705 16.6639075
22.684748499999998 16.358431500000002 10.7394535
10.6319725 22.0533395 28.607566499999997
22.554511499999997 10.7943855 10.7320265
22.701975499999996 16.1721335 16.2914265
10.2236275 22.634890499999997 22.0561395
16.4873165 27.9227105 28.2536945
16.711341499999996 28.3989695 22.148368499999997
22.423210499999996 16.269651500000002 21.8835275
10.5572195 22.105563500000002 16.9119005
16.0597385 10.7028245 22.208313499999996
16.6844375 28.026768500000003 16.5989755
22.7301225 16.2162615 28.7030525
10.4847105 22.5629055 9.9951495
22.684633499999997 22.4652825 10.5559325
16.444725499999997 27.746013499999997 10.2082575
9.9578375 16.327113500000003 28.1039215
16.2066515 22.353165499999996 27.960317500000002
22.563024499999997 22.050599499999997 16.3157555
10.1563135 16.8651775 22.5049285
22.724236499999996 22.571824499999998 22.569506499999996
16.5425745 16.622674500000002 10.7517195
16.570524499999998 21.967220499999996 22.243837499999998
28.287718499999997 27.895570499999998 22.394175499999996
13.2707215 13.3998895 13.6051485
25.073305499999996 25.412350500000002 13.466540499999999
13.6795545 25.446422499999997 13.4072595
25.2235175 19.1467595 25.2622785
13.1826165 25.176274499999998 19.4799195
19.547532500000003 19.5071095 25.048528499999996
13.2941805 25.4523365 25.1073095
25.4693525 19.409211499999998 13.2406175
25.249055499999997 13.5739695 25.632242499999997
25.4832375 25.029033499999997 19.3866205
19.3086635 13.1945315 13.174751500000001
19.2255525 13.5264795 19.2263235
25.1800985 13.2102705 13.1750455
19.5277485 13.3154635 25.1913355
19.226586499999996 25.520469499999997 25.1395815
19.4782065 19.588314499999996 13.4959945
19.479088499999996 25.286289500000002 19.141465500000002
19.2059625 19.487762500000002 19.0986585
19.0995865 25.2880605 13.1697005
25.519757499999997 13.3054775 19.1398965
13.638728500000001 19.6081135 25.1946425
25.480321500000002 19.4775845 19.166120499999998
13.6601655 19.210367499999997 13.303098499999999
13.1804795 13.5247055 25.4957585
13.2408325 13.2632685 19.317462499999998
25.235021500000002 25.5267075 25.297262500000002
13.2223535 19.518170499999997 19.5149755
