126_cspbbr3_3\126_cspbbr3_3.xyz
1.0
38.82704 0 0
0 38.82704 0
0 0 38.82704
Br Cs Pb 
108 54 27 
Cartesian
19.455452 28.447989999999997 13.62449
28.550824999999996 19.22226 19.421393000000002
19.263328 28.528594 19.241683000000002
19.346899999999998 28.138595000000002 25.508991
28.314912999999997 19.582310999999997 13.251882
28.42058 13.557056999999999 25.158983
25.21054 10.622992 13.466717
22.660142 13.399527999999998 13.383059999999999
28.251762999999997 13.635914999999999 19.525838
25.327106999999998 13.357828999999999 16.273724
25.518808999999997 13.550182999999999 10.531571999999999
19.589416 25.152918 28.298598
22.357734 25.512480000000004 19.552500000000002
19.435312000000003 25.304693999999998 22.180083000000003
28.34232 19.233694 25.277015
16.390483 25.182170999999997 19.32054
19.42422 22.148518000000003 19.286425
28.297095 25.346908 13.287448999999999
16.569958 25.494978000000003 13.412649
28.500980999999996 25.510057000000003 19.487588000000002
19.57593 22.572018 13.424037
19.451048999999998 25.467449000000002 10.323112
28.290888000000002 25.154356999999997 25.473833
19.567555 19.592975000000003 28.232058000000002
16.295789999999997 25.229953000000002 25.447491
19.239258999999997 22.475634999999997 25.290656
22.487776000000004 13.696632 19.432530999999997
28.109434999999998 13.57756 13.458309999999999
25.27798 22.404257 19.185549
25.186836999999997 25.50374 16.367779
25.231620999999997 25.362157000000003 22.200705
22.276657 25.512912 13.411121999999999
25.333337 22.563555 13.551646
25.562818 25.220421 10.429857
25.165519000000003 22.288323 25.300142
25.502345 19.287062 28.363766
22.175553999999998 19.535213 25.426285999999998
22.560206 25.285781 25.583089
25.413336 16.591330999999997 25.239879000000002
25.226301999999997 19.273428000000003 22.32282
25.507305000000002 10.637542999999999 19.513423000000003
22.247598000000004 19.395875000000004 19.153107
25.589638 16.378194999999998 19.462192
25.556519 19.244284999999998 16.497742000000002
25.421367000000004 28.428018 13.641731
22.495385 19.496729000000002 13.722705999999999
25.345731 28.533862999999997 19.210912999999998
25.194341 16.447 13.606952999999999
25.131089000000003 19.503678 10.566051
25.468310000000002 28.382326999999997 25.522261999999998
25.498295 13.457459 28.174176000000003
22.351705000000003 13.621134999999999 25.543818
25.183452000000003 10.370147999999999 25.22213
25.528547000000003 13.456608999999998 22.238328000000003
25.407047 25.563993000000004 28.255527999999998
16.423811999999998 19.220086000000002 25.261575
19.630865 25.355016 16.522778000000002
19.29584 19.593328999999997 22.582575
13.576542 28.110149 13.618735
13.313728 25.59585 28.355711
10.354731 25.498021 25.227653000000004
13.592853 22.532947 25.513725
13.340994 25.465968000000004 22.527518
10.639088 25.452648000000003 19.230023000000003
13.431053 22.373939 19.593801
19.385851000000002 16.606732 25.165202999999998
10.610289 25.206276000000003 13.463052
13.590886 22.371434999999998 13.329486999999999
13.361592 25.306901000000003 10.660271999999999
13.417529 19.638999 28.265613000000002
10.316034 19.465631000000002 25.274262
13.581373 16.388595000000002 25.614618999999998
13.353416 19.305722000000003 22.54842
10.547875999999999 19.56805 19.27523
13.665462 16.332707 19.375141999999997
13.378112999999999 13.636954999999999 10.451096999999999
13.258695 10.573561999999999 13.412612
10.410518999999999 13.59061 13.25855
13.387227 13.270977 16.607501999999997
13.60257 10.727314 19.526494999999997
10.593361 13.354968999999999 19.273176999999997
13.502207 28.218804999999996 19.643746999999998
13.516255 13.548986999999999 22.176307
10.616966 13.306993 25.274623
13.576872 13.31903 28.563800999999998
13.400526999999999 19.563796000000004 10.71757
13.518459 16.371249999999996 13.627554
10.298421 19.289909 13.379861
13.275926 19.406530000000004 16.583191999999997
13.612732 10.615302 25.440313000000003
13.257204 28.488659 25.478074999999997
13.354902999999998 25.427639 16.300717
19.310105 13.615879 28.515166999999998
19.26625 13.280187999999999 10.516404
16.543095 13.571095999999999 25.468968000000004
16.292071 19.469037 13.57569
19.287042999999997 10.568608 25.474137
19.500962 13.469793999999998 22.201531000000003
19.359354000000003 16.593609999999998 13.702751
19.248123 16.604877000000002 19.309123
16.291275999999996 13.610308 19.246988
16.303559 19.337612 19.307147
19.584555 10.483956 19.276788000000003
19.57474 19.594005000000003 16.272874
19.316602000000003 19.592529 10.381267
19.242683 10.536857999999999 13.417708
16.521172999999997 13.246652 13.378558
19.318215000000002 13.581517 16.571460000000002
22.591638000000003 22.060108999999997 28.371336999999997
10.793683999999999 16.537402999999998 10.676876
22.597918999999997 28.205422 10.877143
28.396982 28.622611999999997 16.210197
22.092288000000003 28.351570000000002 16.038674
28.265434 21.858431000000003 28.380366000000002
16.135592 16.094980999999997 28.201034
28.060603999999998 22.632086 22.836810999999997
22.705329 28.047103999999997 22.290419
16.42382 21.972510999999997 16.307276
10.016865 10.740523999999999 16.390859999999996
28.656807999999998 10.17093 16.617209000000003
10.694973 10.060426999999999 22.193185
28.394905 10.044433999999999 22.180788
16.153571999999997 16.461498999999996 22.631607000000002
28.453175 15.971770999999999 10.585393999999999
28.415467999999997 22.06257 16.869069000000003
16.497549999999997 21.931013 10.634205
28.402537000000002 15.872171999999999 16.636505
28.060662999999998 16.803269 28.729646000000002
28.782348 16.41664 22.717574
16.549042 16.440911999999997 16.982993999999998
22.713324999999998 28.375023 28.521217
16.580958000000003 10.786560999999999 10.679274999999999
10.855855 16.830392000000003 16.460025
22.113793 10.830005 22.174061000000002
22.016675999999997 10.555409 16.571869
10.628392999999999 27.980655999999996 16.461546
16.622002000000002 9.945827999999999 16.492807999999997
22.521219000000002 10.182549 28.792693999999997
10.198756999999999 22.21109 27.888312
22.761301000000003 16.739966000000003 10.165521
22.160728 10.552992 10.201253
10.975437999999999 22.175075999999997 22.537112999999998
22.837061 16.710219000000002 16.572090000000003
16.041272 28.032328 28.461681
16.745845000000003 28.772868000000003 22.417186
10.272736 22.759141999999997 16.107418
22.11952 16.011603 22.639001
16.595954 10.396644 22.791563000000004
16.480252999999998 28.062596999999997 16.734254999999997
10.626954999999999 22.165473 10.755339
21.974955 16.056083 28.153449000000002
16.760145 28.145877 10.807652
22.358404999999998 22.105991000000003 10.756905999999999
10.479246999999999 16.794544000000002 28.710910999999996
16.635095 22.724732000000003 28.20821
22.210649000000004 22.129728 16.648646999999997
10.232146 16.17351 22.298495000000003
16.175823 10.357429 28.617432
15.86087 16.561777999999997 10.624044999999999
21.920752999999998 22.186115 22.160981
16.208824999999997 22.594554000000002 22.775537999999997
28.526294999999998 27.954825999999997 22.509098
13.264866 13.388931 13.562994999999999
25.330939 25.139749000000002 13.390234
13.295836999999999 25.382244999999998 13.304632999999999
25.277219000000002 19.382028 25.580753
13.781561 25.294581 19.455848000000003
19.6051 19.529753999999997 25.20424
13.534497 25.49028 25.630203
25.583402999999997 19.422354 13.51629
25.158907 13.577052 25.521036000000002
13.622084 19.208542 25.228352
19.165584000000003 13.243874 13.523807999999999
19.632868000000002 13.403981 19.163553
25.513513000000003 13.621227 13.61885
19.242182 13.209256 25.175097
19.530428 25.54088 25.28306
19.519273 19.26816 13.616487
19.398828 25.247735 19.666701000000003
19.49102 19.227940000000004 19.188443
19.316882 25.599687000000003 13.603989
25.543047 13.609391 19.173682999999997
25.509577 25.5325 19.178907000000002
25.204444000000002 19.189087 19.391299000000004
13.341405 19.602334 19.176296999999998
13.705446 19.671139000000004 13.531532
25.170592 25.112606999999997 25.395318000000003
13.247238999999999 13.484981 19.660981999999997
13.496499 13.267987999999999 25.593539999999997
