3_train/250_cspbbr3_MA-PhS_3_0.20\250_cspbbr3_MA-PhS_3_0.20.xyz
1.0
44.095282 0 0
0 44.095282 0
0 0 44.095282
Br C Cs H N Pb S 
96 82 44 120 10 27 12 
Cartesian
16.097640999999996 16.097640999999996 13.122640999999998
16.097640999999996 13.122640999999998 16.097640999999996
16.097640999999996 16.097640999999996 19.072640999999997
16.097640999999996 13.122640999999998 22.047641
13.122640999999998 16.097640999999996 22.047641
16.097640999999996 16.097640999999996 25.022640999999997
16.097640999999996 13.122640999999998 27.997640999999998
13.122640999999998 16.097640999999996 27.997640999999998
16.097640999999996 16.097640999999996 30.972641
16.097640999999996 22.047641 13.122640999999998
16.097640999999996 19.072640999999997 16.097640999999996
13.122640999999998 22.047641 16.097640999999996
16.097640999999996 22.047641 19.072640999999997
16.097640999999996 19.072640999999997 22.047641
13.122640999999998 22.047641 22.047641
16.097640999999996 22.047641 25.022640999999997
16.097640999999996 19.072640999999997 27.997640999999998
16.097640999999996 22.047641 30.972641
16.097640999999996 27.997640999999998 13.122640999999998
16.097640999999996 25.022640999999997 16.097640999999996
13.122640999999998 27.997640999999998 16.097640999999996
16.097640999999996 27.997640999999998 19.072640999999997
16.097640999999996 25.022640999999997 22.047641
13.122640999999998 27.997640999999998 22.047641
16.097640999999996 27.997640999999998 25.022640999999997
16.097640999999996 25.022640999999997 27.997640999999998
13.122640999999998 27.997640999999998 27.997640999999998
16.097640999999996 27.997640999999998 30.972641
16.097640999999996 30.972641 16.097640999999996
16.097640999999996 30.972641 22.047641
16.097640999999996 30.972641 27.997640999999998
22.047641 16.097640999999996 13.122640999999998
22.047641 13.122640999999998 16.097640999999996
19.072640999999997 16.097640999999996 16.097640999999996
22.047641 16.097640999999996 19.072640999999997
22.047641 13.122640999999998 22.047641
19.072640999999997 16.097640999999996 22.047641
22.047641 16.097640999999996 25.022640999999997
19.072640999999997 16.097640999999996 27.997640999999998
22.047641 16.097640999999996 30.972641
22.047641 22.047641 13.122640999999998
22.047641 19.072640999999997 16.097640999999996
19.072640999999997 22.047641 16.097640999999996
22.047641 22.047641 19.072640999999997
22.047641 19.072640999999997 22.047641
19.072640999999997 22.047641 22.047641
22.047641 22.047641 25.022640999999997
22.047641 19.072640999999997 27.997640999999998
19.072640999999997 22.047641 27.997640999999998
22.047641 27.997640999999998 13.122640999999998
22.047641 25.022640999999997 16.097640999999996
19.072640999999997 27.997640999999998 16.097640999999996
22.047641 27.997640999999998 19.072640999999997
22.047641 25.022640999999997 22.047641
19.072640999999997 27.997640999999998 22.047641
22.047641 27.997640999999998 25.022640999999997
22.047641 25.022640999999997 27.997640999999998
19.072640999999997 27.997640999999998 27.997640999999998
22.047641 27.997640999999998 30.972641
22.047641 30.972641 22.047641
22.047641 30.972641 27.997640999999998
27.997640999999998 16.097640999999996 13.122640999999998
27.997640999999998 13.122640999999998 16.097640999999996
25.022640999999997 16.097640999999996 16.097640999999996
27.997640999999998 16.097640999999996 19.072640999999997
25.022640999999997 16.097640999999996 22.047641
27.997640999999998 16.097640999999996 25.022640999999997
27.997640999999998 13.122640999999998 27.997640999999998
25.022640999999997 16.097640999999996 27.997640999999998
27.997640999999998 19.072640999999997 16.097640999999996
25.022640999999997 22.047641 16.097640999999996
27.997640999999998 22.047641 19.072640999999997
27.997640999999998 19.072640999999997 22.047641
25.022640999999997 22.047641 22.047641
27.997640999999998 22.047641 25.022640999999997
27.997640999999998 19.072640999999997 27.997640999999998
25.022640999999997 22.047641 27.997640999999998
27.997640999999998 22.047641 30.972641
27.997640999999998 25.022640999999997 16.097640999999996
25.022640999999997 27.997640999999998 16.097640999999996
27.997640999999998 27.997640999999998 19.072640999999997
27.997640999999998 25.022640999999997 22.047641
25.022640999999997 27.997640999999998 22.047641
27.997640999999998 27.997640999999998 25.022640999999997
27.997640999999998 25.022640999999997 27.997640999999998
25.022640999999997 27.997640999999998 27.997640999999998
27.997640999999998 27.997640999999998 30.972641
27.997640999999998 30.972641 16.097640999999996
27.997640999999998 30.972641 27.997640999999998
30.972641 16.097640999999996 16.097640999999996
30.972641 16.097640999999996 22.047641
30.972641 22.047641 16.097640999999996
30.972641 22.047641 22.047641
30.972641 27.997640999999998 16.097640999999996
30.972641 27.997640999999998 22.047641
30.972641 27.997640999999998 27.997640999999998
23.097388 21.434610999999997 34.804179
23.106505 21.438474 33.416140999999996
22.047641 22.047641 32.684892
20.988951 22.644043999999997 34.804672
22.040599999999998 22.034558999999998 35.503874999999994
20.987395999999997 22.653948999999997 33.416608
29.084498 15.553108999999997 34.804179
29.093349 15.557547999999997 33.416140999999996
27.997640999999998 16.097640999999996 32.684892
26.902924 16.625007999999998 34.804672
27.991452 16.084134999999996 35.503874999999994
26.900738 16.634793 33.416608
28.657968 26.976983 9.291102999999998
28.654524999999996 26.967699 10.679140999999998
27.997640999999998 27.997640999999998 11.410389999999998
27.353515999999996 29.027991999999998 9.290609999999997
28.010387999999995 28.005271999999998 8.591406999999997
27.343549999999997 29.029093 10.678673999999997
27.764706 23.240752999999998 9.291102999999998
27.771357 23.248088 10.679140999999998
27.997640999999998 22.047641 11.410389999999998
28.211930999999996 20.851563999999996 9.290609999999997
27.982969999999998 22.045303 8.591406999999997
28.220770999999996 20.846832 10.678673999999997
9.291102999999998 23.09866 28.608487
10.679140999999998 23.107768999999998 28.604604999999996
11.410389999999998 22.047641 27.997640999999998
9.290609999999997 20.987713 27.403440999999997
8.591406999999997 22.040626999999997 28.010737
10.678673999999997 20.986137999999997 27.393537999999996
9.291102999999998 17.301979 16.262998999999997
10.679140999999998 17.308927999999998 16.255944999999997
11.410389999999998 16.097640999999996 16.097640999999996
9.290609999999997 14.891391999999998 15.951065999999997
8.591406999999997 16.096133 16.112420999999998
10.678673999999997 14.886169999999998 15.942505999999998
34.804179 17.294271 27.783514
33.416140999999996 17.301501 27.79028
32.684892 16.097640999999996 27.997640999999998
34.804672 14.898338999999998 28.193077999999996
35.503874999999994 16.095533999999997 27.982934999999998
33.416608 14.893468999999998 28.201843
34.804179 20.868488 28.293231
33.416140999999996 20.860812 28.286976
32.684892 22.047641 27.997640999999998
34.804672 23.230738999999996 27.720513999999998
35.503874999999994 22.050749999999997 28.012168
33.416608 23.234997999999997 27.711435999999996
28.294276 9.291102999999998 23.226530999999998
28.288028 10.679140999999998 23.234213
27.997640999999998 11.410389999999998 22.047641
27.719464999999996 9.290609999999997 20.864789
28.012165999999997 8.591406999999997 22.044518999999998
27.710383999999998 10.678673999999997 20.860539
21.501354999999997 9.291102999999998 29.083617999999998
21.491605 10.679140999999998 29.085345
22.047641 11.410389999999998 27.997640999999998
22.610485 9.290609999999997 26.920734999999997
22.060672999999998 8.591406999999997 28.004775
22.606391999999996 10.678673999999997 26.911580999999998
23.214658999999997 34.804179 15.757281999999998
23.218124999999997 33.416140999999996 15.748006999999998
22.047641 32.684892 16.097640999999996
20.886542 34.804672 16.455928
22.052294 35.503874999999994 16.111749999999997
20.878282 33.416608 16.450243999999998
26.790955999999998 34.804179 21.900384
26.784112999999998 33.416140999999996 21.907541
27.997640999999998 32.684892 22.047641
29.205955 34.804672 22.176088999999997
27.998927 35.503874999999994 22.032839999999997
29.211305 33.416608 22.184569
32.016091 32.016091 19.072640999999997
32.016091 19.072640999999997 12.079190999999998
12.079190999999998 12.079190999999998 25.022640999999997
19.072640999999997 11.64698 25.022640999999997
12.079190999999998 32.016091 19.072640999999997
32.016091 25.022640999999997 32.016091
19.072640999999997 19.072640999999997 32.448302
32.016091 19.072640999999997 32.016091
11.64698 19.072640999999997 19.072640999999997
25.022640999999997 32.016091 32.016091
13.122640999999998 13.122640999999998 19.072640999999997
13.122640999999998 19.072640999999997 13.122640999999998
13.122640999999998 19.072640999999997 25.022640999999997
13.122640999999998 19.072640999999997 30.972641
13.122640999999998 25.022640999999997 13.122640999999998
13.122640999999998 25.022640999999997 19.072640999999997
13.122640999999998 25.022640999999997 30.972641
19.072640999999997 13.122640999999998 13.122640999999998
19.072640999999997 13.122640999999998 19.072640999999997
19.072640999999997 13.122640999999998 30.972641
19.072640999999997 19.072640999999997 13.122640999999998
19.072640999999997 19.072640999999997 19.072640999999997
19.072640999999997 19.072640999999997 25.022640999999997
19.072640999999997 25.022640999999997 13.122640999999998
19.072640999999997 25.022640999999997 19.072640999999997
19.072640999999997 25.022640999999997 25.022640999999997
19.072640999999997 25.022640999999997 30.972641
19.072640999999997 30.972641 13.122640999999998
19.072640999999997 30.972641 19.072640999999997
19.072640999999997 30.972641 25.022640999999997
19.072640999999997 30.972641 30.972641
25.022640999999997 13.122640999999998 13.122640999999998
25.022640999999997 13.122640999999998 19.072640999999997
25.022640999999997 13.122640999999998 25.022640999999997
25.022640999999997 13.122640999999998 30.972641
25.022640999999997 19.072640999999997 13.122640999999998
25.022640999999997 19.072640999999997 19.072640999999997
25.022640999999997 19.072640999999997 25.022640999999997
25.022640999999997 19.072640999999997 30.972641
25.022640999999997 25.022640999999997 13.122640999999998
25.022640999999997 25.022640999999997 19.072640999999997
25.022640999999997 25.022640999999997 25.022640999999997
25.022640999999997 25.022640999999997 30.972641
25.022640999999997 30.972641 13.122640999999998
25.022640999999997 30.972641 19.072640999999997
25.022640999999997 30.972641 25.022640999999997
30.972641 13.122640999999998 19.072640999999997
30.972641 13.122640999999998 25.022640999999997
30.972641 19.072640999999997 19.072640999999997
30.972641 19.072640999999997 25.022640999999997
30.972641 25.022640999999997 13.122640999999998
30.972641 25.022640999999997 19.072640999999997
30.972641 25.022640999999997 25.022640999999997
30.972641 30.972641 25.022640999999997
20.16924 23.111620999999996 35.353637
22.036865 22.027146999999996 36.595282
23.914858 20.962698999999997 35.352734999999996
23.922922999999997 20.975257 32.85907
20.175288 23.124889999999997 32.859825
26.054947 17.039119999999997 35.353637
27.988198999999998 16.076499 36.595282
29.930517 15.134526999999999 35.352734999999996
29.937761 15.147575999999997 32.85907
26.060132 17.052749 32.859825
26.848995 29.825497 8.741644999999998
28.017622 28.009342 7.499999999999998
29.166715999999997 26.181915 8.742546999999998
29.154539999999997 26.173284999999996 11.236211999999998
26.836015999999997 29.818848999999997 11.235456999999998
28.383324999999996 19.923567 8.741644999999998
27.974740999999998 22.044219 7.499999999999998
27.58848 24.168063 8.742546999999998
27.602994 24.171539 11.236211999999998
28.397845999999998 19.924905 11.235456999999998
8.741644999999998 20.167032 26.937569
7.499999999999998 22.036906999999996 28.018157999999996
8.742546999999998 23.917109999999997 29.078698
11.236211999999998 23.925148999999998 29.066122999999997
11.235456999999998 20.173052 26.924288
8.741644999999998 13.955213999999998 15.832216999999998
7.499999999999998 16.095513999999998 16.120697999999997
8.742546999999998 18.237744 16.386709999999997
11.236211999999998 18.240396999999998 16.372023
11.235456999999998 13.955731999999998 15.817643999999998
35.353637 13.967758999999997 28.349845
36.595282 16.094578999999996 27.97469
35.352734999999996 18.224239999999998 27.621906
32.85907 18.227487999999997 27.636473
32.859825 13.968868999999998 28.364385
35.353637 24.148394999999997 27.500373
36.595282 22.052266999999997 28.020329
35.352734999999996 19.951773999999997 28.518159999999998
32.85907 19.947536 28.503849999999996
32.859825 24.146292 27.485942999999995
27.498510999999997 8.741644999999998 19.947328
28.020324999999996 7.499999999999998 22.042993999999997
28.520017999999997 8.742546999999998 24.143046
28.505710999999998 11.236211999999998 24.147297
27.484083 11.235456999999998 19.949444
23.043117999999996 8.741644999999998 26.082055
22.067843 7.499999999999998 28.008954999999997
21.072961999999997 8.742546999999998 29.924712
21.059357999999996 11.236211999999998 29.918574999999997
23.030818 11.235456999999998 26.074223
19.983328 35.353637 16.729349999999997
22.055104999999998 36.595282 16.11956
24.119477999999997 35.352734999999996 15.488468999999998
24.115909 32.85907 15.473976999999998
19.977856 32.859825 16.715832999999996
30.143811999999997 35.353637 22.280867999999998
27.999422 36.595282 22.024554999999996
25.853439999999996 35.352734999999996 21.790736
25.851007 32.85907 21.805460999999998
30.143511999999998 32.859825 22.295447999999997
32.450198 32.054218999999996 20.073503
32.766114 31.738303 18.329722999999998
31.540312999999998 32.964104 18.814697
30.52519 30.890127 18.150240999999998
30.234039999999997 31.181275999999997 19.757317999999998
31.363744999999998 30.051571999999997 19.310364
32.61264 18.166935 12.203504999999998
31.517363 19.084056999999998 11.108227999999999
32.626622 19.966929999999998 12.217486999999998
30.375483 19.907344 13.055447999999998
31.384894999999997 19.062119 14.064860999999999
30.362596999999997 18.248458999999997 13.042561999999998
12.041062999999998 11.645083999999997 24.021779
12.356978999999999 11.329167999999997 25.765559
11.131177999999998 12.554968999999998 25.280585
13.205154999999998 13.570091999999999 25.945041
12.914005999999997 13.861241999999997 24.337963999999996
14.043709999999997 12.731536999999998 24.784917999999998
18.562914 11.313058999999999 24.116934999999998
20.111869 11.313058999999999 25.034056999999997
18.543139999999998 11.313058999999999 25.916929999999997
19.542408 13.497383 25.857343999999998
18.114883 13.497383 25.012119
19.560632 13.497383 24.198458999999996
11.135356999999999 31.544491999999998 19.352639999999997
12.368395999999997 32.777530999999996 19.799414
12.025467999999998 32.434602999999996 18.065869
14.039858999999998 31.359893999999997 18.814591999999998
12.903483999999999 30.223519 18.402843999999998
13.219527999999997 30.539562999999998 20.000487
31.891776999999998 24.116934999999998 32.61264
32.987054 25.034056999999997 31.517363
31.877795 25.916929999999997 32.626622
31.039834 25.857343999999998 30.375483
30.030420999999997 25.012119 31.384894999999997
31.052719999999997 24.198458999999996 30.362596999999997
18.562914 18.166935 32.782223
20.111869 19.084056999999998 32.782223
18.543139999999998 19.966929999999998 32.782223
19.542408 19.907344 30.597898999999998
18.114883 19.062119 30.597898999999998
19.560632 18.248458999999997 30.597898999999998
31.891776999999998 18.166935 32.61264
32.987054 19.084056999999998 31.517363
31.877795 19.966929999999998 32.626622
31.039834 19.907344 30.375483
30.030420999999997 19.062119 31.384894999999997
31.052719999999997 18.248458999999997 30.362596999999997
11.313058999999999 18.166935 18.562914
11.313058999999999 19.084056999999998 20.111869
11.313058999999999 19.966929999999998 18.543139999999998
13.497383 19.907344 19.542408
13.497383 19.062119 18.114883
13.497383 18.248458999999997 19.560632
24.512914 31.611777999999997 32.892639
26.061868999999998 32.260281 32.244136
24.49314 32.884567 31.619850999999997
25.492407999999998 31.297883 30.117434
24.064883 30.700218 30.715097999999998
25.510631999999998 30.124874 31.290442999999996
30.972641 30.972641 19.072640999999997
30.972641 19.072640999999997 13.122640999999998
13.122640999999998 13.122640999999998 25.022640999999997
19.072640999999997 13.122640999999998 25.022640999999997
13.122640999999998 30.972641 19.072640999999997
30.972641 25.022640999999997 30.972641
19.072640999999997 19.072640999999997 30.972641
30.972641 19.072640999999997 30.972641
13.122640999999998 19.072640999999997 19.072640999999997
25.022640999999997 30.972641 30.972641
16.097640999999996 16.097640999999996 16.097640999999996
16.097640999999996 16.097640999999996 22.047641
16.097640999999996 16.097640999999996 27.997640999999998
16.097640999999996 22.047641 16.097640999999996
16.097640999999996 22.047641 22.047641
16.097640999999996 22.047641 27.997640999999998
16.097640999999996 27.997640999999998 16.097640999999996
16.097640999999996 27.997640999999998 22.047641
16.097640999999996 27.997640999999998 27.997640999999998
22.047641 16.097640999999996 16.097640999999996
22.047641 16.097640999999996 22.047641
22.047641 16.097640999999996 27.997640999999998
22.047641 22.047641 16.097640999999996
22.047641 22.047641 22.047641
22.047641 22.047641 27.997640999999998
22.047641 27.997640999999998 16.097640999999996
22.047641 27.997640999999998 22.047641
22.047641 27.997640999999998 27.997640999999998
27.997640999999998 16.097640999999996 16.097640999999996
27.997640999999998 16.097640999999996 22.047641
27.997640999999998 16.097640999999996 27.997640999999998
27.997640999999998 22.047641 16.097640999999996
27.997640999999998 22.047641 22.047641
27.997640999999998 22.047641 27.997640999999998
27.997640999999998 27.997640999999998 16.097640999999996
27.997640999999998 27.997640999999998 22.047641
27.997640999999998 27.997640999999998 27.997640999999998
22.047641 22.047641 30.972641
27.997640999999998 16.097640999999996 30.972641
27.997640999999998 27.997640999999998 13.122640999999998
27.997640999999998 22.047641 13.122640999999998
13.122640999999998 22.047641 27.997640999999998
13.122640999999998 16.097640999999996 16.097640999999996
30.972641 16.097640999999996 27.997640999999998
30.972641 22.047641 27.997640999999998
27.997640999999998 13.122640999999998 22.047641
22.047641 13.122640999999998 27.997640999999998
22.047641 30.972641 16.097640999999996
27.997640999999998 30.972641 22.047641
