118_cspbbr3_methylammonium_5_0.40\118_cspbbr3_methylammonium_5_0.40.xyz
1.0
53.808541999999996 0 0
0 53.808541999999996 0
0 0 53.808541999999996
Br C Cs H N Pb 
450 55 145 330 55 125 
Cartesian
23.875748999999995 38.96634 15.154495999999998
26.943769 39.05743299999999 12.116550999999998
26.746878 38.83932 18.188672999999998
29.865927999999997 27.137109999999996 20.844180999999995
26.844233 35.61277799999999 20.767839999999996
32.817453 24.075747999999997 20.76523
33.07702 27.058171999999995 23.917768
32.639466 24.065428999999998 26.871748999999998
27.099171 35.986093 14.978851999999998
29.715583 27.039478 26.773937
32.99104 27.053471 35.99106499999999
32.79385 23.849014999999998 33.011812
23.748434999999997 32.982961 20.824637999999997
26.819366999999996 32.95235099999999 24.149117999999998
29.797161999999997 32.710646999999994 21.06545
26.716388999999996 29.958571 26.932449
32.836096999999995 29.704613 20.803231999999998
32.678944 32.901433 17.950276
24.044836 32.939493999999996 26.792143999999997
26.952319 33.01083 29.773763999999996
29.764259999999997 32.983762999999996 14.884913999999998
32.773292999999995 30.06131 14.972138999999999
32.947281 32.728646 11.923529999999998
26.909719999999997 29.818581 33.04504299999999
23.796606999999998 33.043801 32.814059
33.01459 27.036219 41.59867
29.886805999999996 27.037951999999997 38.666409
33.01482299999999 23.923372999999998 38.587340999999995
27.025083999999996 32.988862 35.925635
26.790601 29.737268999999998 38.931882
23.813606999999998 32.739079 38.962614
26.991206 32.685722 41.56075799999999
29.999039999999997 26.872382999999996 32.691933
32.995593 27.056120999999997 29.785687999999997
33.003628 26.884397999999997 17.837557999999998
32.919663 15.067387999999998 18.188912
30.122566 26.959381999999998 15.071637999999998
27.090569999999996 38.99665399999999 41.79978199999999
32.743823 20.853830999999996 12.254863999999998
27.121599 41.89823299999999 14.909076999999998
32.993194 14.944714999999999 42.005247
27.148850999999997 41.688660999999996 20.917000999999996
29.66624 15.038377999999998 38.695233
26.821344999999997 41.93838199999999 27.024478999999996
32.928314 11.887213999999998 39.026628
32.950584 15.130670999999998 36.049959
26.824120999999998 41.60929399999999 32.863727
32.80242199999999 18.145249999999997 14.839587999999997
29.749204 15.151423999999999 32.841508
32.955252 12.198094999999999 32.917897999999994
33.009161 14.976274999999998 29.783599999999996
33.13579299999999 14.979174999999998 11.955573999999999
30.112554 14.980802999999998 26.758048
32.737198 11.876707999999997 27.068846999999998
32.714563 11.949842999999998 15.091931999999998
32.729951 15.030855999999998 23.751859999999997
29.757920999999996 15.193748999999997 15.060154999999998
29.858320999999997 14.847483999999998 20.817157999999996
32.777964999999995 11.810946999999997 20.906941999999997
26.885099 41.657962 38.96010299999999
24.097768999999996 39.01864499999999 21.021145999999998
29.76054 20.93707 14.862374999999998
32.877356999999996 21.111169 18.066459999999996
33.057719999999996 23.973888 14.943434999999997
26.688734999999998 38.700732 24.093575999999995
32.651748999999995 27.048379999999998 11.934606999999998
26.722287999999995 35.723646 26.84755
24.176921999999998 38.820166 26.771608999999998
32.785853 20.959504999999996 41.979067
30.061314999999997 21.051737 38.813660999999996
32.981369 18.024054999999997 38.67156899999999
32.672900999999996 21.062776999999997 35.629402
26.941326999999998 38.92188999999999 29.727843999999997
24.014850999999997 38.637570999999994 38.819323999999995
29.933165 20.807667 32.659881999999996
33.039805 17.836405 32.914401999999995
32.984384999999996 21.176906999999996 29.893071
23.980052999999998 38.96236499999999 32.6572
29.697157999999998 21.117614999999997 26.963435
32.994938 18.140942999999996 26.953935999999995
32.808113 20.848418 23.744795999999997
26.881925999999996 38.844448 36.012198999999995
26.718965999999998 35.92836799999999 38.826544999999996
29.720345 20.758923999999997 20.933944
32.77422 17.918844 21.214699999999997
27.039082999999998 35.700445 32.855935
32.956329 33.029041 23.907797999999996
30.050955 38.75517599999999 38.841032
30.001326999999996 32.783974 27.031928999999998
38.73619699999999 35.652677 32.84039799999999
38.652778 38.63743199999999 29.949426
35.583927 38.86175299999999 26.981377
38.603273 35.877264 26.717066
38.66782499999999 38.61390899999999 23.947366
35.830849 38.921206 20.748274
38.960730999999996 35.835190999999995 20.788504
38.647785 38.81155799999999 17.740336
35.770219 38.57911999999999 14.990713999999997
38.598398 35.86295 15.049923999999997
38.85563499999999 38.574623 12.162504999999998
38.69087499999999 32.825832 41.576549
35.84255999999999 32.702321999999995 39.009902999999994
38.940811 29.983219 38.950362999999996
38.65318499999999 32.836276999999995 36.070792
36.00968399999999 32.879322 32.922743999999994
38.825565999999995 29.710278999999996 33.012506
38.67826199999999 26.782650999999998 35.77445
38.81258 23.752582999999998 38.908687
35.917266 27.153646 38.66295099999999
38.68650199999999 26.757832999999998 41.819491
38.64446199999999 32.69186 11.843667999999997
39.028204 29.983603 14.964712999999998
36.05540599999999 38.75371199999999 32.802780999999996
35.748903999999996 32.998391 15.083754999999998
38.67974099999999 29.749192999999998 21.109506
35.97725299999999 32.901399 20.780357
38.668881999999996 32.722032 23.982331
38.939638 29.698479999999996 27.056803
35.993247999999994 32.76565599999999 26.736096999999997
38.664963 32.668484 30.011463999999997
38.792913 33.025293 17.809320999999997
35.69015499999999 26.910082 33.02615899999999
38.874376 38.666753 35.997693999999996
35.749774 38.54473399999999 38.70503699999999
41.92862099999999 38.651308 39.01137399999999
41.945307 38.92226599999999 32.874759999999995
41.84366399999999 38.58894699999999 26.957556
41.500564999999995 38.84577999999999 20.994444999999995
41.964342 38.98137199999999 14.870570999999998
41.584272999999996 32.957483999999994 38.716792
41.68528599999999 32.786998 32.664210999999995
41.655328999999995 33.042575 26.730954999999998
41.813727 32.701767 20.744631
41.620233 32.906458 14.820349999999998
41.988258 26.822847 38.807508
41.564442 27.044122999999995 32.973119999999994
41.96590599999999 26.804602 26.944462999999995
41.62266799999999 26.957945999999996 21.073886999999996
41.80043099999999 26.640540999999995 15.083338999999999
41.547251 20.961883999999998 38.724402999999995
41.650544999999994 20.805674999999997 32.966586
38.62045499999999 38.930621 41.764431
38.598387 41.917226 15.046403999999997
38.914422 42.039638 20.922691999999998
38.980418 41.734218 26.977390999999997
38.66678499999999 41.71377199999999 32.728305999999996
38.897639 41.624836 38.998728
38.617689999999996 35.83941899999999 38.952151
41.583248 14.962956999999998 15.086719999999998
41.704724999999996 15.208176999999997 26.803689
41.493776 15.058706999999998 32.922551
41.674182 15.165980999999999 38.88773499999999
41.78694999999999 21.053786 15.173905999999999
41.894086 20.924056999999998 21.122430999999995
42.01759 20.972239 27.024033999999997
41.708394 15.081214999999998 20.765888999999998
33.004198 29.696212 26.868909999999996
38.952095 23.892974999999996 32.731161
35.735530999999995 27.001184999999996 27.077305999999997
38.999962999999994 15.110002999999997 17.866245999999997
35.805587 14.738825999999998 14.978320999999998
38.622401999999994 12.113691999999999 15.011630999999998
38.734567 14.956339999999997 11.857863999999998
32.756372 41.913561 38.587008
32.973591 41.931191999999996 32.628611
32.729383999999996 41.68477399999999 27.072217
33.027035 41.950571999999994 21.013522999999996
33.121407 41.730211 14.892323999999999
32.970738999999995 38.938923 41.695516999999995
32.666792 35.94984099999999 38.88407099999999
32.73988799999999 38.66382899999999 35.96119999999999
29.968563999999997 38.967907999999994 32.751374
33.089566 35.72208599999999 32.97184299999999
32.777848 38.847978999999995 29.596791999999997
29.765518999999998 38.727306999999996 27.072321
32.847791 35.902052 26.700096
32.878913 32.63912499999999 29.938999999999997
32.593547 30.024002999999997 32.83150499999999
29.663151999999997 32.997468 32.91986
33.07545399999999 32.983581 35.929253
32.958358 30.009925999999997 38.91517399999999
29.979069 32.678461999999996 38.76084499999999
38.54984499999999 11.961664999999998 20.96916
33.013656 32.796948 41.687636
33.001262999999994 35.94353799999999 14.945301999999998
29.807468999999998 38.622395 14.943296999999998
32.634714 38.920705999999996 18.056503999999997
33.100438 35.93626599999999 20.858189
30.006394999999998 38.860922 21.155534999999997
33.041025 38.890930999999995 24.023901
32.846351999999996 38.90834699999999 11.769082999999998
38.88232699999999 27.077592999999997 29.805514
35.68508 15.094693999999997 20.881697999999997
38.949865 12.157219999999997 26.741387
38.924058 23.928162999999998 26.723190999999996
38.927458 26.763482999999997 23.799868999999997
35.919923 27.037012999999998 21.176287999999996
38.96747599999999 23.998476999999998 20.839858999999997
38.71336699999999 26.811448 17.837773999999996
35.65634 26.839882 15.174869999999999
38.90141199999999 23.891859999999998 15.154521999999998
38.826826 27.108755999999996 11.935864999999998
38.642601 21.197242 41.836287999999996
35.680964 20.957886999999996 38.908029
38.872282999999996 18.132465 38.910844
38.766994 21.160113999999997 35.649902999999995
35.878068 20.768855 32.934753
38.576813 18.09217 32.953939
38.699518 20.826385999999996 30.030074
35.789164 20.693778 26.999045
38.85414 18.162838999999998 26.746051999999995
35.936904999999996 14.833968999999998 27.028035999999997
38.60709799999999 15.104389999999999 29.811109
38.742766 12.130687999999997 33.033319999999996
35.680747999999994 14.845350999999997 32.875917
38.962469999999996 15.194345999999998 35.708518
38.80650399999999 12.079706999999997 38.56768199999999
38.588443999999996 14.984337999999997 23.754674999999995
35.775778 14.889398999999997 38.648045999999994
38.880656 20.919186999999997 11.841136999999998
38.75020699999999 17.885347999999997 14.750674999999998
35.924712 21.202468999999997 15.049643999999997
38.673738 21.063726 17.826287999999998
38.731624999999994 18.141151999999998 20.747013999999997
35.86869999999999 21.112106999999998 20.807779
38.873881 15.132225999999998 41.606714999999994
26.739628 29.959346999999998 21.016679999999997
38.66925499999999 20.859639999999995 24.043469999999996
15.164816999999998 21.147299 41.92709099999999
14.866449999999997 26.935392999999998 17.851971999999996
15.138853999999998 23.768480999999998 21.049061999999996
18.133792999999997 27.097883999999997 27.036300999999998
21.076983 24.063121 26.833531999999998
20.7766 26.771932999999997 23.761628999999996
11.947308999999997 26.674165999999996 21.113663
17.821444 26.775764 20.99507
20.771883999999996 24.137729999999998 20.935214999999996
20.728906999999996 26.73456 18.005739999999996
14.815661999999998 26.840816999999998 23.705175999999998
17.960865999999996 26.928431 15.254234999999998
20.865841 23.754524999999997 15.050435999999998
20.935216999999998 27.077192 12.143906999999999
15.153114999999998 23.779063999999998 26.834405999999998
12.102175999999998 27.173875 26.962132
21.019443 20.775719 41.940032
17.968002 20.933798 38.57588299999999
20.838078 18.018417 38.671279999999996
15.016546999999997 27.062388 29.652934
21.016333 20.817470999999998 36.02868599999999
18.033132 20.795294 32.67816
15.019399999999997 23.774293999999998 33.052565
20.816414999999996 17.833603999999998 32.696417999999994
11.934087999999997 26.778010999999996 32.716577
20.936579999999996 20.688802 29.956411999999997
14.902620999999998 27.036337 35.96701999999999
15.043925999999997 23.734199999999998 38.834705
20.742741 26.852645 29.945967999999997
17.840798999999997 21.076976999999996 26.957476999999997
21.035408 24.206319999999998 32.815921
11.911303999999998 26.898298 14.821749999999998
21.019917999999997 33.0768 41.788804
17.822878999999997 33.009389999999996 38.618499
20.966244 29.676236999999997 39.002499
20.812713999999996 33.020842 35.71637799999999
11.891720999999999 20.786582999999997 32.85525199999999
15.042121999999997 35.74635699999999 14.829173999999998
17.913869999999996 32.904044999999996 32.569496
21.025384 29.678085999999997 32.741375
20.701905999999997 32.842403 29.739752999999997
14.956396999999997 21.126576999999997 35.964855
17.808479 32.737415999999996 27.058331
21.168309999999998 29.893724999999996 26.950816999999997
21.020175999999996 33.061431999999996 24.046193999999996
14.868145999999998 17.974210999999997 38.93459299999999
12.056665999999998 20.820978 38.659746
17.924749999999996 33.124246 21.07305
20.829041 29.999577999999996 20.831985
20.882254 32.857152 17.798123999999998
17.867380999999998 32.685548999999995 14.912143999999998
21.140731 29.816931999999998 14.971166999999998
21.140526999999995 32.949568 11.917442999999999
15.130484999999998 26.778623999999997 11.957593999999999
21.03898 26.702621999999998 41.700124
18.152243 26.997253999999998 38.583551
21.044446999999998 23.894719 38.615943
14.850747999999998 23.834443999999998 15.146612999999999
20.888754 27.074821999999998 35.786508
18.118868 26.866066 32.973974
14.907701999999997 17.869248 32.725584999999995
20.931279999999997 17.807145 27.030355999999998
11.846804999999998 26.795204 38.85217899999999
15.140620999999998 41.648264 32.870129999999996
15.136115999999998 29.899167 27.036493999999998
15.069049999999997 41.93694699999999 27.057641999999998
14.850647999999998 41.66116699999999 20.95945
11.919471999999997 32.711473 26.822191
15.109153999999998 32.98466 29.945968999999998
15.243496999999998 41.66530899999999 15.067097999999998
15.055525999999997 38.600094999999996 41.80962799999999
15.238108999999998 29.829549999999998 32.983396
12.035655999999998 38.713657 39.039531999999994
12.102018999999999 32.707766 32.994005
14.868968999999998 35.93774599999999 38.674763999999996
14.844815999999998 38.871759 35.915949999999995
15.071237999999997 32.948195999999996 35.64644
12.146005999999998 38.692893 32.772943
15.056604999999998 30.094364999999996 39.001222
14.850574999999997 35.842462 32.970738
14.973919999999998 39.097877 29.879136
11.851030999999997 32.800144 38.636904
11.918947999999999 38.932507 26.839412999999997
14.941841999999998 32.75552999999999 41.639866999999995
15.099313999999998 35.984792999999996 26.875761999999998
14.988729999999997 38.623521 23.842274
12.225282999999997 38.89035899999999 21.033824999999997
14.880788999999998 38.982337 11.930385999999999
14.900424999999998 35.94496099999999 21.07791
14.914857999999999 38.657534999999996 17.833291
15.218199999999998 32.989575 23.800031999999998
20.838945 20.825129999999998 23.697881
15.154780999999998 41.94443 38.848557
14.994245999999997 29.924134999999996 20.774196999999997
18.088390999999998 20.975239999999996 20.787218
21.098697999999995 17.956056999999998 21.131444999999996
20.791532 20.973411 17.89212
17.815979999999996 20.90955 15.209106999999998
20.833319 18.050119 14.851412999999997
20.809016999999997 21.150541 12.116153999999998
14.835153999999998 26.807960999999995 41.675466
20.799787 15.118383999999999 41.92527199999999
18.153131 14.950588999999997 38.98137899999999
21.110090999999997 11.972091999999998 39.008917
21.106548999999998 15.156165999999999 35.818219
14.906859999999998 32.829218 11.788855999999997
14.820809999999998 29.963570999999998 15.105410999999998
18.097315999999996 15.197853999999998 32.85576
21.047026 12.136798999999998 33.020393
20.899735999999997 15.284084999999997 29.891651
11.986272999999997 33.044895 14.810868999999997
18.112458999999998 15.136949999999999 26.752537999999998
21.109047999999998 12.031801999999997 27.037958999999997
20.987616999999997 14.917081999999997 24.103067999999997
17.830216999999998 15.102268999999998 21.083281999999997
21.111651 11.976308999999997 20.866775999999998
20.857263999999997 15.200911999999999 18.152599999999996
17.941156999999997 14.804181999999997 14.963281999999998
20.874214999999996 12.171170999999998 14.828960999999998
20.881414999999997 15.054400999999999 12.223881999999998
14.820976999999997 33.005981 17.941412
12.147094999999998 32.642645 21.023895
14.875002999999998 21.094481 29.805045999999997
12.095223999999998 39.00069599999999 14.868644999999997
20.781167 35.92306699999999 15.121787999999999
12.121111999999998 14.763866999999998 20.979761
23.969849 21.103745999999997 33.095455
26.762864999999998 17.862641999999997 32.979803
26.906751999999997 20.770234 29.871810999999997
24.058317999999996 20.802590999999996 27.027382
26.799431 17.921424 27.104286999999996
26.704068999999997 20.802332999999997 23.906893
15.113091999999998 14.842184999999997 23.924494999999997
15.218752999999998 11.973889999999997 26.792521999999998
24.127509 21.077403999999998 21.106695
12.117916999999998 14.895932999999998 27.021499
27.068161 21.060740999999997 35.865185
26.883613 18.273529999999997 20.967080999999997
24.084481999999998 21.055588999999998 14.873929999999998
14.821918999999998 15.184277999999997 30.010685
27.054909999999996 18.104286 14.880364999999998
26.814218999999998 21.162607999999995 12.026486999999998
26.725650999999996 15.078446999999997 41.599813
20.801636999999996 38.942853 12.076593999999998
23.825224 15.137543999999998 39.00567099999999
26.733176999999998 11.878359999999997 38.859734
27.111074 15.135985999999997 35.675552999999994
12.032247999999997 14.803506999999998 33.001633999999996
23.895692999999998 14.790252999999998 32.89731
26.736085999999997 20.799235 17.916598999999998
26.732122 17.908921999999997 38.703575
24.096501999999997 20.99645 38.71412699999999
26.909719 20.816398999999997 42.037094999999994
27.002281999999997 32.886097 17.711595
23.767718 32.881383 14.887574999999998
26.813254999999998 29.997404 15.115341999999998
27.113027999999996 32.745757999999995 12.169170999999999
26.665915 26.869165999999996 41.630185
24.06016 26.806777999999998 38.65267999999999
26.737169999999995 23.763306999999998 38.918548
26.860261999999995 27.070589 36.01984
15.145800999999999 15.180804999999998 12.092703999999998
23.791516999999995 26.83563 32.991941999999995
26.727589999999996 23.835696 32.982557
27.027129999999996 27.078637999999998 29.73709
14.810125999999997 12.049179999999998 14.869484999999997
11.916356999999998 14.936634999999997 14.791031999999998
23.907643999999998 26.745948 27.001393999999998
27.039886999999997 23.761298 27.007431999999998
26.825460999999997 26.954414999999997 24.197642
23.987512999999996 26.699139 21.065803
26.927348999999996 23.780540999999996 21.084349999999997
26.776858999999998 26.996763999999995 18.083810999999997
14.974520999999998 15.158165999999998 17.819623
24.029898999999997 26.769682 15.113980999999997
26.716492999999996 23.950737999999998 15.110398999999997
27.048698999999996 27.062088999999997 11.898215999999998
15.061877999999998 12.220171999999998 21.109703
26.899656999999998 11.778847999999998 32.956531999999996
26.692985999999998 15.062067999999998 29.770836999999997
15.208209999999998 12.137504999999997 32.751597
20.823393 41.61474199999999 15.149005999999998
20.76557 41.867356 38.89112899999999
21.013029 38.618736 35.833096
21.019668 41.93892199999999 26.733072999999997
14.874526999999997 18.048332 15.203722999999998
20.892118 38.989351 23.920729999999995
21.023806999999998 35.690873999999994 26.759717
12.113803999999998 20.833232 14.775214999999998
21.051432 41.638035 21.027216999999997
15.282268999999998 21.054546999999996 17.931093999999998
15.132115999999998 18.094893 26.963654
17.92821 38.979547 27.087763999999996
24.139124 15.016617999999998 26.908807
15.270111999999997 18.073908 20.919980999999996
21.170022999999997 39.007251999999994 41.812404
21.090226999999995 38.976704 29.744024999999997
18.117818999999997 38.66186499999999 38.911835999999994
21.149485 35.666889999999995 38.804935
12.262293999999997 20.844030999999998 21.037812
20.808610999999996 35.90290999999999 32.724936
17.882778 38.92798599999999 32.959525
15.073202999999998 21.058075999999996 24.170931
15.223613999999998 21.022676999999998 11.914904999999997
20.900387999999996 41.59822899999999 32.825355
18.173007 38.967528 21.088787
26.747694999999997 12.193031999999997 26.912530999999998
17.817628999999997 38.716533 15.055742999999998
27.021243 14.848749999999997 23.959844999999998
15.042440999999998 15.134584999999998 35.95689
24.099525999999997 15.181107999999998 21.084687
11.932993999999997 21.126111999999996 26.715624
27.069022 12.198723999999999 20.912164999999998
26.908310999999998 15.184364999999998 17.945161999999996
14.980805999999998 14.796648999999999 41.70176099999999
14.809209999999998 12.080123999999998 38.822232
20.839326999999997 38.921578 18.108901999999997
11.765260999999997 14.963691999999998 38.87497499999999
26.801605999999996 12.180997999999997 15.023054999999998
26.757535999999998 14.883170999999997 12.036569999999998
24.186048999999997 15.065343999999998 14.905821999999997
20.972008 36.059355 20.864022
43.31199599999999 23.968033 23.855390999999997
10.496018999999997 18.017263999999997 29.912767
10.601116999999999 23.922355999999997 18.05061
29.870288 42.90697999999999 42.887884
23.982644999999998 29.954765 43.24333999999999
11.000665999999997 18.078792999999997 10.990057999999998
23.886394999999997 43.234899999999996 17.920301
42.76346099999999 29.958598 11.015009999999998
29.908129999999996 43.19084199999999 17.929498
42.904112 29.902593999999997 42.870531
23.990052 23.878774999999997 10.617030999999997
17.925199999999997 23.853303999999998 43.238783
10.503370999999998 23.980518999999997 29.816639
29.840383 23.862378999999997 43.186612
18.068828 17.928728999999997 43.249765
35.751542 10.968108999999998 10.940310999999998
35.76209399999999 10.478285999999997 29.897021999999996
35.87360199999999 23.896748 43.180165
29.796688999999997 42.878913 10.951231999999997
10.632271999999997 23.985416999999998 35.816278999999994
35.891082 29.959017 10.547955999999997
42.855614 17.970889999999997 42.75778799999999
17.923364999999997 35.89905499999999 43.296189999999996
35.74199399999999 43.26428399999999 35.875912
43.255990999999995 17.910631 35.77735299999999
23.941336999999997 35.89572799999999 43.294438
17.942912999999997 10.518715999999998 23.992975999999995
42.799503 10.952260999999998 29.781941999999997
10.506771999999998 29.802193 23.931929
29.936303 10.535895999999997 35.87132199999999
29.963783 10.984890999999998 42.76628199999999
18.003698 11.051802999999998 42.849953
10.895532999999999 29.928331999999997 42.819801999999996
42.909881999999996 10.995579999999999 23.894690999999998
17.941003 10.633373999999998 17.917917999999997
43.213509 29.859996 17.893399
17.905848 10.541345999999997 29.944402999999998
35.759489 35.867667 43.193786
43.32872499999999 24.001113 35.793499
10.540082999999997 29.980698999999998 29.854920999999997
18.009065999999997 29.803044999999997 43.265495
43.222206 17.897851999999997 23.885192
29.829220999999997 23.898980999999996 10.607487999999998
35.901241 10.471740999999998 23.932865999999997
17.941663 43.210099 35.78498499999999
23.883060999999998 18.041207999999997 43.198301
43.220776 35.847359999999995 35.899159999999995
35.754834 29.820026999999996 43.26284799999999
23.900725999999995 43.32349699999999 23.993247999999998
42.868274 17.948386999999997 10.903023999999998
11.075507999999997 29.875607999999996 10.968932999999998
10.557983999999998 17.966758999999996 18.083147999999998
10.607139999999998 29.830899999999996 35.857823999999994
42.84597599999999 10.962152999999997 18.063045999999996
10.983421999999997 23.837761999999998 42.77780799999999
11.682410999999998 36.03451299999999 11.773332999999997
41.873192 35.420811 23.928761999999995
42.137699 41.64788 18.309915999999998
35.505741 30.274593999999997 17.682071999999998
41.40109699999999 36.055015999999995 42.12304399999999
35.98244699999999 42.007615 12.281699999999997
35.39386999999999 41.62424899999999 23.858313999999996
36.295987 41.58264 29.677960999999996
41.728196999999994 42.048086 36.13871499999999
35.998802 35.469852 35.513414999999995
41.59643199999999 42.11473699999999 29.902162999999998
11.570651999999997 12.015201999999999 18.098339999999997
12.299874999999998 12.273624999999997 36.007138999999995
11.903935999999998 17.665363 42.06295899999999
36.200068 35.94480399999999 12.401593999999998
41.496309999999994 23.900720999999997 12.361754999999999
42.123132 18.038332999999998 30.117085
41.477155999999994 23.71417 18.319482999999998
35.772099999999995 35.921516 18.355815999999997
12.058042999999998 24.092548999999998 23.442892999999998
35.96755 30.397505999999996 35.654044
41.85910899999999 23.925403999999997 30.254189999999998
42.22845799999999 17.782422999999998 17.989641
11.946656999999998 11.986491999999998 30.300707999999997
41.986605999999995 23.627513999999998 42.251863
41.757311 11.707486999999999 36.307237
41.96450899999999 29.619134 24.119524
12.434497999999998 11.835637999999998 23.95855
36.077839999999995 35.42476599999999 23.845049
35.605762 29.481882999999996 29.486703
42.030124 30.121539 36.049009999999996
11.471485999999999 30.102967 17.949291
36.13463399999999 41.394262 42.136495
12.342481999999999 23.532746999999997 11.952243999999999
35.31061 29.848283 23.664653999999995
41.434285 35.84747899999999 11.906843999999998
35.98046699999999 36.204583 30.321330999999997
11.871063999999997 17.970003 24.315668
12.233089999999997 18.422000999999998 35.87056899999999
24.223164999999998 29.902324999999998 18.302463
12.043170999999997 35.869344 18.466321999999998
24.270529999999997 11.741629999999997 35.56989299999999
29.752961 12.468495999999998 29.538809999999998
23.521745 12.003985999999998 29.94871
23.848165999999996 12.257453999999997 24.217392999999998
29.584127999999996 17.846926999999997 12.272231999999997
30.301253 18.343148999999997 18.008284999999997
23.738858999999998 12.296614999999997 11.598652999999997
17.696440999999997 41.512112 41.432643999999996
30.090442999999997 18.303901999999997 23.805094999999998
17.748483999999998 41.500243 29.697715
29.912739 17.881299 29.468096
18.306198 41.840447999999995 24.174044
18.277085999999997 41.684214999999995 18.279400999999996
29.881598999999998 17.712653999999997 36.087807
18.146901999999997 41.969121 12.349899999999998
30.111452999999997 17.909786999999998 41.475201
18.359851999999997 35.611048 35.455906999999996
29.959404999999997 24.306272999999997 18.307764
18.005727999999998 35.591218999999995 30.286293999999998
29.523408999999997 24.067259999999997 24.231916
17.615964999999996 35.567386 23.770127
29.461916999999996 23.837153999999998 29.876043999999997
17.525740999999996 35.877652 17.765569
30.197560999999997 11.687195999999998 24.001579999999997
30.225105 24.060062 36.006530999999995
23.862192999999998 11.549127999999998 41.626785
24.186567 18.021431999999997 18.305501999999997
35.711597 24.191169 35.40256199999999
23.43713 29.817249999999998 24.229238
23.735623 30.281021999999997 12.293398999999997
23.719098999999996 29.587255 29.622234999999996
24.160301999999998 23.676510999999998 41.493489999999994
24.051772999999997 30.350357 36.159745
24.158213999999997 24.080978999999996 36.203362999999996
23.69456 35.42610599999999 11.643968999999998
24.165281999999998 23.596753999999997 29.555888999999997
23.595727999999998 35.66158299999999 18.350354999999997
24.196626 24.224341 23.927350999999998
23.574071 36.242142 23.940631
23.874163 23.755678 17.608293999999997
23.874216999999998 36.09897599999999 30.380138
24.336615 35.63100999999999 35.555402
24.445387999999998 18.003562 35.925219999999996
24.231326999999997 17.640219 30.178306999999997
23.630457999999997 41.603314999999995 11.690499999999998
24.275573999999995 41.979005 29.508055
24.330871 18.029480999999997 23.739411999999998
24.202074999999997 41.503196 35.742175
24.072037999999996 41.38159499999999 41.51115
29.582186999999998 11.651628999999998 11.912852999999998
29.61987 11.680611999999998 18.078476
17.828277999999997 35.37088399999999 11.923707999999998
23.604765999999998 11.680396999999997 17.742769999999997
18.049615999999997 30.257690999999998 35.59914599999999
17.474154 17.851526 17.917116
18.350661 18.272329999999997 11.658242999999997
35.593244999999996 12.092894999999999 35.48719199999999
18.345036999999998 11.989191999999997 36.13130199999999
35.62052899999999 11.967181999999998 42.31047699999999
35.657735 17.893220999999997 11.653234999999999
35.882054999999994 17.760642999999998 18.307906999999997
35.903054999999995 17.549913999999998 23.780906999999996
17.924656999999996 12.444383999999998 11.650872999999997
11.878095999999998 41.557693 36.124391
35.782416 18.165025999999997 30.340639999999997
12.112415999999998 42.079015 30.114566999999997
35.81801 18.473563 36.047167
12.491354999999999 41.641009 18.310242999999996
12.254589999999999 36.138761 41.807895
35.654652999999996 17.727099999999997 41.50881
35.655625 24.174056999999998 12.383149999999997
29.666522999999998 29.686595999999998 11.632975999999998
35.815951 23.6392 18.243408
12.363759999999997 36.290869 29.975585
36.137939 23.751879 24.245012
12.165384999999997 36.33869 23.771005999999996
35.96898499999999 23.768046 29.320497999999997
18.336385999999997 17.608565999999996 23.884819999999998
18.391343999999997 17.790846 29.758725
12.046354999999998 36.195396 35.841476
29.525018 41.90007399999999 29.844082999999998