136_cspbbr3_4\136_cspbbr3_4.xyz
1.0
44.721482 0 0
0 44.721482 0
0 0 44.721482
Br Cs Pb 
240 112 64 
Cartesian
31.109315000000002 34.125652 31.280766
34.477875999999995 19.422547 25.182352
34.411654 19.501677 19.536580999999998
31.136497 34.41263 25.210772
25.464211999999996 25.454000999999998 10.609718
25.207430000000002 22.363768999999998 13.622694000000001
22.310654999999997 25.489590999999997 13.599891000000001
34.428821 19.322524 13.336744000000001
22.251207 31.428109 13.4908
25.434219 25.186310999999996 16.390833999999998
25.391517 28.081758999999998 13.278307
25.207182000000003 22.497289000000002 19.553545
25.289304 31.099293000000003 10.536819000000001
22.469034999999998 25.283704 19.177695
34.447503999999995 13.303115 31.340966
34.075858999999994 13.344597 25.200871999999997
25.195979 25.456533999999998 22.245255
25.478142 19.137948 34.333225999999996
25.278999 22.611964 25.230629999999998
22.163922 25.227778999999998 25.145187999999997
34.107851999999994 13.604129 19.194387
34.459574 13.344839 13.336736
25.134287 25.521862999999996 28.323621000000003
25.058636999999997 22.262568 31.238543
22.303781 25.188859 31.374555
25.417769999999997 25.607377999999997 34.177336
31.315573999999998 22.164277 31.273173
34.494204999999994 19.265285 31.327227999999998
25.208528 16.216588 31.189770000000003
25.251872 10.654451 13.482460000000001
22.472437999999997 13.250322 13.293324
34.4811 31.171616999999998 31.177827999999998
25.466546 13.522054 16.289555999999997
25.382348999999998 10.405044 19.136502999999998
22.449832999999998 13.294111000000001 19.300604
34.082376999999994 31.325070000000004 25.518500000000003
25.13715 13.442247 22.500107
25.117334 10.390985 25.490623999999997
22.444949 13.424747 25.527327
34.065580999999995 31.260688000000002 19.183712999999997
25.578460999999997 13.542025 28.394213
22.549722000000003 13.610058 31.293407000000002
25.240606 13.532203 34.023934
22.456601999999997 19.232355 31.071471000000003
34.151500999999996 31.33804 13.290771000000001
25.191539999999996 16.290370000000003 13.537883
22.324491000000002 19.563904 13.650526000000001
34.301291 25.173836 31.373635
34.362041 25.488369 25.168186
25.459173 19.282482 16.504464
25.46593 16.233108 19.29468
22.482388 19.589858999999997 19.253431
34.382183999999995 25.442355999999997 19.221696
34.081863 25.357069000000003 13.252539
25.515594999999998 19.377594000000002 22.376297
25.214402999999997 16.553849 25.196927000000002
22.353291999999996 19.524385000000002 25.199365999999998
25.521205000000002 31.334375 16.552037
25.547890000000002 19.502584 28.285733999999998
25.365397 19.276809 10.293325000000001
31.154006000000003 34.346666 19.506327
31.497945 31.373244 34.104771
22.146262 31.24539 19.418328000000002
31.518408 16.376684 13.321118
28.495268000000003 19.468871 13.262555
28.417344999999997 31.483670000000004 19.245075999999997
31.197373 19.278481 16.543643000000003
31.031961000000003 16.426368 19.242424
31.397233999999997 28.420201 19.132334999999998
28.558913000000004 19.293498999999997 19.477016
31.172280999999998 31.417240999999997 16.321996
31.247746 19.227367 22.164400999999998
31.049551 16.283852000000003 25.469428999999998
28.437663 19.360762 25.16981
28.244723 31.101576 13.536553
31.085515 19.421414 28.289666000000004
31.306517999999997 28.527758 13.3716
31.158206999999997 16.188642 31.256504
28.13284 19.274869000000002 31.148738
31.132969000000003 19.210209 34.367421
31.087252 31.400651000000003 10.379240000000001
31.047421 25.176341 10.420362
31.238768999999998 22.162036999999998 13.255726000000001
28.178662000000003 25.372647 13.561149
31.126585 25.497763 16.316513999999998
31.351746 22.516657000000002 19.604238000000002
31.209024 25.226647 34.045722
28.126161000000003 25.385382999999997 19.489061
28.210495 25.229324 31.115858000000003
31.27129 25.451375 22.182972999999997
31.176214 22.122433 25.309879000000002
28.468722999999997 25.203688999999997 25.189977
31.540032000000004 19.295578999999996 10.451665
25.237749 28.316029 19.209117
31.227938 13.627564000000001 34.373121
31.145111999999997 10.552426 31.189326
31.410503 34.12751 13.537517000000001
25.523286999999996 31.249951000000003 22.452156000000002
31.148266 25.343913 28.569913
25.615411 28.367359 25.278413999999998
22.241031 31.424999 25.272928999999998
25.441135000000003 31.154709000000004 28.180301
28.207973000000003 31.117219 31.07121
25.542779000000003 28.235865000000004 31.375292
22.478068 31.129835 31.157566000000003
25.190734999999997 31.135083 34.274479
25.484274999999997 34.076541 13.347393
25.503873999999996 34.268549 19.514305999999998
25.195813 34.097210000000004 25.251527000000003
31.44336 28.175761 31.390822999999997
25.191392 34.403983 31.327707000000004
31.24268 31.529835 28.155973000000003
31.403831000000004 13.624711 10.523695
31.385345 10.646003 13.424554
28.346152000000004 13.585962 13.629131000000001
31.387161 13.582732 16.554492000000003
31.184399 10.621109 19.183369999999996
28.556347000000002 31.347666000000004 25.267097999999997
28.217807 13.449293 19.166882
31.407317 28.281596999999998 25.182479999999998
25.176383 13.350614 10.356327
31.151239000000004 10.597433 25.211559
31.082964000000004 31.424565 22.426028000000002
28.414948000000003 13.281335 25.215519
31.068694999999998 13.414789 28.512480000000004
28.409025 13.488304000000001 31.140078000000003
31.148578999999998 13.364433 22.504289
25.151772 10.268801 31.327179
13.607520000000001 34.452132 25.218474
19.491751 10.530979 13.243174000000002
16.146335999999998 13.350535 13.487295000000001
13.315283 16.479926 25.452157999999997
19.321163 13.644102 16.209999000000003
19.344122 10.441769 19.560025000000003
16.327638999999998 13.408679000000001 19.217433
13.240910000000001 19.407511 22.201864999999998
19.199208 13.312994000000002 22.371598
19.318015000000003 10.388459000000001 25.552404000000003
16.521841000000002 13.591771 25.444496
10.660079 19.439087999999998 19.232104999999997
13.481123 16.233731 19.253369999999997
13.389664000000002 19.105202 16.44419
19.552093999999997 13.619459 28.388932000000004
19.411582000000003 10.291149 31.458613999999997
16.444448 13.616039 31.467032000000003
10.448012 19.637687 13.586242
13.243072 16.483123999999997 13.302873
19.323037 13.231307000000001 34.123024
19.374408000000003 19.587569000000002 10.506532
19.461395000000003 16.298673 13.26526
13.319778000000001 19.362212 10.621749000000001
16.281152 19.637735 13.420102
13.492651 22.519897 25.102769000000002
19.433079999999997 16.313633000000003 19.107833999999997
16.310005 19.400050999999998 19.223242
19.449928999999997 19.528638 22.468257
19.313572 16.251914 25.458799
13.337734000000001 13.544269 34.400372
19.333213 13.609844 10.403499
16.412269000000002 19.598692999999997 25.152611999999998
10.278103 19.288344000000002 25.505452
13.292266 19.468539999999997 28.214605
10.684425000000001 25.282463999999997 25.243079
13.445401 25.479664 28.123227999999997
13.493375 22.200708999999996 31.203982000000003
10.366972 25.474108 31.053221
10.214887000000001 25.289831999999997 19.364662000000003
13.40948 22.134869000000002 19.501146
13.309741 25.352877 34.111638
13.359009 25.551315000000002 16.443068
13.232233 31.451193000000004 10.459341
13.532868 28.402392 13.293885000000001
10.548021 31.429339 13.667594000000001
10.645639000000001 25.425621999999997 13.617272000000002
13.580745 31.134154000000002 16.379371
13.325286 28.410671 19.555003
10.242676000000001 31.347414 19.206076000000003
13.568625 22.476836999999996 13.62655
13.313053 31.390781000000004 22.167808
13.531097 28.294800000000002 25.121760000000002
13.575805 25.188538 10.465901
10.27012 31.407029 25.373841
13.583296 31.199696000000003 28.181646999999998
13.410063000000001 28.233133000000002 31.446123999999998
10.503277 31.126978 31.126669999999997
13.262139 19.389671999999997 34.486836
13.457094 31.168723 34.114475999999996
13.269043 34.093767 13.547678
13.257445 34.171272 19.217298999999997
10.69417 19.401359 31.34809
13.527377 16.231994999999998 31.341014
13.649523 34.302597 31.094819
19.270474 19.178536 28.428822000000004
19.394854000000002 19.402513 16.619584000000003
13.350676 25.122762 22.181962
19.173073000000002 28.249591000000002 25.208740999999996
19.4146 25.413469 28.124929
13.229383 10.628495000000001 25.33468
19.518644000000002 31.483725999999997 34.11817
19.526224999999997 22.241799 31.446057000000003
16.54119 25.456701000000002 31.404266999999997
13.641269 13.640855 22.387290999999998
19.351939 25.522176 34.457836
16.24586 31.465426 31.279659000000002
19.601940999999997 31.182755 10.597351
16.200290000000003 25.304774000000002 25.298620999999997
19.205038000000002 28.180287 13.542336
16.212226 31.414174000000003 13.264267
19.252383000000002 28.390245 31.415888000000002
19.426326000000003 31.465103 16.347483
19.212083999999997 28.522596999999998 19.39065
13.604995 13.359093 16.454203
19.429183000000002 31.216161999999997 28.087387
16.503185000000002 31.258615 19.547271000000002
10.333788 13.312195000000001 19.452775000000003
13.298725000000001 10.610644 19.530596000000003
19.594867999999998 31.162416 22.436996999999998
19.566736 16.584497 31.321118
19.288207 22.421974 25.092889999999997
16.146027 31.317802 25.312902
19.222417999999998 25.305245999999997 22.506521
10.509222000000001 13.295492000000001 31.491698999999997
16.498111 19.551053000000003 31.068258999999998
19.601826000000003 34.147375999999994 31.268909
13.2554 10.355649 31.165503
19.556769000000003 19.179823999999996 34.388562
13.206287000000001 13.43199 10.273412
19.273656000000003 25.202157 10.293862
13.560433000000002 13.611983 28.271431
10.658697 13.454484 25.441144
16.366142000000004 25.594611 13.461844000000001
19.25405 34.194384 25.444761
19.548522 22.205575000000003 13.533221000000001
13.47206 10.642664 13.437412
19.466095000000003 25.135005999999997 16.518998000000003
19.21761 34.366664 19.196278
19.547722 34.225562 13.336128
19.272396999999998 22.562202999999997 19.456269999999996
10.415650000000001 13.616696000000001 13.335929
16.379061999999998 25.419764999999998 19.171642
10.073537 22.267801999999996 16.035847
34.400328 22.873008999999996 28.494429000000004
28.107633 22.016775000000003 34.102755
10.669917 22.045378 22.747576000000002
27.846501000000004 22.264587999999996 28.349992
33.810644999999994 28.205032000000003 22.06243
34.23150699999999 21.881641000000002 33.949845999999994
28.711044 28.691271999999998 10.657512
33.938421 27.939055000000003 28.136946000000002
10.308283000000001 10.113406000000001 16.719049
34.019597 28.66012 10.220919
34.755211 28.632658 16.437449
34.534727000000004 10.715842 16.676018
34.668814999999995 22.051868999999996 22.32616
34.584366 10.500019 21.951589
27.876125000000002 34.229332 34.060195
10.122196 16.669116000000002 10.529006
34.437546999999995 10.168205 28.063184999999997
28.116763 34.326724 27.809677999999998
34.153318999999996 16.077221 10.95587
28.797814000000002 34.169779 22.414468999999997
10.350844 10.777409 27.854163
28.046298 34.16142 10.770217
10.561589 16.105567 16.11882
34.475177 16.294931 16.759447
28.620092999999997 28.278896000000003 34.549398
10.298801000000001 16.820624000000002 22.043776
33.944722 16.064621000000002 22.313814
28.533076 28.606431 28.333365
34.016622 16.163211 28.075224
34.571104 16.265259 34.079995999999994
33.876102 22.546793 10.599442
28.639599000000004 28.708332 22.305855
10.033729000000001 10.249624 22.161045
34.598952999999995 22.305621000000002 16.585014
10.605789 16.245084 33.850866999999994
28.563347 27.840904000000002 16.387329
10.355652000000001 22.483899 10.075613
10.159623 16.809426000000002 28.520844000000004
16.736127000000003 34.296155999999996 33.971847999999994
10.827596 22.2183 28.231327
16.073211 22.114001000000002 33.882813999999996
22.059083 16.755369 34.152612
22.730472999999996 22.122504999999997 10.680877
16.183573000000003 22.843683 28.536364
22.095149 22.558565 16.737769999999998
16.062656 22.424202 22.694184999999997
16.607306 28.010170000000002 10.565883000000001
22.584455 22.698970000000003 22.527999
22.707365000000003 22.374837 27.874965000000003
16.731543000000002 22.294220000000003 10.624144000000001
16.242026000000003 16.723806000000003 33.970837
22.043853 21.97753 34.108433
22.149006 28.142004999999997 10.196525000000001
16.627892000000003 16.167448 28.625880000000002
16.478135 22.098998 16.730105000000002
22.097422 28.612664000000002 16.446379999999998
22.728837999999996 16.68231 28.01793
22.120699000000002 16.137523 21.894663
22.164724 10.763101 16.783334000000004
16.597645999999997 33.828025 28.289043999999997
16.629989000000002 34.053838999999996 22.152985
22.610835 10.763480000000001 21.991200999999997
16.095891 33.932869 16.347689000000003
16.855639000000004 34.12044 10.436702
16.377746000000002 28.658535999999998 16.267518000000003
22.271406 10.18434 28.571415000000002
34.73032 34.07971 16.222347
22.416356 10.634082000000001 33.733768999999995
22.158222000000002 16.892097 10.146543000000001
16.739732000000004 27.949377 28.589016
22.015239 16.331254 16.742216
16.611769000000002 27.967442 21.964214
16.100882 27.959121000000003 34.146029
16.751103 16.636601 22.145885999999997
22.682952999999998 28.726091000000004 22.542074
15.985029 16.069909000000003 16.196800000000003
28.007204 10.655454 34.601687
28.047295 16.13828 10.347024000000001
10.8102 34.168409999999994 16.805751
10.781048 28.074756999999998 34.613147999999995
28.623617000000003 16.153739 16.702739
28.741025 16.312043000000003 22.373714
10.136460000000001 33.924588 22.412833999999997
10.620223000000001 27.795502 22.081986999999998
10.185672 27.822505999999997 16.592526
27.928175000000003 16.625895 34.509624
28.609057 22.501910000000002 10.020828
10.077199 28.706284000000004 10.390328
10.188357 22.769249000000002 34.000828999999996
28.624247000000004 22.470757999999996 16.828429
28.58491 15.982181 28.024942000000003
21.973204000000003 10.089877000000001 10.23306
10.954264 34.525814999999994 28.174158
28.534305000000003 10.132966 27.855406000000002
22.636204 28.098177 28.176882
15.910144 16.51598 10.255461
21.904398999999998 28.630485999999998 34.186251999999996
16.308466000000003 9.976201 34.216293
22.517497 34.471327 10.165833000000001
22.425358000000003 34.271613 16.797196
21.94222 34.196995 22.794804999999997
22.170352 34.431912 27.993968000000002
16.664689000000003 10.043869 28.636446
22.390994 33.925729000000004 34.547926000000004
28.515545000000003 10.227114 10.26713
16.107480000000002 10.899964 22.129964
28.093733 10.110574 16.686704
16.739039 10.629355 16.313612
16.287888000000002 10.768363 10.190271000000001
28.660949000000002 22.375355 22.005981
33.877624999999995 34.426886999999994 22.387970000000003
13.596288 13.526644000000001 13.280111
19.542322 19.296894 13.276077
19.302298999999998 13.668906000000002 31.321157
31.329521 13.585188 13.25148
19.616293 13.527332 25.279643
31.159292 13.609588 19.550399999999996
19.154196999999996 13.351667 19.50287
31.505736 13.615396 25.282227
19.66641 13.595227 13.387716000000001
31.125891000000003 13.341908 31.136575999999998
31.401397000000003 19.542879 13.306942000000001
31.29446 19.330039 19.665684999999996
13.465211 31.087614000000002 31.121332000000002
31.552431 19.212797000000002 25.232148000000002
13.308631 31.025364000000003 25.273179
31.222172999999998 19.379125000000002 31.061055000000003
13.731160000000001 31.307142 19.281643000000003
31.170107 25.232138999999997 13.598655
13.410575 31.116253 13.702748000000001
31.226526 25.449694 19.591116
13.531458 25.598171 31.378148000000003
31.177042999999998 25.477686 25.156715
25.502304000000002 31.230628000000003 31.152967000000004
19.443734 19.576265999999997 19.484719
25.459846 31.415122000000004 25.504219
19.582161 19.165763 25.520877
25.218404 13.594295 19.493327999999998
25.590728 13.684652000000002 25.385866999999998
25.444933999999996 13.233662 31.359484000000002
19.428494 31.058456999999997 31.556869
25.574782999999996 19.311855 13.541263
19.694508999999996 31.117632999999998 25.292454999999997
25.072057 19.389513 19.210445
19.242651000000002 31.111651000000002 19.176547999999997
25.539045 19.251283 25.576203999999997
19.670249 31.279555000000002 13.464916
13.539923 25.037132 25.319133
25.300896 19.569414000000002 31.504236
19.179423 25.131192 31.398865
25.363970000000002 25.021695 19.561729999999997
19.596483999999997 25.368319 25.163009000000002
25.114057000000003 25.071092 25.438254999999998
19.565284 25.473331 19.249609999999997
25.611441 25.246077999999997 31.223847
19.122287999999998 25.180366 13.309697
25.311605 31.101943 13.636855
19.607472 19.285759999999996 31.156098
25.502592 31.226976 19.578542
25.247804000000002 25.230086999999997 13.633413000000001
31.526643999999997 25.163372000000003 31.400987
25.147450999999997 13.268004 13.537352
13.558012 13.309838000000001 19.653796
13.475513000000001 19.113441 31.186048
13.331946 13.538597000000001 25.168323
13.490556 13.248119 31.068767
13.605538000000001 19.522776999999998 25.187548999999997
31.454102 31.467731 31.133134
31.175803000000002 31.240284000000003 19.585302
13.102738 25.361125 13.569542
31.046052000000003 31.05939 13.441732
31.367286 31.496848999999997 25.335231999999998
13.651928 25.331201999999998 19.307139
13.543821 19.248908999999998 19.684005
13.285619 19.48395 13.179417
