3_train/244_cspbbr3_MA-Py_3_0.20\244_cspbbr3_MA-Py_3_0.20.xyz
1.0
40.657088 0 0
0 40.657088 0
0 0 40.657088
Br C Cs H N Pb 
96 70 44 120 22 27 
Cartesian
14.378544 14.378544 11.403544
14.378544 11.403544 14.378544
14.378544 14.378544 17.353544
14.378544 11.403544 20.328544
11.403544 14.378544 20.328544
14.378544 14.378544 23.303544
14.378544 11.403544 26.278544
11.403544 14.378544 26.278544
14.378544 14.378544 29.253544
14.378544 17.353544 14.378544
11.403544 20.328544 14.378544
14.378544 20.328544 17.353544
14.378544 17.353544 20.328544
11.403544 20.328544 20.328544
14.378544 20.328544 23.303544
14.378544 17.353544 26.278544
11.403544 20.328544 26.278544
14.378544 26.278544 11.403544
14.378544 23.303544 14.378544
11.403544 26.278544 14.378544
14.378544 26.278544 17.353544
14.378544 23.303544 20.328544
11.403544 26.278544 20.328544
14.378544 26.278544 23.303544
14.378544 23.303544 26.278544
14.378544 26.278544 29.253544
14.378544 29.253544 20.328544
14.378544 29.253544 26.278544
20.328544 14.378544 11.403544
17.353544 14.378544 14.378544
20.328544 14.378544 17.353544
20.328544 11.403544 20.328544
17.353544 14.378544 20.328544
20.328544 14.378544 23.303544
20.328544 11.403544 26.278544
17.353544 14.378544 26.278544
20.328544 14.378544 29.253544
20.328544 20.328544 11.403544
20.328544 17.353544 14.378544
17.353544 20.328544 14.378544
20.328544 20.328544 17.353544
20.328544 17.353544 20.328544
17.353544 20.328544 20.328544
20.328544 20.328544 23.303544
20.328544 17.353544 26.278544
17.353544 20.328544 26.278544
20.328544 20.328544 29.253544
20.328544 26.278544 11.403544
20.328544 23.303544 14.378544
17.353544 26.278544 14.378544
20.328544 26.278544 17.353544
20.328544 23.303544 20.328544
17.353544 26.278544 20.328544
20.328544 26.278544 23.303544
20.328544 23.303544 26.278544
17.353544 26.278544 26.278544
20.328544 26.278544 29.253544
20.328544 29.253544 14.378544
20.328544 29.253544 20.328544
20.328544 29.253544 26.278544
26.278544 14.378544 11.403544
26.278544 11.403544 14.378544
23.303544 14.378544 14.378544
26.278544 14.378544 17.353544
23.303544 14.378544 20.328544
26.278544 14.378544 23.303544
26.278544 11.403544 26.278544
23.303544 14.378544 26.278544
26.278544 14.378544 29.253544
26.278544 17.353544 14.378544
23.303544 20.328544 14.378544
26.278544 20.328544 17.353544
26.278544 17.353544 20.328544
23.303544 20.328544 20.328544
26.278544 20.328544 23.303544
26.278544 17.353544 26.278544
23.303544 20.328544 26.278544
26.278544 26.278544 11.403544
26.278544 23.303544 14.378544
23.303544 26.278544 14.378544
26.278544 26.278544 17.353544
26.278544 23.303544 20.328544
23.303544 26.278544 20.328544
26.278544 26.278544 23.303544
26.278544 23.303544 26.278544
23.303544 26.278544 26.278544
26.278544 26.278544 29.253544
26.278544 29.253544 14.378544
26.278544 29.253544 26.278544
29.253544 14.378544 14.378544
29.253544 14.378544 20.328544
29.253544 14.378544 26.278544
29.253544 20.328544 14.378544
29.253544 20.328544 26.278544
29.253544 26.278544 14.378544
29.253544 26.278544 26.278544
14.541546 19.195526 29.955792
14.549063 19.141147 31.352058
14.378544 20.328544 32.065077
14.214586 21.461503 29.955394000000002
14.206430000000001 21.514952 31.351339
26.441546 19.195526 29.955792
26.449063 19.141147 31.352058
26.278544 20.328544 32.065077
26.114586 21.461503 29.955394000000002
26.10643 21.514952 31.351339
26.115542 19.195526 10.701296
26.108025 19.141147 9.30503
26.278544 20.328544 8.592011
26.442502 21.461503 10.701694
26.450658 21.514952 9.305749
14.215542 19.195526 10.701296
14.208025 19.141147 9.30503
14.378544 20.328544 8.592011
14.542502 21.461503 10.701694
14.550658 21.514952 9.305749
10.701296 25.145526 26.441546
9.30503 25.091147 26.449063
8.592011 26.278544 26.278544
10.701694 27.411503 26.114586
9.305749 27.464952 26.10643
10.701296 13.245526 14.541546
9.30503 13.191147 14.549063
8.592011 14.378544 14.378544
10.701694 15.511503000000001 14.214586
9.305749 15.564952 14.206430000000001
29.955792 25.145526 20.165542
31.352058 25.091147 20.158025
32.065077 26.278544 20.328544
29.955394000000002 27.411503 20.492501999999998
31.351339 27.464952 20.500657999999998
29.955792 19.195526 20.165542
31.352058 19.141147 20.158025
32.065077 20.328544 20.328544
29.955394000000002 21.461503 20.492501999999998
31.351339 21.514952 20.500657999999998
20.491546 10.701296 13.245526
20.499063 9.30503 13.191147
20.328544 8.592011 14.378544
20.164586 10.701694 15.511503000000001
20.15643 9.305749 15.564952
26.441546 10.701296 19.195526
26.449063 9.30503 19.141147
26.278544 8.592011 20.328544
26.114586 10.701694 21.461503
26.10643 9.305749 21.514952
14.541546 29.955792 15.511562000000001
14.549063 31.352058 15.565941
14.378544 32.065077 14.378544
14.214586 29.955394000000002 13.245585
14.206430000000001 31.351339 13.192136
26.441546 29.955792 21.461562
26.449063 31.352058 21.515941
26.278544 32.065077 20.328544
26.114586 29.955394000000002 19.195585
26.10643 31.351339 19.142136
17.353544 23.303544 30.729205
30.729205 17.353544 23.303544
30.729205 23.303544 17.353544
23.303544 30.296994 30.296994
17.353544 10.360094 30.296994
10.360094 23.303544 10.360094
17.353544 30.296994 10.360094
17.353544 30.729205 23.303544
23.303544 23.303544 30.729205
17.353544 9.927883000000001 17.353544
11.403544 11.403544 17.353544
11.403544 11.403544 23.303544
11.403544 17.353544 11.403544
11.403544 17.353544 17.353544
11.403544 17.353544 23.303544
11.403544 17.353544 29.253544
11.403544 23.303544 17.353544
11.403544 23.303544 23.303544
11.403544 23.303544 29.253544
11.403544 29.253544 17.353544
11.403544 29.253544 23.303544
17.353544 11.403544 11.403544
17.353544 11.403544 23.303544
17.353544 17.353544 11.403544
17.353544 17.353544 17.353544
17.353544 17.353544 23.303544
17.353544 17.353544 29.253544
17.353544 23.303544 11.403544
17.353544 23.303544 17.353544
17.353544 23.303544 23.303544
17.353544 29.253544 29.253544
23.303544 11.403544 17.353544
23.303544 11.403544 23.303544
23.303544 11.403544 29.253544
23.303544 17.353544 11.403544
23.303544 17.353544 17.353544
23.303544 17.353544 23.303544
23.303544 17.353544 29.253544
23.303544 23.303544 11.403544
23.303544 23.303544 17.353544
23.303544 23.303544 23.303544
23.303544 29.253544 11.403544
23.303544 29.253544 17.353544
23.303544 29.253544 23.303544
29.253544 11.403544 17.353544
29.253544 11.403544 23.303544
29.253544 17.353544 11.403544
29.253544 17.353544 17.353544
29.253544 17.353544 29.253544
29.253544 23.303544 11.403544
29.253544 23.303544 23.303544
29.253544 23.303544 29.253544
29.253544 29.253544 17.353544
29.253544 29.253544 23.303544
14.380049 20.332564 33.157088
14.083282 22.375690000000002 29.367633
14.674428 18.282298 29.366863
14.686035 18.186526999999998 31.863965
14.06759 22.468075000000002 31.865221000000002
26.280049 20.332564 33.157088
25.983282 22.375690000000002 29.367633
26.574428 18.282298 29.366863
26.586035 18.186526999999998 31.863965
25.967589999999998 22.468075000000002 31.865221000000002
26.277039 20.332564 7.5
26.573806 22.375690000000002 11.289455
25.98266 18.282298 11.290225
25.971053 18.186526999999998 8.793123
26.589498000000003 22.468075000000002 8.791867
14.377039 20.332564 7.5
14.673805999999999 22.375690000000002 11.289455
14.08266 18.282298 11.290225
14.071053 18.186526999999998 8.793123
14.689498 22.468075000000002 8.791867
7.5 26.282564 26.280049
11.289455 28.32569 25.983282
11.290225 24.232298 26.574428
8.793123 24.136527 26.586035
8.791867 28.418075 25.967589999999998
7.5 14.382564 14.380049
11.289455 16.42569 14.083282
11.290225 12.332298 14.674428
8.793123 12.236527 14.686035
8.791867 16.518075 14.06759
33.157088 26.282564 20.327039000000003
29.367633 28.32569 20.623806
29.366863 24.232298 20.03266
31.863965 24.136527 20.021053
31.865221000000002 28.418075 20.639498
33.157088 20.332564 20.327039000000003
29.367633 22.375690000000002 20.623806
29.366863 18.282298 20.03266
31.863965 18.186526999999998 20.021053
31.865221000000002 22.468075000000002 20.639498
20.330049 7.5 14.382564
20.033282 11.289455 16.42569
20.624427999999998 11.290225 12.332298
20.636035 8.793123 12.236527
20.017590000000002 8.791867 16.518075
26.280049 7.5 20.332564
25.983282 11.289455 22.375690000000002
26.574428 11.290225 18.282298
26.586035 8.793123 18.186526999999998
25.967589999999998 8.791867 22.468075000000002
14.380049 33.157088 14.374524000000001
14.083282 29.367633 12.331398
14.674428 29.366863 16.42479
14.686035 31.863965 16.520561
14.06759 31.865221000000002 12.239013
26.280049 33.157088 20.324524
25.983282 29.367633 18.281398
26.574428 29.366863 22.37479
26.586035 31.863965 22.470561
25.967589999999998 31.865221000000002 18.189013
16.459254 22.774043000000002 31.063126
18.25925 22.793817 31.063126
17.342128 24.342772 31.063126
18.177726 23.791535 28.878802
16.518841000000002 23.773311 28.878802
17.364066 22.345786 28.878802
31.063126 16.824043 24.197834
31.063126 16.843817 22.397838
31.063126 18.392772 23.31496
28.878802 17.841535 22.479362
28.878802 17.823311 24.138247
28.878802 16.395786 23.293022
31.063126 22.774043000000002 18.247834
31.063126 22.793817 16.447838
31.063126 24.342772 17.36496
28.878802 23.791535 16.529362
28.878802 23.773311 18.188247
28.878802 22.345786 17.343022
22.409254 30.158698 30.907525
24.20925 30.17268 30.893543
23.292128 31.267957 29.798267
24.127726 29.333623 28.6435
22.468841 29.320737 28.656386
23.314066 28.311324 29.665798
16.459254 9.749563 30.158698
18.25925 9.763545 30.17268
17.342128 10.858820999999999 31.267957
18.177726 12.013588 29.333623
16.518841000000002 12.000702 29.320737
17.364066 10.99129 28.311324
10.756335 22.774043000000002 9.491617999999999
9.483546 22.793817 10.764407
10.132049 24.342772 10.115904
11.085742 23.791535 12.251311
12.258751 23.773311 11.078302
11.661087 22.345786 11.675967
16.459254 30.907525 10.49839
18.25925 30.893543 10.484408
17.342128 29.798267 9.389131
18.177726 28.6435 11.323465
16.518841000000002 28.656386 11.336351
17.364066 29.665798 12.345764
16.459254 31.063126 23.833045000000002
18.25925 31.063126 23.813271
17.342128 31.063126 22.264316
18.177726 28.878802 22.815552999999998
16.518841000000002 28.878802 22.833777
17.364066 28.878802 24.261302
22.409254 22.774043000000002 31.063126
24.20925 22.793817 31.063126
23.292128 24.342772 31.063126
24.127726 23.791535 28.878802
22.468841 23.773311 28.878802
23.314066 22.345786 28.878802
16.459254 9.593962000000001 16.824043
18.25925 9.593962000000001 16.843817
17.342128 9.593962000000001 18.392772
18.177726 11.778286000000001 17.841535
16.518841000000002 11.778286000000001 17.823311
17.364066 11.778286000000001 16.395786
14.378544 20.328544 29.253544
26.278544 20.328544 29.253544
26.278544 20.328544 11.403544
14.378544 20.328544 11.403544
11.403544 26.278544 26.278544
11.403544 14.378544 14.378544
29.253544 26.278544 20.328544
29.253544 20.328544 20.328544
20.328544 11.403544 14.378544
26.278544 11.403544 20.328544
14.378544 29.253544 14.378544
26.278544 29.253544 20.328544
17.353544 23.303544 29.253544
29.253544 17.353544 23.303544
29.253544 23.303544 17.353544
23.303544 29.253544 29.253544
17.353544 11.403544 29.253544
11.403544 23.303544 11.403544
17.353544 29.253544 11.403544
17.353544 29.253544 23.303544
23.303544 23.303544 29.253544
17.353544 11.403544 17.353544
14.378544 14.378544 14.378544
14.378544 14.378544 20.328544
14.378544 14.378544 26.278544
14.378544 20.328544 14.378544
14.378544 20.328544 20.328544
14.378544 20.328544 26.278544
14.378544 26.278544 14.378544
14.378544 26.278544 20.328544
14.378544 26.278544 26.278544
20.328544 14.378544 14.378544
20.328544 14.378544 20.328544
20.328544 14.378544 26.278544
20.328544 20.328544 14.378544
20.328544 20.328544 20.328544
20.328544 20.328544 26.278544
20.328544 26.278544 14.378544
20.328544 26.278544 20.328544
20.328544 26.278544 26.278544
26.278544 14.378544 14.378544
26.278544 14.378544 20.328544
26.278544 14.378544 26.278544
26.278544 20.328544 14.378544
26.278544 20.328544 20.328544
26.278544 20.328544 26.278544
26.278544 26.278544 14.378544
26.278544 26.278544 20.328544
26.278544 26.278544 26.278544
