1_train/76_cspbbr3_methylammonium_4_0.40\76_cspbbr3_methylammonium_4_0.40.xyz
1.0
47.819714000000005 0 0
0 47.819714000000005 0
0 0 47.819714000000005
Br C Cs H N Pb 
240 34 78 204 34 64 
Cartesian
26.649986000000002 11.952745 15.017647
26.972141 26.820678 11.769863
32.909621 30.076162 26.91487
26.716167000000002 23.714978 14.835076
32.953956000000005 29.970746000000002 32.687003000000004
23.758779 26.747835 14.79893
26.808218 21.071732 35.71135699999999
29.772816 32.905204999999995 33.037823
26.718410000000002 26.814726 17.947076
26.941803 23.747863 21.079685
20.924260999999998 35.683013 32.670534
23.979896 26.72366 21.072046
20.795984999999998 35.70344899999999 26.802063
26.682788 15.046896 11.930239
32.554925 32.837998 23.969730000000002
26.736739 20.715842 29.958704
23.756890000000002 15.098876 14.941416
26.991220000000002 15.144124 35.835571
24.000941 15.128202 32.927994999999996
27.048716000000002 20.788410000000002 12.095911000000001
26.889146999999998 11.794648 32.829902000000004
26.723987 15.131466 29.681436
26.995467 18.023864 14.846293
24.055972999999998 21.074987 15.05533
23.847722 15.083393000000001 27.095443
32.812016 32.831300999999996 30.05956
26.80478 20.975109 18.128169
29.938774 32.865083 26.68859
26.889093 12.15668 27.018004
23.694262 21.098467 20.897793
26.854331 15.178465 23.739256
24.004842 15.188648 21.038909
27.015103 20.895107 24.05603
26.838249 18.142287 26.862551
24.042617 21.000076 27.011181
26.963637000000002 12.074882 20.738637
26.771686 18.039471 33.067758
27.048382999999998 14.933407 17.850366
24.088214 20.997775999999998 32.717563999999996
26.851298 18.111757 21.048727
26.826156 26.899577 23.618257
26.998073 32.687449 17.774829
24.097586 26.945132 27.051606
32.829235 12.132675 27.018942
29.745281 15.07114 26.994808000000003
32.942105999999995 14.947928000000001 29.654507
32.980588 11.836162 33.004487999999995
29.667276 14.97545 33.015653
32.755742999999995 15.051415 35.651993000000004
32.710355 20.785602 12.103039
32.981992000000005 17.793295 15.12895
29.927663 20.880612000000003 14.817946
32.839526 26.888628 35.570229999999995
32.608682 20.802023000000002 18.08776
32.605212 17.923352 20.971068
29.986466 21.015556 21.043195
29.967806 26.802626 32.973982
32.972709 14.766562 24.047765000000002
32.778632 20.947875 24.189318
29.576533 20.991257 26.875425
32.711386000000005 24.065765000000003 32.783159
32.99889 20.812585000000002 29.886607
32.670864 18.02271 32.978892
29.651378 20.796851 32.768620999999996
33.014266 21.129617 35.800478
32.652669 26.808066999999998 11.822601
32.852565999999996 24.051068 15.143746
29.810318 27.041093 15.14866
33.041431 26.840992 29.897211
32.89989 26.844186 18.233055
32.882774999999995 23.779742000000002 21.156009
29.867985 26.943516 21.181118
32.85216 27.061533999999998 23.857291
32.825929 17.819962 26.752114000000002
27.058 24.022738 26.958689
32.747152 32.667844 12.109388000000001
32.986823 11.803193 20.936735000000002
26.998648 26.799055 29.695131
27.022232 23.774985 32.79835
24.024039 26.962236 32.987546
26.655801 27.059907 35.735749
30.02775 32.878437000000005 21.028387
26.988627 33.028687000000005 12.211378
26.718749 30.058033000000002 14.951603
24.04674 32.674669 14.991744
32.800938 29.669077 21.064936
20.813575 35.678219999999996 21.051672
27.088131 29.926267 20.829765
23.807017 32.620075 20.807394
32.719614 32.983257 17.748981
27.019487 32.873104999999995 23.731328
29.603270000000002 14.95419 21.036869
26.741704000000002 29.839962 26.676517
27.035985 32.734114000000005 30.022607
26.766223999999998 29.649138 32.765393
23.736306000000003 32.973072 32.669536
27.056504999999998 32.870827 35.662724
26.837994 36.000570999999994 14.820493
27.144845999999998 35.69166 20.946973
29.976347 32.612398999999996 15.061487
26.822418000000003 35.590924 26.820884
26.896981999999998 35.685745 32.969611
32.642983 29.803019 14.842186
32.720068999999995 14.835721 12.036639000000001
32.77807 12.140334000000001 14.86969
29.897584000000002 15.113863 14.835133
32.816334 14.809082 18.135097
24.087356 32.896489 26.990503999999998
21.020207000000003 35.796707999999995 14.821889
20.788644 29.806917 21.04827
33.008421999999996 32.636795 35.91721
11.853906 26.81352 20.856928
35.582654000000005 26.835117 32.771425
15.132896 26.996176000000002 24.040293000000002
15.100916 24.055097 26.828124
12.002218000000001 27.003916999999998 26.713755000000003
14.850537 26.913453 30.030954
14.950318 24.114563999999998 32.716527
11.901153 27.114582000000002 32.700282
14.725661 26.918940000000003 35.90047199999999
35.7295 27.073797000000003 26.845753
14.923381 32.734823 12.235562
14.871321 29.983108 15.064682000000001
11.937551000000001 33.06691 14.97255
14.755629 32.692853 17.8784
14.7786 30.040833 21.040015999999998
11.818956 32.759279 20.782393000000003
35.818833 26.723484000000003 21.074484
20.8192 14.873869 11.91554
20.959221 32.655303 35.965236000000004
14.743655 35.897454999999994 26.79169
15.088611 35.956886999999995 20.855059
35.81029099999999 21.126077 32.667862
14.826797000000001 35.72937 15.151313
14.856964 23.966869 21.050219000000002
15.127778 32.650914 35.773683000000005
14.835821 29.690319 32.674711
15.133834 32.799420999999995 30.009122
35.621925000000005 26.682668 14.969241
12.123286 32.64031 26.712991
15.082651 30.009489 26.795752
15.096233 33.014166 24.097344
12.021023 32.667264 32.947915
21.018261 11.875472 14.887502
15.137958000000001 27.058549000000003 18.060941
14.770467 23.747735000000002 14.890009
14.839213 14.851306000000001 11.892197
14.881659 11.890997 15.098087
12.048739 14.718224 15.091685
15.145497 14.791119 18.113482
14.922481000000001 11.89644 20.74942
11.859136 14.911356 20.765040000000003
14.830644 14.85862 23.838108000000002
15.131467 12.046455 27.100569
11.976481 14.774919 26.914322000000002
35.649485 32.883072999999996 32.925004
15.039429 14.734745 29.804936
14.773104 12.116814 32.769243
11.992342 15.183135 32.973739
15.157743 14.899214 35.819293
15.000962000000001 20.749413 12.18271
14.757143 17.860774 14.868209
11.953437000000001 20.735873 15.19039
14.844594 27.131885 12.030567
35.976596 32.981378 14.825537
15.156655 20.916688 35.57259499999999
35.635006000000004 32.931286 20.880827
11.927044 21.149081 32.929998
14.907037 18.112284 32.685604999999995
11.856569 27.048808 15.140692
15.073732 20.705168 29.726905
12.130765 21.098178 26.993378
15.254853 18.044388 26.82417
15.128981 20.822218 23.790269
12.042098000000001 20.846206 20.670088
15.248336 17.919015 20.975733
15.084364 20.695552000000003 17.878087999999998
35.67729 32.906937 26.74876
17.823619 15.108618 14.994153
14.873049 35.943719 32.657579999999996
20.794035 14.860181 17.730963
20.735779 26.943318 12.007367
35.555453 20.963668000000002 26.801790999999998
20.853709 24.055808000000003 14.757255
18.16037 27.057396999999998 15.102045
20.707559 26.918547999999998 17.917288
21.154666000000002 23.821606 20.764875
18.139631 26.843551 20.748967
35.687281 15.066984 14.878461
20.879526000000002 26.728365 24.136897
21.033753 23.713373999999998 26.765134
17.823736 26.836743000000002 27.012328
32.575845 35.748937 32.920983
21.047064000000002 27.014815000000002 29.934174
20.855923 24.068676 33.070691
17.819723 27.100998999999998 32.959879
32.917139 35.982596 26.713383
20.735143 26.927469 35.61149399999999
18.164244 32.867362 32.973749999999995
20.898295 30.049982 32.663948000000005
20.747607 33.042477000000005 29.895238
17.903152 32.980126 26.760858000000002
20.696484 29.766851 26.751835
21.111991 33.032493 23.964285
35.88643999999999 14.880918000000001 21.099018
32.713606999999996 35.92589099999999 15.058671
32.684475 23.751193 26.743491000000002
20.825209 32.688582 17.996138000000002
32.851279000000005 35.89729 21.138360000000002
18.094371 32.622815 15.116256
20.922692 30.009345 14.863336
20.744089 32.639178 12.120394000000001
18.14702 32.909796 20.940611
20.977230000000002 21.004437 35.994501
29.705303 26.764660000000003 27.062275
17.811573 21.066165 15.017573
20.828836 14.73513 23.937493
20.823132 15.089378 29.978093
20.748034999999998 12.096153000000001 32.983015
17.89253 15.250559 32.766293000000005
35.678506999999996 21.037180000000003 20.841025
21.089949999999998 14.890288 35.809955
35.64161299999999 15.017323000000001 26.701691
36.00266499999999 20.983875 15.024074
20.718307 20.874495 11.975089
21.140363 18.002677 14.999826
17.710435 15.027851 20.945791
17.862662 14.808822 26.805363
20.819703 11.88676 26.801831
20.840828 18.133616 21.146024
18.101154 20.737241 21.023729
35.608711 15.054151000000001 33.001335
20.928978 20.90333 24.106094000000002
21.099504 17.849474999999998 27.051528
17.943072 20.745348 32.79584
21.060081999999998 21.068516 18.033918
17.793243 20.788216000000002 26.847227999999998
20.781544999999998 12.193502 20.870186
20.855427000000002 20.738104 30.061179
21.124354 17.778507 32.707553000000004
17.942977 37.311007000000004 18.028108
10.998666 17.876502000000002 10.919011000000001
36.799036 11.009901000000001 23.833579
17.931284 36.925989 10.91421
29.808437 10.475158 17.931416
10.485679000000001 29.801191 17.917360000000002
17.901097 10.459477 29.826698
23.838511 17.988055 10.498381
23.922454 10.476688 29.775986
37.311001000000005 29.813829000000002 23.961762
37.33037899999999 18.019903 23.951667
29.782036 36.897366000000005 36.796329
23.853752 10.476826 23.980795
29.878484 37.210116 29.865997
36.90892099999999 36.915676000000005 17.959055
37.239824999999996 23.923227999999998 17.898241
10.9291 36.928039999999996 29.872133
23.960199 10.918788 10.91779
10.61979 23.867906 29.871255
10.927208 36.791185 23.948269
23.910038 10.560495 18.052052
17.892663 37.336241 29.846321
36.873605999999995 36.854991999999996 29.777053
29.778854 23.88038 10.498273000000001
29.925532 29.826766 10.550234
37.349783 23.881139 23.848344
23.832068 36.786147 36.875951
29.792502 10.982564 36.907903000000005
23.912544 23.867109000000003 37.344730999999996
36.791996 23.833666 36.807783
36.830061 23.859513 11.028163000000001
29.926608 17.899634 10.535175
29.916473 17.893049 37.247775000000004
23.932577 29.774657 37.244333999999995
36.114847999999995 35.993272000000005 23.573606
35.533534 30.189991 35.753303
30.296089 29.82912 35.43439599999999
35.790204 18.309459 30.253140000000002
30.225781 35.91877699999999 11.986302
30.250603 30.083432000000002 29.747896
36.103528999999995 30.152679 30.075081
35.85991299999999 18.456523999999998 35.944959999999995
36.28259299999999 17.989432 17.975635
29.621035 35.41292299999999 24.122494
30.261722 29.54488 18.091594
35.931871 18.260291 12.200796
36.065275 23.691556000000002 29.677156
35.753714 11.751294 17.671258
35.417311 11.737679 29.727798
30.297731 29.911461 23.657072
35.580032 30.003859 12.25733
29.519032 24.003301 35.621374
29.495527 23.960282 23.506427
18.224611 23.566195 24.281069
18.147027 23.560654 17.642753
17.513939999999998 23.973487000000002 12.153435
17.848474 17.6682 35.527828
18.284207 18.307993 29.819184
17.702967 17.766248 24.140372000000003
17.600528 17.633155000000002 17.944792
18.211528 18.257922 11.655013
18.170339000000002 11.56714 36.102847
17.706916 11.806871000000001 24.271507
17.568757 11.719029 17.992272
18.488059 11.93899 11.938904
12.324747 35.610235 17.60048
12.116502 30.184696 35.373839000000004
11.793678 30.039189 29.564434
11.930889 30.41575 24.114898
11.675011 29.958757 11.793257
11.772349 23.451947999999998 35.765314000000004
12.400469000000001 23.509818 24.117522
11.844597 24.065189 17.478241
11.962054 23.921604 11.607077
11.742445 17.749839 35.66212399999999
12.449665 18.135442 30.12097
11.636274 18.056873 17.666611
12.350943000000001 12.415632 29.641791
12.236985 12.091251 23.558603
29.910579 24.283959 29.487107
17.459112 23.823987 29.703887
18.303729999999998 23.716981 35.47702699999999
11.784121 11.693715000000001 17.668858
17.779199 30.253627 18.060905
18.125404 30.245141 11.794732
30.364073 24.011767000000003 18.281454
29.99481 17.522999 29.983545
29.880058000000002 17.591289 23.779996999999998
30.306318 12.119983 29.789687
29.443324 12.38119 24.119507000000002
29.964196 12.255781 12.447042
23.976873 35.376777000000004 24.07726
24.412516 35.632115999999996 17.959124
24.195356999999998 30.269582 30.055133
23.69465 30.120909 24.208516
23.574711 29.892644 18.461875
24.021594 30.188172 11.694099
30.205963 18.041204 17.752975
23.527697 24.076708 23.925067000000002
17.849781 30.219964 29.397468
24.239254 23.816195 29.515127
18.152204 30.396988 23.778664000000003
17.741428 29.60244 36.070018000000005
17.784546 35.772296999999995 36.235934
23.563660000000002 12.010422 35.954474000000005
18.186961 36.169481000000005 23.674115
23.689228 18.151843 23.670669999999998
24.229845 17.869967 29.532262
23.728995 18.212257 35.613854
23.836991 24.370209 12.151937
23.825689999999998 23.603007 18.445676000000002
23.834341 17.502876999999998 18.12545
24.240266000000002 10.037032 11.448544
28.965329 18.409291 10.224858000000001
29.940242 16.944281 10.217343
29.680388 16.955238 37.593979000000004
23.166545000000003 12.343917000000001 17.330674000000002
23.71267 12.379578 18.889126
24.822641 12.365363 17.61166
30.838497 18.301103 37.589674
30.713187 18.502196 10.19915
30.687604 17.555782 12.379388
24.737212 10.201577 18.643240000000002
29.077404 17.39689 12.377253
36.077516 35.014038 29.326002
23.777919 28.824711 37.584892999999994
24.872047 30.262591 37.579758999999996
23.084435000000003 30.525188 37.63582699999999
24.046803999999998 30.830943 35.470175999999995
23.045457000000003 29.471505 35.427032999999994
24.641554000000003 29.259649 35.45429899999999
29.778973 18.899962 12.404018
24.121022 10.182437 16.958185
29.098517 18.672203 37.643985
35.615956 35.498295999999996 30.829975
18.702037999999998 36.5818 10.25695
16.955148 36.857539 10.549625
18.180336 37.792856 11.415076000000001
17.252154 36.029236999999995 12.763016
18.867401 35.733322 12.514373
17.742776 34.880268 11.584574
18.955217 37.630078999999995 18.102189
11.445076 17.592925 10.025934
10.164967 17.319135 11.316438
10.57454 18.981507 10.897423
22.947308 10.208535 18.345839
11.624184 18.310624 12.924433
12.383257 17.011699 12.11481
30.597933 17.301452 35.455465000000004
28.978754 17.692769 35.426475999999994
10.208588 22.863434 29.666275
10.181177 24.201663 30.848175
10.187981 24.641715 29.112598000000002
12.371354 24.822551999999998 30.037321
12.362186 23.594545999999998 28.967017
12.397018000000001 23.254561 30.59991
30.072861 18.920727 35.44243399999999
12.756522 18.585713000000002 11.780133000000001
34.945221000000004 36.180898 29.518803000000002
18.11294 37.599605999999994 28.861725
17.559712 37.609712 17.011072
30.188598 12.927569 36.171887
29.326898 24.686078 12.425833
30.313593 24.884665000000002 10.194783000000001
23.029471 36.700553 37.472122
24.875908 36.79056 37.415139999999994
23.809186999999998 37.812455 36.372851999999995
24.688966 35.931775 35.135504
23.033295 35.816976999999994 35.275384
23.975423000000003 34.851907 36.188062
28.824825 23.796231000000002 10.205467
30.461576 11.720739 34.98930299999999
30.460167000000002 23.08033 10.206157000000001
37.619187 24.575518 23.105394
37.611881 24.218526999999998 24.857302
35.470001999999994 24.863366000000003 24.077953
35.43335999999999 23.302021 24.605276
35.41976199999999 23.599379000000003 23.041938
30.782747 29.709639 12.388322
30.283119 28.917549 10.208346
28.85453 29.971756 10.225593
30.512288 30.644682 10.214788
29.525728 30.760523 12.365853
37.634316 22.917217 23.675481
18.783348 37.643981999999994 30.525793
28.917849 12.144856 35.46955799999999
29.214901 11.332397 37.647074
17.009975 37.606663 30.213189
17.233261 35.41821399999999 29.233191
17.835755 35.426445 30.781074
18.865554 35.437032 29.549047
36.508932 37.683696999999995 30.526252
36.973315 37.194576 28.800329
37.415891 22.984849999999998 36.743936000000005
37.456052 24.838459 36.739093999999994
36.328458 23.902698 37.83530999999999
35.18888199999999 24.737790999999998 35.854349
29.505231000000002 10.032072 36.401787999999996
35.176117000000005 23.096388 35.90688
37.75128099999999 36.439503 30.23976
24.52037 24.791522 37.64949299999999
22.898343 24.013891 37.63855099999999
24.378757 22.995694 37.597047
23.369356 23.095016 35.418317
24.869307000000003 23.79558 35.42173
23.475266 24.747696 35.443855
29.44331 23.029367 12.357054
30.816162 23.976384 12.347594
30.884665000000002 10.868671 37.204758
36.21603 23.892212 34.901667
17.264847 37.59971899999999 18.782779
30.157241 12.414928 18.869015
28.941864 12.362141 17.771981
37.634664 28.878918 23.595123
37.64421299999999 30.124431 24.885168
37.636067999999995 36.513304000000005 18.649303
37.207273 36.976679000000004 16.96525
36.385819 37.757228 18.307211
35.051413 36.075891999999996 17.331686
35.459706 35.616855 18.903304000000002
36.201606999999996 34.927284 17.601751
11.573793 34.879245999999995 23.972419
30.565941 37.59923499999999 29.054768
35.408080999999996 24.798153000000003 17.692877
28.808456 37.617484000000005 29.62258
29.208337 35.3986 30.560548
30.781686 35.44364399999999 30.086674
29.529341 35.44778099999999 28.954149
12.609233 35.832582 23.073301
12.657482 35.888385 24.734342
23.549803 10.19443 24.880434
23.285042 10.217837 23.126673
24.962394 10.183369 23.793116
24.266263 12.411114 23.049387
24.476158 12.404099 24.653150999999998
30.219422 37.608954999999995 30.850618
22.948346 12.351106 24.022956
35.468817 23.196668 17.286832
37.626396 22.935494000000002 18.261797
24.822121 12.106815000000001 12.403827
23.258827999999998 11.802015 12.788262
23.607014 12.91713 11.619882
22.919105 10.866562 10.557271
36.441041999999996 24.352816999999998 10.100543
37.725385 24.501894 11.355896
37.11643099999999 22.869246 10.811061
36.181945 23.493013 12.868559
35.00647599999999 23.365621 11.751074000000001
35.51935999999999 24.832558000000002 12.206138000000001
35.457527 23.698511 18.892731
35.418766000000005 29.18294 24.614826
11.491924000000001 37.825011 29.734305
10.308291 36.669884999999994 29.042749
10.471546 36.818606 30.814962
11.62498 34.840456 29.960305
12.694801 35.927854999999994 30.607055
12.564532 35.785065 28.949186
35.441886999999994 29.629138 22.950810999999998
37.593526 30.602564 23.215771999999998
37.644869 24.188595 16.927093
37.59647699999999 24.678602 18.665693
35.453114 30.788402 24.137021
11.473384 37.811637000000005 23.892168
10.373773 36.751214000000004 24.807607
30.671361 37.53196199999999 36.670356999999996
36.138555 12.848565 24.336266
10.197487 29.254419 18.757276
10.186067 29.443841 17.035946
23.702023 18.994614000000002 10.174787
24.858253 17.62681 10.171049
23.101907999999998 17.292234 10.22799
24.059741 17.032878 12.40062
23.023551 18.303951 12.363057
24.663856 18.606888 12.364122
18.56712 35.453343000000004 17.182879
35.525169000000005 12.211865 22.939595
18.673171 10.212436 30.655389
18.266829 10.214281 28.836345
17.32319 12.363734000000001 29.126689
18.871987999999998 12.385493 29.625756
17.695153 12.397669 30.762516
18.312248 35.399733999999995 18.843213000000002
17.04766 35.44539999999999 17.829474
29.493007 10.183514 17.01131
30.862598000000002 10.22242 18.153896
29.202566 10.21029 18.796489
24.647666 11.261952 10.22738
16.92095 10.23219 30.097378
34.937771999999995 11.72056 24.439603
36.407056 10.073294 23.446495000000002
37.10712099999999 10.742562 24.914445
28.88193 37.401099 36.81765899999999
29.996897 36.352261999999996 37.845648
29.069056 35.126013 35.970865
30.747534 35.294842 35.797494
29.737299 36.195268999999996 34.884332
10.359872 36.69139799999999 23.069484
37.593306 17.619611 24.912665999999998
37.653231000000005 17.259464 23.116872
37.595843 18.973666 23.7423
35.450765000000004 18.254714 22.981759999999998
35.455591 18.582192 24.669332999999998
35.45208099999999 17.047557 24.076184
12.392539000000001 28.924651 17.876316
12.349126 30.444592 17.205122
23.042089999999998 10.185962 29.316671
24.854848 10.18748 29.338775000000002
23.883038000000003 10.214062 30.935018
24.776111 12.361123000000001 30.338676
23.095254999999998 12.388737 30.309024
23.942543 12.391661000000001 28.915695
12.364251 30.236389 18.86579
10.185646 30.912283 18.111717000000002
37.673338 11.345897 23.359859
30.503420000000002 12.358136 17.236734
29.276973 29.132752 12.376082
17.979062 11.939119 29.922195
29.931667 29.863259 12.018939
35.82329 23.964962 12.068358
12.031324 35.792288 29.932559
35.82735099999999 23.836389999999998 17.937674
29.874499 18.047721 12.044699
35.88382299999999 35.839579 17.962035
35.85665899999999 23.936364 23.83588
11.945414 17.889869 12.010406
29.915941 35.748019 29.899165
23.934933 35.814081 35.716404999999995
29.91011 12.057659000000001 35.835941000000005
29.922444 35.837407 35.84455799999999
18.010353 35.806464000000005 12.072179
35.759164999999996 17.965744 23.853231
23.920403 11.930112 17.929978
23.909188 23.858317 35.873485
24.003903 12.024129 29.82516
35.744448000000006 12.002838 23.958288
35.755156 23.944396 35.868573
23.908621 17.954343 11.906842000000001
29.90265 12.06302 18.015273
17.895706 35.804123000000004 29.897931
23.858886000000002 29.87704 35.73725999999999
12.017008 23.820923 29.869889
23.846545000000003 12.041277000000001 23.897161999999998
35.796497 35.85282099999999 29.769948
29.78673 17.910322 35.790381999999994
23.892388999999998 12.06824 12.068124000000001
11.937468 35.756107 23.896266
29.825658 23.833161999999998 11.945944
12.01285 29.784937 17.906198
35.749865 29.868850000000002 23.850545
18.005205 35.824262000000004 18.028987
14.874116 15.204827 15.081018
20.633966 26.872106 14.830155000000001
26.723748 21.115313 26.769809
32.803305 14.882544 15.207758
14.765821 32.765617 14.93482
32.651022999999995 32.677202 32.569173
32.781947 14.666783 21.058384999999998
20.695429999999998 27.052009 21.115673
14.762034 32.847227000000004 20.876744
15.189865000000001 27.112674000000002 32.957397
26.561499 26.875057 26.766178
15.162009000000001 26.873222000000002 27.050988
21.191036999999998 26.887626 27.067821
32.98411 32.682124 14.814878
14.736521 26.753088 20.746591
32.688492 15.209601 33.064582
27.102149 20.838102000000003 15.033738
26.636469 20.729756 20.824538
26.99961 20.699524999999998 32.943991
14.798045 32.703736 26.60233
20.797429 20.711067 32.640146
21.032946 14.748662 32.67588
27.118548999999998 26.759536 33.036034
33.077054000000004 32.885947 26.731550000000002
20.680661 15.22092 26.936522
21.12348 20.711352 15.107685
27.062217999999998 32.632467000000005 14.767734
20.937594 15.144351 21.232951
26.895606 26.90217 20.583562
21.151238000000003 21.111106 20.996038000000002
20.743467 15.147548 14.916176
26.899292 32.641528 20.641261
26.971387 27.060873 14.854684
20.806771 20.743482 26.877835
26.993501 32.850418000000005 26.580406
32.643353000000005 32.758160000000004 20.723628
26.63879 32.579699000000005 32.769828000000004
14.818437 32.575375 33.029842
14.853113 27.142351 14.792359000000001
20.885577 27.127383 33.082683
32.908231 14.845581 27.053617
14.924773 15.207417 33.023621
20.929977 33.042522000000005 20.849641000000002
14.692421 14.875259 26.948452
26.777139000000002 15.263959 26.951840999999998
14.716163 21.050211 21.097812
26.843497000000003 14.704428 15.057728000000001
14.807623 20.870955 15.159102
32.698716000000005 20.781023 27.023848
32.989254 27.079459 20.976842
15.202204 20.749864 26.733413000000002
32.63971 20.766824 32.689024
21.116305999999998 32.688655 32.789007999999995
21.030361000000003 33.047672 14.941353
26.744361 14.80475 32.710328000000004
20.686353999999998 32.762473 26.849636999999998
32.560320000000004 21.145675 20.920566
15.24924 15.071046 20.721252
14.688247 20.833029 32.668197
32.710210000000004 27.008889 15.138743
32.602340999999996 26.949218 33.0353
33.063292000000004 26.938723 27.102642
26.938629000000002 15.127148 21.222182
32.803908 21.002516 15.197889
