3_train/203_cspbbr3_MA-Pyr-2-COO_4_0.40\203_cspbbr3_MA-Pyr-2-COO_4_0.40.xyz
1.0
48.059188 0 0
0 48.059188 0
0 0 48.059188
Br C Cs H N O Pb 
198 244 78 372 76 84 64 
Cartesian
15.104593999999999 15.104593999999999 12.129593999999999
15.104593999999999 12.129593999999999 15.104593999999999
15.104593999999999 15.104593999999999 18.079594
15.104593999999999 12.129593999999999 21.054594
15.104593999999999 15.104593999999999 24.029593999999996
12.129593999999999 15.104593999999999 27.004593999999997
15.104593999999999 15.104593999999999 29.979594
15.104593999999999 12.129593999999999 32.954594
12.129593999999999 15.104593999999999 32.954594
15.104593999999999 18.079594 15.104593999999999
15.104593999999999 21.054594 18.079594
15.104593999999999 18.079594 21.054594
15.104593999999999 21.054594 24.029593999999996
15.104593999999999 18.079594 27.004593999999997
15.104593999999999 21.054594 29.979594
15.104593999999999 18.079594 32.954594
12.129593999999999 21.054594 32.954594
15.104593999999999 21.054594 35.929594
15.104593999999999 27.004593999999997 12.129593999999999
15.104593999999999 24.029593999999996 15.104593999999999
12.129593999999999 27.004593999999997 15.104593999999999
15.104593999999999 27.004593999999997 18.079594
15.104593999999999 24.029593999999996 21.054594
12.129593999999999 27.004593999999997 21.054594
15.104593999999999 27.004593999999997 24.029593999999996
15.104593999999999 24.029593999999996 27.004593999999997
15.104593999999999 27.004593999999997 29.979594
15.104593999999999 24.029593999999996 32.954594
12.129593999999999 27.004593999999997 32.954594
15.104593999999999 27.004593999999997 35.929594
15.104593999999999 29.979594 15.104593999999999
12.129593999999999 32.954594 15.104593999999999
15.104593999999999 32.954594 18.079594
15.104593999999999 29.979594 21.054594
12.129593999999999 32.954594 21.054594
15.104593999999999 32.954594 24.029593999999996
15.104593999999999 29.979594 27.004593999999997
12.129593999999999 32.954594 27.004593999999997
15.104593999999999 32.954594 29.979594
15.104593999999999 29.979594 32.954594
15.104593999999999 35.929594 32.954594
21.054594 12.129593999999999 15.104593999999999
18.079594 15.104593999999999 15.104593999999999
21.054594 15.104593999999999 18.079594
21.054594 12.129593999999999 21.054594
18.079594 15.104593999999999 21.054594
21.054594 15.104593999999999 24.029593999999996
21.054594 12.129593999999999 27.004593999999997
18.079594 15.104593999999999 27.004593999999997
21.054594 15.104593999999999 29.979594
18.079594 15.104593999999999 32.954594
21.054594 21.054594 12.129593999999999
21.054594 18.079594 15.104593999999999
18.079594 21.054594 15.104593999999999
21.054594 21.054594 18.079594
21.054594 18.079594 21.054594
18.079594 21.054594 21.054594
21.054594 21.054594 24.029593999999996
21.054594 18.079594 27.004593999999997
18.079594 21.054594 27.004593999999997
21.054594 21.054594 29.979594
21.054594 18.079594 32.954594
18.079594 21.054594 32.954594
21.054594 21.054594 35.929594
21.054594 24.029593999999996 15.104593999999999
18.079594 27.004593999999997 15.104593999999999
21.054594 27.004593999999997 18.079594
21.054594 24.029593999999996 21.054594
18.079594 27.004593999999997 21.054594
21.054594 27.004593999999997 24.029593999999996
21.054594 24.029593999999996 27.004593999999997
18.079594 27.004593999999997 27.004593999999997
21.054594 27.004593999999997 29.979594
21.054594 24.029593999999996 32.954594
18.079594 27.004593999999997 32.954594
21.054594 29.979594 15.104593999999999
18.079594 32.954594 15.104593999999999
21.054594 32.954594 18.079594
21.054594 29.979594 21.054594
18.079594 32.954594 21.054594
21.054594 32.954594 24.029593999999996
21.054594 29.979594 27.004593999999997
18.079594 32.954594 27.004593999999997
21.054594 32.954594 29.979594
21.054594 29.979594 32.954594
18.079594 32.954594 32.954594
21.054594 35.929594 21.054594
21.054594 35.929594 27.004593999999997
21.054594 35.929594 32.954594
27.004593999999997 15.104593999999999 12.129593999999999
27.004593999999997 12.129593999999999 15.104593999999999
24.029593999999996 15.104593999999999 15.104593999999999
27.004593999999997 15.104593999999999 18.079594
24.029593999999996 15.104593999999999 21.054594
27.004593999999997 15.104593999999999 24.029593999999996
27.004593999999997 12.129593999999999 27.004593999999997
24.029593999999996 15.104593999999999 27.004593999999997
27.004593999999997 15.104593999999999 29.979594
27.004593999999997 12.129593999999999 32.954594
24.029593999999996 15.104593999999999 32.954594
27.004593999999997 15.104593999999999 35.929594
27.004593999999997 21.054594 12.129593999999999
27.004593999999997 18.079594 15.104593999999999
24.029593999999996 21.054594 15.104593999999999
27.004593999999997 21.054594 18.079594
27.004593999999997 18.079594 21.054594
24.029593999999996 21.054594 21.054594
27.004593999999997 21.054594 24.029593999999996
27.004593999999997 18.079594 27.004593999999997
24.029593999999996 21.054594 27.004593999999997
27.004593999999997 21.054594 29.979594
27.004593999999997 18.079594 32.954594
24.029593999999996 21.054594 32.954594
27.004593999999997 21.054594 35.929594
27.004593999999997 27.004593999999997 12.129593999999999
27.004593999999997 24.029593999999996 15.104593999999999
24.029593999999996 27.004593999999997 15.104593999999999
27.004593999999997 27.004593999999997 18.079594
27.004593999999997 24.029593999999996 21.054594
24.029593999999996 27.004593999999997 21.054594
27.004593999999997 27.004593999999997 24.029593999999996
27.004593999999997 24.029593999999996 27.004593999999997
24.029593999999996 27.004593999999997 27.004593999999997
27.004593999999997 27.004593999999997 29.979594
27.004593999999997 24.029593999999996 32.954594
24.029593999999996 27.004593999999997 32.954594
27.004593999999997 32.954594 12.129593999999999
27.004593999999997 29.979594 15.104593999999999
24.029593999999996 32.954594 15.104593999999999
27.004593999999997 32.954594 18.079594
27.004593999999997 29.979594 21.054594
24.029593999999996 32.954594 21.054594
27.004593999999997 32.954594 24.029593999999996
27.004593999999997 29.979594 27.004593999999997
24.029593999999996 32.954594 27.004593999999997
27.004593999999997 32.954594 29.979594
27.004593999999997 29.979594 32.954594
24.029593999999996 32.954594 32.954594
27.004593999999997 32.954594 35.929594
27.004593999999997 35.929594 15.104593999999999
27.004593999999997 35.929594 21.054594
27.004593999999997 35.929594 27.004593999999997
27.004593999999997 35.929594 32.954594
32.954594 15.104593999999999 12.129593999999999
29.979594 15.104593999999999 15.104593999999999
32.954594 15.104593999999999 18.079594
29.979594 15.104593999999999 21.054594
32.954594 15.104593999999999 24.029593999999996
29.979594 15.104593999999999 27.004593999999997
32.954594 15.104593999999999 29.979594
29.979594 15.104593999999999 32.954594
32.954594 15.104593999999999 35.929594
32.954594 18.079594 15.104593999999999
29.979594 21.054594 15.104593999999999
32.954594 21.054594 18.079594
32.954594 18.079594 21.054594
29.979594 21.054594 21.054594
32.954594 21.054594 24.029593999999996
32.954594 18.079594 27.004593999999997
29.979594 21.054594 27.004593999999997
32.954594 21.054594 29.979594
32.954594 18.079594 32.954594
29.979594 21.054594 32.954594
32.954594 21.054594 35.929594
32.954594 24.029593999999996 15.104593999999999
29.979594 27.004593999999997 15.104593999999999
32.954594 27.004593999999997 18.079594
32.954594 24.029593999999996 21.054594
29.979594 27.004593999999997 21.054594
32.954594 27.004593999999997 24.029593999999996
32.954594 24.029593999999996 27.004593999999997
29.979594 27.004593999999997 27.004593999999997
32.954594 27.004593999999997 29.979594
32.954594 24.029593999999996 32.954594
29.979594 27.004593999999997 32.954594
32.954594 32.954594 12.129593999999999
32.954594 29.979594 15.104593999999999
29.979594 32.954594 15.104593999999999
32.954594 32.954594 18.079594
32.954594 29.979594 21.054594
29.979594 32.954594 21.054594
32.954594 32.954594 24.029593999999996
32.954594 29.979594 27.004593999999997
29.979594 32.954594 27.004593999999997
32.954594 32.954594 29.979594
32.954594 29.979594 32.954594
29.979594 32.954594 32.954594
32.954594 32.954594 35.929594
32.954594 35.929594 32.954594
35.929594 15.104593999999999 21.054594
35.929594 15.104593999999999 27.004593999999997
35.929594 15.104593999999999 32.954594
35.929594 21.054594 27.004593999999997
35.929594 21.054594 32.954594
35.929594 27.004593999999997 32.954594
35.929594 32.954594 15.104593999999999
35.929594 32.954594 27.004593999999997
35.929594 32.954594 32.954594
15.15946 33.445726 39.608678999999995
15.180259999999999 34.011478 38.326357
15.104593999999999 32.954594 37.40086599999999
15.060609999999999 32.05545 39.452663
15.104593999999999 32.954594 35.929594
33.010362 27.495624 39.608678999999995
33.032201 28.061338 38.326357
32.954594 27.004593999999997 37.40086599999999
32.90896 26.105531999999997 39.452663
32.954594 27.004593999999997 35.929594
26.620306 27.315309 39.608678999999995
26.154796999999995 27.637504 38.326357
27.004593999999997 27.004593999999997 37.40086599999999
27.738538999999996 26.483326999999996 39.452663
27.004593999999997 27.004593999999997 35.929594
20.563526 32.899161 39.608678999999995
20.007250999999997 32.79396 38.326357
21.054594 32.954594 37.40086599999999
21.941097999999997 33.111135 39.452663
21.054594 32.954594 35.929594
21.061161999999996 14.610451 39.608678999999995
21.110802999999997 14.046496 38.326357
21.054594 15.104593999999999 37.40086599999999
20.986542 16.002237 39.452663
21.054594 15.104593999999999 35.929594
21.308380999999997 27.428636999999995 39.608678999999995
21.562151 27.934709999999995 38.326357
21.054594 27.004593999999997 37.40086599999999
20.64134 26.204833999999998 39.452663
21.054594 27.004593999999997 35.929594
15.077751999999998 14.611137 39.608678999999995
15.089165999999999 14.045117 38.326357
15.104593999999999 15.104593999999999 37.40086599999999
15.097363 16.004784 39.452663
15.104593999999999 15.104593999999999 35.929594
20.603071999999997 15.305463999999999 8.450508999999998
20.104377999999997 15.573443 9.732831
21.054594 15.104593999999999 10.658321999999998
21.852685 14.688127 8.606525
21.054594 15.104593999999999 12.129593999999999
20.606153 26.796937 8.450508999999998
20.076141999999997 26.597946999999998 9.732831
21.054594 27.004593999999997 10.658321999999998
21.893471999999996 27.33121 8.606525
21.054594 27.004593999999997 12.129593999999999
14.616138 20.979551999999998 8.450508999999998
14.051720999999999 20.935476 9.732831
15.104593999999999 21.054594 10.658321999999998
16.001164 21.135560999999996 8.606525
15.104593999999999 21.054594 12.129593999999999
32.853208 21.538269 8.450508999999998
32.778629 22.099469999999997 9.732831
32.954594 21.054594 10.658321999999998
33.083999999999996 20.163724 8.606525
32.954594 21.054594 12.129593999999999
14.637488 33.115941 8.450508999999998
14.117619999999999 33.340097 9.732831
15.104593999999999 32.954594 10.658321999999998
15.935505999999998 32.608214 8.606525
15.104593999999999 32.954594 12.129593999999999
32.489259 27.17098 8.450508999999998
31.971845000000002 27.400742 9.732831
32.954594 27.004593999999997 10.658321999999998
33.781714 26.649253 8.606525
32.954594 27.004593999999997 12.129593999999999
20.624747 33.198423 8.450508999999998
20.154477999999997 33.513629 9.732831
21.054594 32.954594 10.658321999999998
21.808400999999996 32.462486999999996 8.606525
21.054594 32.954594 12.129593999999999
8.450508999999998 32.497304 33.141961
9.732831 31.990868 33.395006
10.658321999999998 32.954594 32.954594
8.606525 33.764706 32.562021
12.129593999999999 32.954594 32.954594
8.450508999999998 14.946663 20.586322
9.732831 14.72631 20.064830999999998
10.658321999999998 15.104593999999999 21.054594
8.606525 15.444895999999998 21.888014
12.129593999999999 15.104593999999999 21.054594
8.450508999999998 27.377347999999998 26.680132
9.732831 27.775517 26.277678
10.658321999999998 27.004593999999997 27.004593999999997
8.606525 26.363743 27.636815999999996
12.129593999999999 27.004593999999997 27.004593999999997
8.450508999999998 15.049707999999999 14.613463999999999
9.732831 14.945126 14.057072999999999
10.658321999999998 15.104593999999999 15.104593999999999
8.606525 15.260148 15.991271999999999
12.129593999999999 15.104593999999999 15.104593999999999
8.450508999999998 20.978167999999997 20.566352
9.732831 20.849224999999997 20.015096999999997
10.658321999999998 21.054594 21.054594
8.606525 21.248981 21.933574999999998
12.129593999999999 21.054594 21.054594
8.450508999999998 21.520533999999998 27.169278999999996
9.732831 22.066871 27.317684
10.658321999999998 21.054594 27.004593999999997
8.606525 20.188782 26.758091999999998
12.129593999999999 21.054594 27.004593999999997
8.450508999999998 21.339405 15.508455
9.732831 21.699214999999995 15.945542
10.658321999999998 21.054594 15.104593999999999
8.606525 20.490927999999997 14.402686
12.129593999999999 21.054594 15.104593999999999
39.608678999999995 20.644843 21.330864
38.326357 20.153180999999996 21.611537
37.40086599999999 21.054594 21.054594
39.452663 21.830920999999996 20.598841999999998
35.929594 21.054594 21.054594
39.608678999999995 27.4961 15.053189999999999
38.326357 28.061985 15.036378999999998
37.40086599999999 27.004593999999997 15.104593999999999
39.452663 26.105162 15.142238999999998
35.929594 27.004593999999997 15.104593999999999
39.608678999999995 20.777485 15.513777999999999
38.326357 20.426021 15.957603999999998
37.40086599999999 21.054594 15.104593999999999
39.452663 21.604861 14.392133
35.929594 21.054594 15.104593999999999
39.608678999999995 26.748008999999996 21.476949999999995
38.326357 26.418867999999996 21.937574999999995
37.40086599999999 27.004593999999997 21.054594
39.452663 27.519042 20.315854
35.929594 27.004593999999997 21.054594
39.608678999999995 15.4154 14.720379999999999
38.326357 15.803230999999998 14.307953
37.40086599999999 15.104593999999999 15.104593999999999
39.452663 14.495897999999999 15.767831
35.929594 15.104593999999999 15.104593999999999
39.608678999999995 32.616538999999996 21.415065
38.326357 32.199602999999996 21.798044999999995
37.40086599999999 32.954594 21.054594
39.452663 33.610134 20.437616
35.929594 32.954594 21.054594
39.608678999999995 27.426227999999995 26.746823999999997
38.326357 27.929888 26.488298999999998
37.40086599999999 27.004593999999997 27.004593999999997
39.452663 26.208762999999998 27.425362999999997
35.929594 27.004593999999997 27.004593999999997
32.460495 8.450508999999998 21.063919999999996
31.895235999999997 9.732831 21.032441
32.954594 10.658321999999998 21.054594
33.853961 8.606525 21.093742999999996
32.954594 12.129593999999999 21.054594
32.630522 8.450508999999998 26.631501999999998
32.292113 9.732831 26.177642999999996
32.954594 10.658321999999998 27.004593999999997
33.501417 8.606525 27.719701999999998
32.954594 12.129593999999999 27.004593999999997
21.344803 8.450508999999998 32.554595
21.71045 9.732831 32.122379
21.054594 10.658321999999998 32.954594
20.481552 8.606525 33.648869
21.054594 12.129593999999999 32.954594
32.46393 8.450508999999998 32.895689
31.908414 9.732831 32.786555
32.954594 10.658321999999998 32.954594
33.839968 8.606525 33.117402
32.954594 12.129593999999999 32.954594
33.170336999999996 8.450508999999998 15.549200999999998
33.378890999999996 9.732831 16.075522
32.954594 10.658321999999998 15.104593999999999
32.612842 8.606525 14.271766999999999
32.954594 12.129593999999999 15.104593999999999
14.679460999999998 8.450508999999998 27.256552
14.172299999999998 9.732831 27.508139999999997
15.104593999999999 10.658321999999998 27.004593999999997
15.906125999999999 8.606525 26.594789
15.104593999999999 12.129593999999999 27.004593999999997
27.481237999999998 8.450508999999998 20.92409
28.036888999999995 9.732831 20.815646
27.004593999999997 10.658321999999998 21.054594
26.123201 8.606525 21.237736999999996
27.004593999999997 12.129593999999999 21.054594
15.582984 39.608678999999995 26.880643999999997
16.118932 38.326357 26.698248999999997
15.104593999999999 37.40086599999999 27.004593999999997
14.24892 39.452663 27.284264999999998
15.104593999999999 35.929594 27.004593999999997
21.461211 39.608678999999995 14.823732999999999
21.901784999999997 38.326357 14.4682
21.054594 37.40086599999999 15.104593999999999
20.347226 39.452663 15.661392
21.054594 35.929594 15.104593999999999
32.739921 39.608678999999995 15.549719
32.532633 38.326357 16.07654
32.954594 37.40086599999999 15.104593999999999
33.294342 39.452663 14.270947999999999
32.954594 35.929594 15.104593999999999
15.457880999999999 39.608678999999995 14.759037999999999
15.832014 38.326357 14.334145999999999
15.104593999999999 37.40086599999999 15.104593999999999
14.501529 39.452663 15.772955
15.104593999999999 35.929594 15.104593999999999
15.272051999999999 39.608678999999995 21.519543999999996
15.503005 38.326357 22.036428
15.104593999999999 37.40086599999999 21.054594
14.747347999999999 39.452663 20.228295
15.104593999999999 35.929594 21.054594
32.940941 39.608678999999995 27.498591999999995
32.967468 38.326357 28.064104999999998
32.954594 37.40086599999999 27.004593999999997
32.923324 39.452663 26.104917999999998
32.954594 35.929594 27.004593999999997
32.679073 39.608678999999995 20.644338999999995
32.329330999999996 38.326357 20.199154999999998
32.954594 37.40086599999999 21.054594
33.502096 39.452663 21.769182
32.954594 35.929594 21.054594
36.973044 18.079594 36.973044
29.979594 36.973044 36.973044
10.653932999999999 24.029593999999996 29.979594
36.973044 36.973044 29.979594
24.029593999999996 11.086143999999999 11.086143999999999
24.029593999999996 29.979594 10.653932999999999
24.029593999999996 18.079594 37.405255
10.653932999999999 29.979594 29.979594
10.653932999999999 24.029593999999996 18.079594
18.079594 11.086143999999999 11.086143999999999
29.979594 18.079594 37.405255
29.979594 11.086143999999999 11.086143999999999
29.979594 18.079594 10.653932999999999
29.979594 29.979594 10.653932999999999
36.973044 11.086143999999999 24.029593999999996
24.029593999999996 37.405255 29.979594
18.079594 29.979594 37.405255
36.973044 36.973044 18.079594
11.086143999999999 36.973044 29.979594
10.653932999999999 18.079594 18.079594
11.086143999999999 11.086143999999999 29.979594
24.029593999999996 11.086143999999999 36.973044
18.079594 37.405255 18.079594
10.653932999999999 29.979594 18.079594
24.029593999999996 18.079594 10.653932999999999
24.029593999999996 10.653932999999999 18.079594
11.086143999999999 18.079594 11.086143999999999
29.979594 10.653932999999999 18.079594
18.079594 37.405255 29.979594
36.973044 24.029593999999996 11.086143999999999
18.079594 10.653932999999999 29.979594
29.979594 10.653932999999999 24.029593999999996
18.079594 24.029593999999996 37.405255
18.079594 11.086143999999999 36.973044
12.129593999999999 12.129593999999999 18.079594
12.129593999999999 12.129593999999999 24.029593999999996
12.129593999999999 18.079594 24.029593999999996
12.129593999999999 18.079594 29.979594
12.129593999999999 18.079594 35.929594
12.129593999999999 24.029593999999996 12.129593999999999
12.129593999999999 24.029593999999996 24.029593999999996
12.129593999999999 24.029593999999996 35.929594
12.129593999999999 29.979594 12.129593999999999
12.129593999999999 29.979594 24.029593999999996
12.129593999999999 29.979594 35.929594
12.129593999999999 35.929594 18.079594
12.129593999999999 35.929594 24.029593999999996
18.079594 12.129593999999999 24.029593999999996
18.079594 18.079594 12.129593999999999
18.079594 18.079594 18.079594
18.079594 18.079594 24.029593999999996
18.079594 18.079594 29.979594
18.079594 18.079594 35.929594
18.079594 24.029593999999996 18.079594
18.079594 24.029593999999996 24.029593999999996
18.079594 24.029593999999996 29.979594
18.079594 29.979594 12.129593999999999
18.079594 29.979594 18.079594
18.079594 29.979594 24.029593999999996
18.079594 29.979594 29.979594
18.079594 35.929594 12.129593999999999
18.079594 35.929594 24.029593999999996
18.079594 35.929594 35.929594
24.029593999999996 12.129593999999999 29.979594
24.029593999999996 18.079594 18.079594
24.029593999999996 18.079594 24.029593999999996
24.029593999999996 18.079594 29.979594
24.029593999999996 24.029593999999996 12.129593999999999
24.029593999999996 24.029593999999996 18.079594
24.029593999999996 24.029593999999996 24.029593999999996
24.029593999999996 24.029593999999996 29.979594
24.029593999999996 29.979594 18.079594
24.029593999999996 29.979594 24.029593999999996
24.029593999999996 29.979594 29.979594
24.029593999999996 29.979594 35.929594
24.029593999999996 35.929594 12.129593999999999
24.029593999999996 35.929594 18.079594
24.029593999999996 35.929594 24.029593999999996
24.029593999999996 35.929594 35.929594
29.979594 12.129593999999999 29.979594
29.979594 18.079594 18.079594
29.979594 18.079594 24.029593999999996
29.979594 18.079594 29.979594
29.979594 24.029593999999996 12.129593999999999
29.979594 24.029593999999996 18.079594
29.979594 24.029593999999996 24.029593999999996
29.979594 24.029593999999996 29.979594
29.979594 24.029593999999996 35.929594
29.979594 29.979594 18.079594
29.979594 29.979594 24.029593999999996
29.979594 29.979594 29.979594
29.979594 29.979594 35.929594
29.979594 35.929594 12.129593999999999
29.979594 35.929594 18.079594
29.979594 35.929594 24.029593999999996
29.979594 35.929594 29.979594
35.929594 12.129593999999999 18.079594
35.929594 12.129593999999999 29.979594
35.929594 18.079594 12.129593999999999
35.929594 18.079594 18.079594
35.929594 18.079594 24.029593999999996
35.929594 18.079594 29.979594
35.929594 24.029593999999996 18.079594
35.929594 24.029593999999996 24.029593999999996
35.929594 24.029593999999996 29.979594
35.929594 24.029593999999996 35.929594
35.929594 29.979594 12.129593999999999
35.929594 29.979594 18.079594
35.929594 29.979594 24.029593999999996
35.929594 29.979594 29.979594
35.929594 29.979594 35.929594
35.929594 35.929594 24.029593999999996
14.992909 31.265606 40.195387999999994
15.210721999999999 33.967602 40.559188
15.248287 35.060301 38.056038
14.931965 30.867117999999998 37.68549
32.839808 25.315813999999996 40.195387999999994
33.062582 28.017406 40.559188
33.102153 29.110033 38.056038
32.778132 24.917437999999997 37.68549
28.367613 26.000934 40.195387999999994
26.208171999999998 27.639542999999996 40.559188
25.307679 28.259634 38.056038
28.670566 25.734989 37.68549
22.726284999999997 33.220306 40.195387999999994
20.043278 32.833394 40.559188
18.969464000000002 32.627663999999996 38.056038
23.128364999999995 33.249265 37.68549
20.955602999999996 16.794373 40.195387999999994
21.075126999999995 14.086248 40.559188
21.173592 12.997347 38.056038
20.966572999999997 17.197345999999996 37.68549
20.251879 25.514359 40.195387999999994
21.571650999999996 27.882148 40.559188
22.059410999999997 28.860663000000002 38.056038
20.031019 25.177121999999997 37.68549
15.120028999999999 16.797199999999997 40.195387999999994
15.056258 14.087188999999999 40.559188
15.080905999999999 12.994122999999998 38.056038
15.158208 17.19851 37.68549
22.56845 14.347366 7.8637999999999995
20.126843 15.524982999999999 7.499999999999999
19.164979 16.044809 10.00315
22.943101999999996 14.198561 10.373698
22.621167 27.645688999999997 7.8637999999999995
20.127409 26.582957 7.499999999999999
19.102916 26.201101 10.00315
22.979813 27.829755999999996 10.373698
16.787551 21.235726999999997 7.8637999999999995
14.096813999999998 20.906846 7.499999999999999
13.006589 20.824323 10.00315
17.183192 21.313026 10.373698
33.226607 19.383916999999997 7.8637999999999995
32.752484 22.052892999999997 7.499999999999999
32.611036 23.137048 10.00315
33.32522 18.993043 10.373698
16.677892999999997 32.330189 7.8637999999999995
14.144163999999998 33.293746 7.499999999999999
13.141207999999999 33.729037 10.00315
17.063941999999997 32.214112 10.373698
34.521052 26.363219 7.8637999999999995
31.997886 27.354107 7.499999999999999
30.999693 27.800213999999997 10.00315
34.905824 26.242976999999996 10.373698
22.487632999999995 32.053732 7.8637999999999995
20.172123 33.463215 7.499999999999999
19.265372999999997 34.074118999999996 10.00315
22.846038 31.869197 10.373698
7.8637999999999995 34.490277999999996 32.242675
7.499999999999999 32.014763 33.347235
10.00315 31.037881 33.838257
10.373698 34.869185 32.105066
7.8637999999999995 15.717491999999998 22.632411999999995
7.499999999999999 14.772466 20.091713
10.00315 14.344510999999999 19.085603999999996
10.373698 15.830746 23.019298
7.8637999999999995 25.779395 28.172514999999997
7.499999999999999 27.768253 26.330594999999995
10.00315 28.535359999999997 25.551527
10.373698 25.464861 28.424656999999996
7.8637999999999995 15.368443999999998 16.77658
7.499999999999999 14.984520999999999 14.093143999999999
10.00315 14.779987 13.019101999999998
10.373698 15.396955 17.178691999999998
7.8637999999999995 21.391698999999996 22.713361999999996
7.499999999999999 20.890167999999996 20.049400999999996
10.00315 20.63861 18.98539
10.373698 21.437861999999996 23.113833
7.8637999999999995 19.434801 26.513245999999995
7.499999999999999 22.017235999999997 27.337415999999997
10.00315 23.073026 27.621507
10.373698 19.060473 26.363625999999996
7.8637999999999995 20.017528 13.766817
7.499999999999999 21.647312 15.932926
10.00315 22.344201999999996 16.77539
10.373698 19.798730999999997 13.428239
40.195387999999994 22.499406 20.172736999999998
40.559188 20.206179 21.618190999999996
38.056038 19.255370999999997 22.157973
37.68549 22.82425 19.934025
40.195387999999994 25.314861 15.204372999999999
40.559188 28.018324999999997 15.005607999999999
38.056038 29.111261 14.975746
37.68549 24.915952999999995 15.262506
40.195387999999994 22.066128999999997 13.747409999999999
40.559188 20.477674999999998 15.944007
38.056038 19.796871 16.799521999999996
37.68549 22.278472 13.404746999999999
40.195387999999994 27.947942999999995 19.649160000000002
40.559188 26.469789 21.921445999999996
38.056038 25.832018999999995 22.809506
37.68549 28.143122999999996 19.296438000000002
40.195387999999994 13.981623999999998 16.371121
40.559188 15.75061 14.317122
38.056038 16.501503 13.522414
37.68549 13.740991 16.694544999999998
40.195387999999994 34.167124 19.873526
40.559188 32.252753 21.792747
38.056038 31.445788 22.530451
37.68549 34.430751 19.568553
40.195387999999994 25.521986 27.821311
40.559188 27.877238999999996 26.479293999999996
38.056038 28.851115999999998 25.982338999999996
37.68549 25.186844999999998 28.045336999999996
34.646682999999996 7.8637999999999995 21.099191999999995
31.936115 7.499999999999999 21.066820999999997
30.844611 10.00315 21.003425
35.049094 10.373698 21.075268
34.005691 7.8637999999999995 28.331375
32.291957 7.499999999999999 26.231055999999995
31.640498 10.00315 25.352987999999996
34.282154 10.373698 28.624761
19.999654999999997 7.8637999999999995 34.278321999999996
21.658383 7.499999999999999 32.134297
22.366524999999996 10.00315 31.301268
19.776331 10.373698 34.613932
34.624363 7.8637999999999995 33.232124
31.944161 7.499999999999999 32.826244
30.871828999999998 10.00315 32.612923
35.026229 10.373698 33.263927
32.285238 7.8637999999999995 13.549887
33.39295 7.499999999999999 16.023992
33.793293999999996 10.00315 17.041403
32.094707 10.373698 13.194631999999999
16.598273 7.8637999999999995 26.208304999999996
14.224820999999999 7.499999999999999 27.517865999999998
13.244214 10.00315 28.001407
16.936458000000002 10.373698 25.988901
25.353466999999995 7.8637999999999995 21.427329
27.988813999999998 7.499999999999999 20.792370999999996
29.062407999999998 10.00315 20.585498
24.969285 10.373698 21.549442999999997
13.486892999999998 40.195387999999994 27.502786999999998
16.08881 40.559188 26.742357999999996
17.123013999999998 38.056038 26.387642
13.092882 37.68549 27.588009999999997
19.706773 40.195387999999994 16.128573
21.888664 40.559188 14.519976999999999
22.737879 38.056038 13.831330999999999
19.366079 37.68549 16.344059
33.62021 40.195387999999994 13.548281999999999
32.51845 40.559188 16.025044
32.120553 38.056038 17.043414
33.809886 37.68549 13.192569999999998
13.949267999999998 40.195387999999994 16.341676999999997
15.827834 40.559188 14.387395999999999
16.548417 38.056038 13.565105999999998
13.649902999999998 37.68549 16.611655
14.459611999999998 40.195387999999994 19.489618
15.456309999999998 40.559188 22.010494
15.904715999999999 38.056038 23.007656999999995
14.338482999999998 37.68549 19.105123999999996
32.924818 40.195387999999994 25.312179999999998
32.933447 40.559188 28.022926999999996
32.987280999999996 38.056038 29.114945
32.952265 37.68549 24.909993
33.960862999999996 40.195387999999994 22.415687999999996
32.380932 40.559188 20.212952
31.703448 38.056038 19.354805
34.171876 37.68549 22.759170999999995
36.735535999999996 17.284934999999997 37.682787
37.932601 17.896853 36.485721999999996
36.959346999999994 19.056993999999996 37.45897599999999
36.101107 18.811956000000002 35.228116
34.997885 18.248008999999996 36.331337
35.894842 17.178817 35.434381
29.308327999999996 36.648123999999996 37.770199999999996
31.002355 37.078616 37.339707
29.628098 37.900745 36.517578
30.598236 36.181667 35.147556
29.037011999999997 35.784923 35.5443
30.303534999999997 35.027243999999996 36.301978
10.320011999999998 23.037265999999995 30.28848