3_train/227_cspbbr3_MA-BzO_4_0.40\227_cspbbr3_MA-BzO_4_0.40.xyz
1.0
49.788652 0 0
0 49.788652 0
0 0 49.788652
Br C Cs H N O Pb 
198 328 78 414 34 84 64 
Cartesian
15.969325999999999 15.969325999999999 12.994326
15.969325999999999 12.994326 15.969325999999999
12.994326 15.969325999999999 15.969325999999999
15.969325999999999 15.969325999999999 18.944325999999997
15.969325999999999 12.994326 21.919325999999998
15.969325999999999 15.969325999999999 24.894326
15.969325999999999 15.969325999999999 30.844326000000002
12.994326 15.969325999999999 33.819326
15.969325999999999 15.969325999999999 36.794326
15.969325999999999 21.919325999999998 12.994326
15.969325999999999 18.944325999999997 15.969325999999999
15.969325999999999 21.919325999999998 18.944325999999997
15.969325999999999 18.944325999999997 21.919325999999998
12.994326 21.919325999999998 21.919325999999998
15.969325999999999 21.919325999999998 24.894326
15.969325999999999 18.944325999999997 27.869326
15.969325999999999 21.919325999999998 30.844326000000002
15.969325999999999 18.944325999999997 33.819326
12.994326 21.919325999999998 33.819326
15.969325999999999 21.919325999999998 36.794326
15.969325999999999 24.894326 15.969325999999999
15.969325999999999 27.869326 18.944325999999997
15.969325999999999 24.894326 21.919325999999998
12.994326 27.869326 21.919325999999998
15.969325999999999 27.869326 24.894326
15.969325999999999 24.894326 27.869326
15.969325999999999 27.869326 30.844326000000002
15.969325999999999 24.894326 33.819326
12.994326 27.869326 33.819326
15.969325999999999 27.869326 36.794326
15.969325999999999 30.844326000000002 15.969325999999999
12.994326 33.819326 15.969325999999999
15.969325999999999 33.819326 18.944325999999997
15.969325999999999 30.844326000000002 21.919325999999998
12.994326 33.819326 21.919325999999998
15.969325999999999 33.819326 24.894326
15.969325999999999 30.844326000000002 27.869326
12.994326 33.819326 27.869326
15.969325999999999 33.819326 30.844326000000002
15.969325999999999 30.844326000000002 33.819326
15.969325999999999 36.794326 15.969325999999999
15.969325999999999 36.794326 27.869326
21.919325999999998 15.969325999999999 12.994326
21.919325999999998 12.994326 15.969325999999999
18.944325999999997 15.969325999999999 15.969325999999999
21.919325999999998 15.969325999999999 18.944325999999997
18.944325999999997 15.969325999999999 21.919325999999998
21.919325999999998 15.969325999999999 24.894326
21.919325999999998 12.994326 27.869326
18.944325999999997 15.969325999999999 27.869326
21.919325999999998 15.969325999999999 30.844326000000002
21.919325999999998 12.994326 33.819326
18.944325999999997 15.969325999999999 33.819326
21.919325999999998 15.969325999999999 36.794326
21.919325999999998 18.944325999999997 15.969325999999999
18.944325999999997 21.919325999999998 15.969325999999999
21.919325999999998 21.919325999999998 18.944325999999997
21.919325999999998 18.944325999999997 21.919325999999998
18.944325999999997 21.919325999999998 21.919325999999998
21.919325999999998 21.919325999999998 24.894326
21.919325999999998 18.944325999999997 27.869326
18.944325999999997 21.919325999999998 27.869326
21.919325999999998 21.919325999999998 30.844326000000002
21.919325999999998 18.944325999999997 33.819326
18.944325999999997 21.919325999999998 33.819326
21.919325999999998 24.894326 15.969325999999999
18.944325999999997 27.869326 15.969325999999999
21.919325999999998 27.869326 18.944325999999997
21.919325999999998 24.894326 21.919325999999998
18.944325999999997 27.869326 21.919325999999998
21.919325999999998 27.869326 24.894326
21.919325999999998 24.894326 27.869326
18.944325999999997 27.869326 27.869326
21.919325999999998 27.869326 30.844326000000002
21.919325999999998 24.894326 33.819326
18.944325999999997 27.869326 33.819326
21.919325999999998 27.869326 36.794326
21.919325999999998 33.819326 12.994326
21.919325999999998 30.844326000000002 15.969325999999999
18.944325999999997 33.819326 15.969325999999999
21.919325999999998 33.819326 18.944325999999997
21.919325999999998 30.844326000000002 21.919325999999998
18.944325999999997 33.819326 21.919325999999998
21.919325999999998 33.819326 24.894326
21.919325999999998 30.844326000000002 27.869326
18.944325999999997 33.819326 27.869326
21.919325999999998 33.819326 30.844326000000002
21.919325999999998 30.844326000000002 33.819326
18.944325999999997 33.819326 33.819326
21.919325999999998 36.794326 21.919325999999998
21.919325999999998 36.794326 27.869326
21.919325999999998 36.794326 33.819326
24.894326 15.969325999999999 15.969325999999999
27.869326 15.969325999999999 18.944325999999997
27.869326 12.994326 21.919325999999998
24.894326 15.969325999999999 21.919325999999998
27.869326 15.969325999999999 24.894326
24.894326 15.969325999999999 27.869326
27.869326 15.969325999999999 30.844326000000002
24.894326 15.969325999999999 33.819326
27.869326 15.969325999999999 36.794326
27.869326 21.919325999999998 12.994326
27.869326 18.944325999999997 15.969325999999999
24.894326 21.919325999999998 15.969325999999999
27.869326 21.919325999999998 18.944325999999997
27.869326 18.944325999999997 21.919325999999998
24.894326 21.919325999999998 21.919325999999998
27.869326 21.919325999999998 24.894326
27.869326 18.944325999999997 27.869326
24.894326 21.919325999999998 27.869326
27.869326 21.919325999999998 30.844326000000002
27.869326 18.944325999999997 33.819326
24.894326 21.919325999999998 33.819326
27.869326 24.894326 15.969325999999999
24.894326 27.869326 15.969325999999999
27.869326 27.869326 18.944325999999997
27.869326 24.894326 21.919325999999998
24.894326 27.869326 21.919325999999998
27.869326 27.869326 24.894326
27.869326 24.894326 27.869326
24.894326 27.869326 27.869326
27.869326 27.869326 30.844326000000002
27.869326 24.894326 33.819326
24.894326 27.869326 33.819326
27.869326 27.869326 36.794326
27.869326 33.819326 12.994326
27.869326 30.844326000000002 15.969325999999999
24.894326 33.819326 15.969325999999999
27.869326 33.819326 18.944325999999997
27.869326 30.844326000000002 21.919325999999998
24.894326 33.819326 21.919325999999998
27.869326 33.819326 24.894326
27.869326 30.844326000000002 27.869326
24.894326 33.819326 27.869326
27.869326 33.819326 30.844326000000002
27.869326 30.844326000000002 33.819326
24.894326 33.819326 33.819326
27.869326 36.794326 21.919325999999998
27.869326 36.794326 27.869326
33.819326 15.969325999999999 12.994326
33.819326 12.994326 15.969325999999999
30.844326000000002 15.969325999999999 15.969325999999999
33.819326 15.969325999999999 18.944325999999997
30.844326000000002 15.969325999999999 21.919325999999998
33.819326 15.969325999999999 24.894326
33.819326 12.994326 27.869326
30.844326000000002 15.969325999999999 27.869326
33.819326 15.969325999999999 30.844326000000002
33.819326 12.994326 33.819326
30.844326000000002 15.969325999999999 33.819326
33.819326 21.919325999999998 12.994326
33.819326 18.944325999999997 15.969325999999999
30.844326000000002 21.919325999999998 15.969325999999999
33.819326 21.919325999999998 18.944325999999997
33.819326 18.944325999999997 21.919325999999998
30.844326000000002 21.919325999999998 21.919325999999998
33.819326 21.919325999999998 24.894326
33.819326 18.944325999999997 27.869326
30.844326000000002 21.919325999999998 27.869326
33.819326 21.919325999999998 30.844326000000002
33.819326 18.944325999999997 33.819326
30.844326000000002 21.919325999999998 33.819326
33.819326 21.919325999999998 36.794326
33.819326 27.869326 12.994326
33.819326 24.894326 15.969325999999999
30.844326000000002 27.869326 15.969325999999999
33.819326 27.869326 18.944325999999997
33.819326 24.894326 21.919325999999998
30.844326000000002 27.869326 21.919325999999998
33.819326 27.869326 24.894326
33.819326 24.894326 27.869326
30.844326000000002 27.869326 27.869326
33.819326 27.869326 30.844326000000002
33.819326 24.894326 33.819326
30.844326000000002 27.869326 33.819326
33.819326 30.844326000000002 15.969325999999999
30.844326000000002 33.819326 15.969325999999999
33.819326 33.819326 18.944325999999997
33.819326 30.844326000000002 21.919325999999998
30.844326000000002 33.819326 21.919325999999998
33.819326 33.819326 24.894326
33.819326 30.844326000000002 27.869326
30.844326000000002 33.819326 27.869326
33.819326 33.819326 30.844326000000002
33.819326 30.844326000000002 33.819326
30.844326000000002 33.819326 33.819326
33.819326 33.819326 36.794326
33.819326 36.794326 15.969325999999999
33.819326 36.794326 33.819326
36.794326 15.969325999999999 21.919325999999998
36.794326 21.919325999999998 21.919325999999998
36.794326 21.919325999999998 27.869326
36.794326 21.919325999999998 33.819326
36.794326 27.869326 15.969325999999999
36.794326 27.869326 27.869326
36.794326 27.869326 33.819326
36.794326 33.819326 21.919325999999998
36.794326 33.819326 33.819326
35.003549 15.788500999999998 40.504175000000004
35.025079 15.793717 39.105752
33.819326 15.969325999999999 38.428695000000005
32.611142 16.134712 40.492055
33.803115999999996 15.957579999999998 41.196705
33.819326 15.969325999999999 36.794326
32.606756 16.141832 39.094039
22.987633000000002 21.377291 40.504175000000004
23.009714000000002 21.375512999999998 39.105752
21.919325999999998 21.919325999999998 38.428695000000005
20.823431999999997 22.454189 40.492055
21.900256 21.913238 41.196705
21.919325999999998 21.919325999999998 36.794326
20.821492999999997 22.462322999999998 39.094039
28.696361000000003 34.685983 40.504175000000004
28.704430000000002 34.706614 39.105752
27.869326 33.819326 38.428695000000005
27.041204 32.924186 40.492055
27.869656999999997 33.79931 41.196705
27.869326 33.819326 36.794326
27.032856000000002 32.924673999999996 39.094039
33.123267 28.844304 40.504175000000004
33.104516 28.856102 39.105752
33.819326 27.869326 38.428695000000005
34.543158999999996 26.887935 40.492055
33.839048 27.865895000000002 41.196705
33.819326 27.869326 36.794326
34.541112999999996 26.879827 39.094039
23.063046999999997 33.462979 40.504175000000004
23.085116 33.464908 39.105752
21.919325999999998 33.819326 38.428695000000005
20.749598999999996 34.164001999999996 40.492055
21.901538000000002 33.810144 41.196705
21.919325999999998 33.819326 36.794326
20.746330999999998 34.171699 39.094039
27.649898999999998 20.741645 40.504175000000004
27.654409 20.719955 39.105752
27.869326 21.919325999999998 38.428695000000005
28.074105000000003 23.121461000000004 40.492055
27.858116000000003 21.935912000000002 41.196705
27.869326 21.919325999999998 36.794326
28.081364999999998 23.125611 39.094039
14.868291 34.291348 40.504175000000004
14.846141 34.291698 39.105752
15.969325999999999 33.819326 38.428695000000005
17.097428 33.356241 40.492055
15.987964 33.826631 41.196705
15.969325999999999 33.819326 36.794326
17.099887 33.348248 39.094039
26.939241000000003 16.724325 9.284476999999999
26.928626 16.743769 10.6829
27.869326 15.969325999999999 11.359957
28.804094 15.186209999999999 9.296596999999998
27.871530999999997 15.949428999999999 8.591947
27.869326 15.969325999999999 12.994326
28.812313000000003 15.187750999999999 10.694612999999999
28.092767000000002 26.6924 9.284476999999999
28.088332 26.670695000000002 10.6829
27.869326 27.869326 11.359957
27.660448000000002 29.070755 9.296596999999998
27.880479 27.88595 8.591947
27.869326 27.869326 12.994326
27.653174 29.074880999999998 10.694612999999999
16.589883999999998 34.844015999999996 9.284476999999999
16.607691 34.857194 10.6829
15.969325999999999 33.819326 11.359957
15.321556999999999 32.786148 9.296596999999998
15.949919 33.814417999999996 8.591947
15.969325999999999 33.819326 12.994326
15.324209 32.778217 10.694612999999999
35.008404999999996 33.964831 9.284476999999999
35.029771 33.958977 10.6829
33.819326 33.819326 11.359957
32.606755 33.689966 9.296596999999998
33.803472 33.831549 8.591947
33.819326 33.819326 12.994326
32.60216 33.682978999999996 10.694612999999999
22.840345 27.103293999999998 9.284476999999999
22.850727999999997 27.083725 10.6829
21.919325999999998 27.869326 11.359957
20.993958999999997 28.663528999999997 9.296596999999998
21.917358 27.889246999999997 8.591947
21.919325999999998 27.869326 12.994326
20.985722 28.662084999999998 10.694612999999999
14.836898999999999 27.478569999999998 9.284476999999999
14.814782 27.47983 10.6829
15.969325999999999 27.869326 11.359957
17.128099 28.249203 9.296596999999998
15.987383999999999 27.860686 8.591947
15.969325999999999 27.869326 12.994326
17.131133 28.256995000000003 10.694612999999999
20.87218 22.501191 9.284476999999999
20.858347000000002 22.518493999999997 10.6829
21.919325999999998 21.919325999999998 11.359957
22.975971 21.310586 9.296596999999998
21.924956 21.900115 8.591947
21.919325999999998 21.919325999999998 12.994326
22.983797000000003 21.313532 10.694612999999999
9.284476999999999 34.621944 34.708644
10.6829 34.641916 34.718227999999996
11.359957 33.819326 33.819326
9.296596999999998 32.988385 32.926802
8.591947 33.799341 33.818165
12.994326 33.819326 33.819326
10.694612999999999 32.989494 32.918514
9.284476999999999 23.114036 27.957358999999997
10.6829 23.135094000000002 27.950482
11.359957 21.919325999999998 27.869326
9.296596999999998 20.701929999999997 27.798551000000003
8.591947 21.90408 27.882299000000003
12.994326 21.919325999999998 27.869326
10.694612999999999 20.697003000000002 27.791794000000003
9.284476999999999 28.358690000000003 28.962763000000002
10.6829 28.374735 28.978037
11.359957 27.869326 27.869326
9.296596999999998 27.354007000000003 26.764107000000003
8.591947 27.850673 27.86206
12.994326 27.869326 27.869326
10.694612999999999 27.357616999999998 26.756565000000002
9.284476999999999 16.697833 20.968348
10.6829 16.703625 20.946965999999996
11.359957 15.969325999999999 21.919325999999998
9.296596999999998 15.242818 22.898738
8.591947 15.971818999999998 21.939189
12.994326 15.969325999999999 21.919325999999998
10.694612999999999 15.234466 22.899155
9.284476999999999 27.949022999999997 17.164620999999997
10.6829 27.958774 17.184513
11.359957 27.869326 15.969325999999999
9.296596999999998 27.769371 14.753977999999998
8.591947 27.854351 15.956040999999999
12.994326 27.869326 15.969325999999999
10.694612999999999 27.775374 14.748156
9.284476999999999 14.894542999999999 27.340248000000003
10.6829 14.872442 27.338737000000002
11.359957 15.969325999999999 27.869326
9.296596999999998 17.071607 28.390898999999997
8.591947 15.988321 27.863008
12.994326 15.969325999999999 27.869326
10.694612999999999 17.073644 28.399009
9.284476999999999 23.037896000000003 15.540510999999999
10.6829 23.054025000000003 15.525324999999999
11.359957 21.919325999999998 15.969325999999999
9.296596999999998 20.787571999999997 16.423414
8.591947 21.911051 15.987554
12.994326 21.919325999999998 15.969325999999999
10.694612999999999 20.780237999999997 16.419396
40.504175000000004 33.841302 17.167073000000002
39.105752 33.833273 17.18772
38.428695000000005 33.819326 15.969325999999999
40.492055 33.815834 14.749878999999998
41.196705 33.83312 15.954818999999999
36.794326 33.819326 15.969325999999999
39.094039 33.809359 14.744587999999998
40.504175000000004 15.221535 15.033436
39.105752 15.215307999999999 15.012175999999998
38.428695000000005 15.969325999999999 15.969325999999999
40.492055 16.715699 16.933684999999997
41.196705 15.967239999999999 15.989234999999999
36.794326 15.969325999999999 15.969325999999999
39.094039 16.724058 16.933931
40.504175000000004 21.058017 15.136721999999999
39.105752 21.049123 15.116432999999999
38.428695000000005 21.919325999999998 15.969325999999999
40.492055 22.782868999999998 16.830346
41.196705 21.919801999999997 15.989339
36.794326 21.919325999999998 15.969325999999999
39.094039 22.79119 16.829521999999997
40.504175000000004 14.983376999999999 27.188895000000002
39.105752 14.971281999999999 27.170335
38.428695000000005 15.969325999999999 27.869326
40.492055 16.962128999999997 28.577424999999998
41.196705 15.973071 27.888990999999997
36.794326 15.969325999999999 27.869326
39.094039 16.970204 28.575249
40.504175000000004 33.456784999999996 26.727553
39.105752 33.458594 26.705474000000002
38.428695000000005 33.819326 27.869326
40.492055 34.170336999999996 29.037166999999997
41.196705 33.81024 27.887164
36.794326 33.819326 27.869326
39.094039 34.178052 29.040394
40.504175000000004 27.004770999999998 21.090094
39.105752 26.995797000000003 21.06984
38.428695000000005 27.869326 21.919325999999998
40.492055 28.736226000000002 22.776966
41.196705 27.869880000000002 21.939337000000002
36.794326 27.869326 21.919325999999998
39.094039 28.744543999999998 22.776108999999998
40.504175000000004 16.571457 32.783701
39.105752 16.589025999999997 32.770207
38.428695000000005 15.969325999999999 33.819326
40.492055 15.34014 34.863925
41.196705 15.950009999999999 33.824581
36.794326 15.969325999999999 33.819326
39.094039 15.342934 34.871807
28.969107 9.284476999999999 33.34439
28.991256 10.6829 33.343981
27.869326 11.359957 33.819326
26.742454000000002 9.296596999999998 34.285396999999996
27.850669000000003 8.591947 33.81207
27.869326 12.994326 33.819326
26.740015999999997 10.694612999999999 34.293396
16.82473 9.284476999999999 28.707994
16.833481 10.6829 28.728346000000002
15.969325999999999 11.359957 27.869326
15.111887999999999 9.296596999999998 27.002226
15.968990999999999 8.591947 27.849310000000003
15.969325999999999 12.994326 27.869326
15.103561 10.694612999999999 27.002992
23.114119000000002 9.284476999999999 21.832423
23.135171 10.6829 21.83932
21.919325999999998 11.359957 21.919325999999998
20.701864 9.296596999999998 21.988948999999998
21.904092 8.591947 21.906339000000003
21.919325999999998 12.994326 21.919325999999998
20.696931 10.694612999999999 21.995702
16.413278 9.284476999999999 34.931975
16.413066999999998 10.6829 34.954127
15.969325999999999 11.359957 33.819326
15.534992999999998 9.296596999999998 32.679845
15.977101 8.591947 33.800879
15.969325999999999 12.994326 33.819326
15.527066 10.694612999999999 32.677183
27.094458000000003 9.284476999999999 26.955728
27.087611000000003 10.6829 26.93466
27.869326 11.359957 27.869326
28.643611 9.296596999999998 28.811422
27.867823 8.591947 27.889288
27.869326 12.994326 27.869326
28.651972999999998 10.694612999999999 28.811422999999998
27.157047 9.284476999999999 15.006133
27.151618999999997 10.6829 14.984654999999998
27.869326 11.359957 15.969325999999999
28.579124 9.296596999999998 16.960915
27.866497000000003 8.591947 15.989142999999999
27.869326 12.994326 15.969325999999999
28.587468 10.694612999999999 16.961472999999998
32.623211 9.284476999999999 21.98558
32.602281 10.6829 21.978319999999997
33.819326 11.359957 21.919325999999998
35.037808999999996 9.296596999999998 21.870741000000002
33.834333 8.591947 21.932574000000002
33.819326 12.994326 21.919325999999998
35.042858 10.694612999999999 21.864075
27.167611 40.504175000000004 32.84841
27.148792 39.105752 32.836722
27.869326 38.428695000000005 33.819326
28.598852 40.492055 34.796492
27.889068 41.196705 33.822642
27.869326 36.794326 33.819326
28.596852 39.094039 34.804612
14.775625999999999 40.504175000000004 22.020128
14.755908999999999 39.105752 22.030229
15.969325999999999 38.428695000000005 21.919325999999998
17.182719 40.492055 21.797915000000003
15.982344 41.196705 21.904119
15.969325999999999 36.794326 21.919325999999998
17.188646 39.094039 21.803814000000003
15.030285 40.504175000000004 33.075496
15.008999 39.105752 33.069359
15.969325999999999 38.428695000000005 33.819326
16.93683 40.492055 34.561617999999996
15.989225999999999 41.196705 33.817156
15.969325999999999 36.794326 33.819326
16.937111 39.094039 34.569976
33.210872 40.504175000000004 22.951248999999997
33.207703 39.105752 22.973174
33.819326 38.428695000000005 21.919325999999998
34.422365 40.492055 20.859417999999998
33.814455 41.196705 21.899909
33.819326 36.794326 21.919325999999998
34.430606 39.094039 20.857996
22.7688 40.504175000000004 15.124650999999998
22.777406999999997 39.105752 15.104239
21.919325999999998 38.428695000000005 15.969325999999999
21.068019 40.492055 16.842446
21.919131999999998 41.196705 15.989343
21.919325999999998 36.794326 15.969325999999999
21.059686999999997 39.094039 16.841738999999997
27.282946000000003 40.504175000000004 14.924700999999999
27.265583999999997 39.105752 14.910943
27.869326 38.428695000000005 15.969325999999999
28.482622 40.492055 17.023333
27.888561000000003 41.196705 15.974872999999999
27.869326 36.794326 15.969325999999999
28.479709 39.094039 17.031171999999998
34.978021999999996 40.504175000000004 28.173471
34.999981 39.105752 28.170544
33.819326 38.428695000000005 27.869326
32.63518 40.492055 27.578018999999998
33.801972 41.196705 27.879305000000002
33.819326 36.794326 27.869326
32.631566 39.094039 27.570476999999997
38.269987 30.844326000000002 24.894326
11.950876 30.844326000000002 37.837776000000005
24.894326 11.950876 11.950876
18.944325999999997 24.894326 11.518664999999999
30.844326000000002 38.269987 18.944325999999997
18.944325999999997 11.518664999999999 24.894326
24.894326 38.269987 30.844326000000002
18.944325999999997 18.944325999999997 11.518664999999999
38.269987 30.844326000000002 30.844326000000002
38.269987 18.944325999999997 18.944325999999997
24.894326 11.950876 37.837776000000005
24.894326 24.894326 38.269987
30.844326000000002 11.518664999999999 18.944325999999997
11.950876 18.944325999999997 37.837776000000005
18.944325999999997 11.950876 37.837776000000005
24.894326 11.518664999999999 18.944325999999997
18.944325999999997 30.844326000000002 38.269987
30.844326000000002 38.269987 30.844326000000002
24.894326 38.269987 24.894326
30.844326000000002 11.950876 37.837776000000005
11.950876 37.837776000000005 30.844326000000002
11.518664999999999 18.944325999999997 18.944325999999997
38.269987 24.894326 30.844326000000002
24.894326 30.844326000000002 11.518664999999999
18.944325999999997 38.269987 18.944325999999997
30.844326000000002 37.837776000000005 11.950876
30.844326000000002 24.894326 11.518664999999999
24.894326 18.944325999999997 11.518664999999999
11.518664999999999 24.894326 18.944325999999997
24.894326 38.269987 18.944325999999997
30.844326000000002 24.894326 38.269987
11.950876 18.944325999999997 11.950876
30.844326000000002 18.944325999999997 11.518664999999999
38.269987 18.944325999999997 30.844326000000002
12.994326 12.994326 18.944325999999997
12.994326 12.994326 24.894326
12.994326 12.994326 30.844326000000002
12.994326 18.944325999999997 24.894326
12.994326 18.944325999999997 30.844326000000002
12.994326 24.894326 24.894326
12.994326 24.894326 36.794326
12.994326 30.844326000000002 12.994326
12.994326 30.844326000000002 18.944325999999997
12.994326 30.844326000000002 24.894326
12.994326 30.844326000000002 30.844326000000002
12.994326 36.794326 24.894326
18.944325999999997 12.994326 12.994326
18.944325999999997 12.994326 18.944325999999997
18.944325999999997 12.994326 30.844326000000002
18.944325999999997 18.944325999999997 18.944325999999997
18.944325999999997 18.944325999999997 24.894326
18.944325999999997 18.944325999999997 30.844326000000002
18.944325999999997 18.944325999999997 36.794326
18.944325999999997 24.894326 18.944325999999997
18.944325999999997 24.894326 24.894326
18.944325999999997 24.894326 30.844326000000002
18.944325999999997 24.894326 36.794326
18.944325999999997 30.844326000000002 12.994326
18.944325999999997 30.844326000000002 18.944325999999997
18.944325999999997 30.844326000000002 24.894326
18.944325999999997 30.844326000000002 30.844326000000002
18.944325999999997 36.794326 12.994326
18.944325999999997 36.794326 24.894326
18.944325999999997 36.794326 30.844326000000002
18.944325999999997 36.794326 36.794326
24.894326 12.994326 24.894326
24.894326 12.994326 30.844326000000002
24.894326 18.944325999999997 18.944325999999997
24.894326 18.944325999999997 24.894326
24.894326 18.944325999999997 30.844326000000002
24.894326 18.944325999999997 36.794326
24.894326 24.894326 12.994326
24.894326 24.894326 18.944325999999997
24.894326 24.894326 24.894326
24.894326 24.894326 30.844326000000002
24.894326 30.844326000000002 18.944325999999997
24.894326 30.844326000000002 24.894326
24.894326 30.844326000000002 30.844326000000002
24.894326 30.844326000000002 36.794326
24.894326 36.794326 12.994326
24.894326 36.794326 36.794326
30.844326000000002 12.994326 12.994326
30.844326000000002 12.994326 24.894326
30.844326000000002 12.994326 30.844326000000002
30.844326000000002 18.944325999999997 18.944325999999997
30.844326000000002 18.944325999999997 24.894326
30.844326000000002 18.944325999999997 30.844326000000002
30.844326000000002 18.944325999999997 36.794326
30.844326000000002 24.894326 18.944325999999997
30.844326000000002 24.894326 24.894326
30.844326000000002 24.894326 30.844326000000002
30.844326000000002 30.844326000000002 12.994326
30.844326000000002 30.844326000000002 18.944325999999997
30.844326000000002 30.844326000000002 24.894326
30.844326000000002 30.844326000000002 30.844326000000002
30.844326000000002 30.844326000000002 36.794326
30.844326000000002 36.794326 24.894326
30.844326000000002 36.794326 36.794326
36.794326 12.994326 18.944325999999997
36.794326 12.994326 24.894326
36.794326 12.994326 30.844326000000002
36.794326 18.944325999999997 12.994326
36.794326 18.944325999999997 24.894326
36.794326 18.944325999999997 36.794326
36.794326 24.894326 12.994326
36.794326 24.894326 24.894326
36.794326 24.894326 36.794326
36.794326 30.844326000000002 12.994326
36.794326 30.844326000000002 18.944325999999997
36.794326 30.844326000000002 36.794326
36.794326 36.794326 24.894326
36.794326 36.794326 30.844326000000002
31.666952000000002 16.268306 41.024541
33.796828 15.950401999999999 42.288652
35.941103 15.649229 41.047378
35.954955 15.664185999999999 38.555856000000006
31.685249 16.276296 38.532131
19.968355 22.876308 41.024541
21.892038999999997 21.908385000000003 42.288652
23.834631 20.951852 41.047378
23.852465000000002 20.961728 38.555856000000006
19.988233 22.878177 38.532131
26.390470999999998 32.227129 41.024541
27.871934000000003 33.790043 42.288652
29.347944 35.374347 41.047378
29.343629 35.394270999999996 38.555856000000006
26.394413 32.246702 38.532131
35.105716 26.117953999999997 41.024541
33.848577999999996 27.866393000000002 42.288652
32.569407 29.613489 41.047378
32.549027 29.612989 38.555856000000006
35.087230999999996 26.125498999999998 38.532131
19.836115 34.43766 41.024541
21.894244999999998 33.803989 42.288652
23.969119 33.184701 41.047378
23.985056999999998 33.197412 38.555856000000006
19.855404 34.442816 38.532131
28.238481999999998 24.060781 41.024541
27.851146999999997 21.942431 42.288652
27.480063 19.809142 41.047378
27.49456 19.794809 38.555856000000006
28.245870000000004 24.042232 38.532131
17.977944 32.990135 41.024541
15.995851 33.832003 42.288652
13.995623 34.661287 41.047378
13.978463 34.65028 38.555856000000006
17.958228 32.986989 38.532131
29.537827 14.577129999999999 8.764111
27.870444999999997 15.939948 7.499999999999999
26.205765999999997 17.324674 8.741273999999999
26.207524999999997 17.344985 11.232795999999999
29.531439 14.596046 11.256521
27.492869 30.009509 8.764111
27.887425999999998 27.892491999999997 7.499999999999999
28.265783 25.760482000000003 8.741273999999999
28.251334 25.7461 11.232795999999999
27.485545000000002 29.990935999999998 11.256521
14.818664 31.975938 8.764111
15.940377999999999 33.814195 7.499999999999999
17.084164 35.652775 8.741273999999999
17.104523999999998 35.653814 11.232795999999999
14.836526999999998 31.984856 11.256521
31.659008 33.584528 8.764111
33.797401 33.838910999999996 7.499999999999999
35.949689 34.076143 8.741273999999999
35.963089 34.060779 11.232795999999999
31.677059 33.575997 11.256521
20.267538000000002 29.281311000000002 8.764111
21.918557 27.898715000000003 7.499999999999999
23.566612 26.494245 8.741273999999999
23.564611999999997 26.473957 11.232795999999999
20.273701 29.262320000000003 11.256521
18.032894 28.550348999999997 8.764111
15.99486 27.854754 7.499999999999999
13.939653 27.173029999999997 8.741273999999999
13.923338 27.185254 11.232795999999999
18.013458 28.554920000000003 11.256521
23.804392999999997 20.838295000000002 8.764111
21.925534 21.890590000000003 7.499999999999999
20.045529000000002 22.964928999999998 8.741273999999999
20.043731 22.985236 11.232795999999999
23.794814000000002 20.855812999999998 11.256521
8.764111 32.341758 32.225934
7.499999999999999 33.78993 33.819745
8.741273999999999 35.259838 35.409711
11.232795999999999 35.280029 35.406892
11.256521 32.360983 32.231324
8.764111 19.750203 27.738909
7.499999999999999 21.89837 27.889944999999997
8.741273999999999 24.05959 28.023179
11.232795999999999 24.072234 28.007188
11.256521 19.767822 27.729518
8.764111 26.95494 25.898031000000003
7.499999999999999 27.841233000000003 27.860661999999998
8.741273999999999 28.749388000000003 29.826337000000002
11.232795999999999 28.769464 29.829879999999996
11.256521 26.971566000000003 25.909084999999997
8.764111 14.671245999999998 23.662052000000003
7.499999999999999 15.975083999999999 21.948155
8.741273999999999 17.271188000000002 20.213583999999997
11.232795999999999 17.264744999999998 20.194243
11.256521 14.67305 23.642167999999998
8.764111 27.695498999999998 13.803249
7.499999999999999 27.845982 15.951455
8.741273999999999 28.015915 18.1101
11.232795999999999 28.033515 18.120387
11.256521 27.707259 13.819384
8.764111 17.931725999999998 28.802649000000002