1_train/58_cspbbr3_methylammonium_4_0.20\58_cspbbr3_methylammonium_4_0.20.xyz
1.0
47.735123 0 0
0 47.735123 0
0 0 47.735123
Br C Cs H N Pb 
240 17 95 102 17 64 
Cartesian
26.684361499999998 23.9998725 21.0938945
35.90260550000001 21.029589499999997 20.733251499999998
23.7738975 26.643543499999996 21.0582975
35.58146550000001 20.761496499999996 15.048850499999999
26.653270499999998 26.767355499999997 23.7026925
23.8028645 26.660094499999996 14.818227499999999
27.0272325 23.8294315 15.028609499999998
26.917611499999996 24.017231499999998 26.7090945
27.054049499999998 26.8050745 17.9572285
35.73798549999999 15.214297499999999 26.7630165
23.897843499999997 26.7282035 26.6323835
26.7370045 26.6858895 29.8537805
26.6771775 23.9072165 32.597585499999994
35.8190735 14.954450499999998 21.072721499999997
23.7874035 26.7544105 33.0560085
26.6424395 26.9132365 35.896713500000004
36.0306535 14.940628499999999 15.007258499999999
27.0354635 32.8400405 12.182743499999999
26.7594705 29.7529495 15.094931499999998
23.8664765 32.8330765 14.760622499999998
32.9878815 35.638281500000005 32.6678825
27.0286615 32.6794405 18.031453499999998
27.0489305 29.7026555 20.7854435
35.704404499999995 14.904864499999999 32.5843035
35.797199500000005 20.767465499999997 26.653967499999997
33.0397725 23.829821499999998 32.7530325
35.5780055 21.104829499999997 32.874469500000004
23.681975499999997 14.920291499999998 20.858334499999998
35.8664155 32.8608095 32.6359415
26.6355725 15.026568499999998 23.9220795
35.68447450000001 32.9117785 26.617513499999998
26.8815365 11.872530499999998 27.008774499999998
24.0089625 15.079557499999998 27.0520315
35.6362905 32.6414895 20.8423575
26.691428499999997 14.861455499999998 29.8771275
26.813279499999997 12.082181499999999 32.6294365
23.9984835 14.892686499999998 32.6137305
26.7956975 14.979825499999999 35.946186499999996
35.86680750000001 32.7129665 14.700539499999998
26.713147499999998 20.872753499999998 12.135907499999998
26.7080625 18.070309499999997 14.919820499999998
27.0067125 26.7905245 11.741429499999999
23.9268465 20.761009499999997 14.759193499999999
26.9956025 17.972720499999998 20.985990499999996
35.6984585 27.0926005 32.8439625
23.9847565 21.127541499999996 20.8498575
35.920317499999996 26.952975499999997 26.7898825
26.8059135 21.080671499999998 23.904538499999997
26.861485499999997 17.6383305 26.8687565
35.7492075 26.5517505 20.917760499999996
23.755535499999997 21.053657499999996 26.713208499999997
35.5630415 26.9258025 14.753623499999998
26.7385245 20.9691675 30.0235015
26.7810845 17.6878325 32.881260499999996
24.0275185 21.062596499999998 32.9748445
26.663865499999996 20.6545175 35.7315785
23.635931499999998 32.832354499999994 20.750590499999998
26.7315415 21.0203375 18.014985499999998
32.6967655 35.7382975 27.0674915
32.6755605 35.868260500000005 14.8474735
26.886318499999998 32.5425785 24.0028375
29.737792499999998 32.6283915 20.7705025
32.715988499999995 20.6947535 17.739835499999998
32.9610535 17.9205295 20.6874535
29.925413499999998 20.738660499999998 20.903030499999996
32.7194345 29.614226499999997 20.7555275
32.8712415 20.674472499999997 23.781705499999997
32.6346295 32.7752195 18.0661395
32.757656499999996 17.7838605 26.7111985
29.633556499999997 20.8344125 26.941023499999996
32.8064355 21.084181499999996 30.0065675
32.6760485 17.9529955 32.958524499999996
30.0798235 20.839705499999997 32.907036500000004
32.8311125 21.0847485 35.6610405
29.6944305 20.697814499999996 15.132350499999998
29.7175895 32.7043905 15.109541499999999
32.6161055 26.9058515 12.014210499999999
32.672132500000004 23.8713765 15.108176499999999
29.6784465 26.684364499999997 14.799968499999999
32.64863149999999 32.7304445 11.874913499999998
32.9943075 26.7775615 17.9801795
32.817534499999994 24.0547785 20.7508955
29.5464025 26.763575499999998 20.8299815
32.8169505 27.050244499999998 24.0355085
32.9533785 23.695061499999998 27.0120215
32.6909375 26.7266375 35.963883499999994
29.9698665 27.0205175 26.981684499999997
30.0054685 26.9159965 32.7327755
32.941734499999995 26.976961499999998 29.704779499999997
32.8023005 30.0089285 14.726018499999999
32.6352415 35.635422500000004 20.7264625
32.6547645 17.7632415 15.141309499999998
32.5970915 14.785031499999999 35.690678500000004
26.748216499999998 29.5908885 26.7098525
24.062297499999996 32.6374575 26.9497315
26.670599499999998 32.9152055 29.754478499999998
26.8823695 29.7007555 33.0053315
23.973432499999998 32.53116249999999 32.7352985
32.644730499999994 32.632144499999995 35.662141500000004
27.0268355 32.6102505 35.7609805
26.793517499999997 35.900580500000004 14.792285499999998
26.6632675 35.8311695 27.0519135
27.098016499999996 35.7946225 32.870729499999996
29.9768185 32.9458135 32.810267499999995
32.644448499999996 29.8621335 33.002928499999996
32.9838125 14.944993499999999 12.070506499999999
32.8630905 20.848916499999998 12.167833499999999
32.91716649999999 12.0884305 14.860648499999998
32.7544115 32.543922499999994 29.7758985
32.7942685 15.1257025 17.7359305
32.8903075 12.172830499999998 20.8950525
29.9162105 15.179886499999999 20.9345155
32.940727499999994 14.7941495 23.9769635
29.7586725 32.6920235 26.9879905
32.9279485 11.959406499999998 26.965912499999998
29.6138825 14.939689499999998 26.8208285
32.9797255 29.838993499999997 26.8210445
32.6687525 14.976401499999998 29.684382499999998
32.6219095 32.7220465 23.815415499999997
32.876077499999994 12.208086499999999 32.7564195
29.9884265 14.9379435 32.880416499999995
29.850312499999998 14.758146499999999 14.948157499999999
26.7451445 11.811395499999998 20.7783335
27.0048015 35.925423499999994 20.7357415
23.650809499999998 14.969565499999998 15.092132499999998
12.128528499999998 32.8085215 32.9000025
15.0561745 29.9347705 32.917525499999996
15.089343499999998 32.6298495 29.715172499999998
11.8798415 32.6370005 26.7586405
14.778367499999998 29.5919915 26.7621255
14.910476499999998 32.9492385 23.723404499999997
15.1040035 32.7820015 35.603068500000006
12.159446499999998 32.8661645 21.0758305
14.790887499999998 32.8619645 18.132094499999997
11.796612499999998 32.6601945 15.062817499999998
15.194892499999998 29.9044505 14.868187499999998
14.857562499999998 32.645749499999994 12.076939499999998
14.914059499999999 26.7318325 35.9707605
11.8441865 26.9415615 32.906038499999994
15.063540499999998 29.620859499999998 21.0492125
15.015464499999998 35.9135335 15.029326499999998
15.106409499999998 35.693469500000006 20.9043675
15.131698499999999 35.827046499999994 26.6834965
20.837026499999997 21.1043505 12.110685499999999
20.7494545 15.119465499999999 35.75044750000001
18.092491499999998 15.025158499999998 32.8392475
21.090037499999998 12.1712365 32.7915475
20.769312499999998 14.8966815 30.0801415
17.9998975 14.704554499999999 26.8766165
20.859180499999997 11.777025499999999 27.046708499999998
21.0125745 15.119759499999999 23.7397775
18.0258905 15.053695499999998 20.7408355
21.0392415 12.1292865 20.932564499999998
20.9944015 14.838413499999998 18.108717499999997
17.8028195 14.845995499999999 14.826479499999998
20.7962255 11.8468925 14.760055499999998
21.020158499999997 14.9333265 11.7448255
14.823380499999999 35.6502775 32.6416165
15.0955585 24.0433275 32.9478285
21.1055885 17.731899499999997 14.8870195
14.9352235 27.053437499999998 29.8112285
15.051470499999999 23.8169025 26.703527499999996
15.0175475 21.069294499999998 12.117751499999999
14.7626195 14.908085499999999 35.69367750000001
11.942337499999999 15.039714499999999 32.6322595
15.086245499999999 11.917505499999999 32.9464035
14.778660499999999 15.040524499999998 29.6358355
12.096404499999998 15.055264499999998 27.0007835
15.128082499999998 17.874847499999998 14.976756499999999
15.003745499999999 11.804958499999998 26.767608499999998
11.756948499999998 15.063998499999999 21.017504499999998
14.7657715 12.0606505 20.900981499999997
14.8223995 14.799531499999999 17.776027499999998
11.777095499999998 14.931437499999998 14.922436499999998
14.962349499999998 11.8405195 15.099171499999999
14.952594499999998 15.159587499999999 11.891919499999998
14.708663499999998 14.973778499999998 24.0286595
26.761251499999997 14.8019255 17.7021555
15.075446499999998 20.6946925 17.750786499999997
14.871046499999999 17.7695245 21.0377605
14.828464499999999 26.7286575 23.9560635
11.9662435 27.0049225 20.6566515
15.199029499999998 23.8335015 21.018740499999996
14.888018499999998 26.629418499999996 17.8051455
11.789728499999999 26.7516135 14.784970499999998
14.9027465 24.069217499999997 14.935007499999998
14.890618499999999 26.897348499999996 11.677586499999999
14.846193499999998 21.0145905 35.6296705
11.927154499999999 20.6984325 32.7461365
15.106639499999998 17.9467635 32.9411955
15.068899499999999 21.0856875 29.7525265
12.050310499999998 21.0263405 26.742758499999997
14.789183499999998 18.081601499999998 26.894871499999997
15.073015499999999 20.7676685 23.8291665
11.797220499999998 20.770645499999997 20.777388499999997
11.7571915 26.927565499999996 26.6952825
18.090907499999997 20.909559499999997 14.886448499999998
12.185530499999999 20.960104499999996 14.776332499999999
20.9794365 29.7346605 27.0247595
20.8009985 29.6769435 32.6758515
20.7823855 21.082956499999998 35.877750500000005
20.936807499999997 27.0181065 35.81219350000001
20.6777405 35.7076685 32.681558499999994
21.0618995 27.056485499999997 11.957675499999999
20.8955405 35.87309449999999 27.0676825
21.070458499999997 24.0198535 14.8331825
18.0720295 26.8040925 14.710189499999998
17.8680925 26.6509745 32.9234795
17.7786695 20.7881735 32.6924375
20.8633675 27.044814499999998 18.047721499999998
21.060822499999997 24.063994499999996 21.0272655
18.069144499999997 26.787663499999997 20.743315499999998
20.7054205 35.570201499999996 21.0070685
20.6886755 35.61935149999999 14.9797275
21.026769499999997 23.6795825 32.7729505
21.0673225 26.926805499999997 24.0035645
20.821727499999998 23.731982499999997 26.667571499999998
21.0881055 26.742111499999996 29.6513465
17.773016499999997 26.970981499999997 26.943558499999998
20.9305695 32.709853499999994 23.7029945
20.8933245 17.9742395 32.9750245
18.1037355 32.8944835 32.8951045
21.038395499999996 20.793719499999998 29.7186675
20.7674055 21.142794499999997 17.8128545
20.810369499999997 18.0787115 20.8995005
18.118670499999997 32.6596145 26.881343499999996
18.095950499999997 21.085168499999998 20.8060005
18.1118135 32.749596499999996 21.0448245
26.971243499999996 11.824619499999999 14.960858499999999
20.9662275 29.7166395 20.762160499999997
27.0329955 14.746837499999998 12.040679499999998
20.699734499999998 32.6831665 18.038516499999997
21.070647499999996 32.8801555 11.8387985
21.0646005 32.6706155 35.8615465
20.705305499999998 29.7654015 14.926197499999999
17.779317499999998 32.7618155 14.693942499999999
20.666716499999996 17.8276915 26.830129499999998
18.1313815 20.7029435 26.8039295
21.0794355 20.7673545 23.996391499999998
21.0384955 32.6831125 29.9015545
37.3369505 29.8578305 29.801024499999997
10.966463499999998 29.8511405 36.741391500000006
23.9109035 17.8821755 10.4084265
23.8759195 37.258705500000005 23.942414499999998
23.801031499999997 23.9249075 37.273951499999995
10.892754499999999 36.847917499999994 23.7927765
10.863034499999998 36.836723500000005 17.9681525
36.7536525 23.9202065 10.847183499999998
17.8416395 29.8230285 10.437672499999998
10.521205499999999 23.8151915 17.857932499999997
23.925992499999996 10.545464499999998 17.959565499999997
23.9206095 17.8589095 37.2584385
29.872960499999998 37.294807500000005 29.8479575
29.718313499999997 23.8766325 10.4970775
17.9493095 37.195591500000006 17.9734745
10.9208635 17.893396499999998 36.728260500000005
17.8309285 10.529992499999999 17.869773499999997
30.098739499999997 36.0317635 12.366206499999999
29.7354775 29.5366605 23.5718005
12.2166135 17.7337915 24.084313499999997
18.4431725 29.605016499999998 35.9316055
29.5040585 35.482915500000004 24.2974505
30.2134105 36.049612499999995 17.5875065
30.015060499999997 30.2051585 29.7259985
29.9200335 29.9963685 36.172829500000006
23.5631715 17.649437499999998 17.6402835
17.6025985 30.004526499999997 29.877280499999998
11.574454499999998 17.849175499999998 17.5180625
11.6894625 17.6288995 29.8622895
24.103772499999998 17.661008499999998 23.7065425
24.1042505 30.146340499999997 35.5487255
30.2681595 35.8092645 35.989848499999994
35.915220500000004 36.1766545 23.8810125
35.6420895 36.226543500000005 18.064396499999997
35.599883500000004 29.5870355 36.0566645
23.4992995 12.094169499999998 23.450746499999997
35.442293500000005 29.993563499999997 23.930214499999998
35.454871499999996 29.7435105 17.5725365
11.622268499999999 12.1687085 17.9336965
35.886360499999995 29.5331405 12.2637115
35.403145499999994 23.7186445 36.163332499999996
23.463064499999998 12.289358499999999 11.671892499999998
35.32305650000001 23.4768225 29.7555975
18.3226615 35.61489950000001 35.6480435
35.465352499999995 24.3793415 23.9963405
23.7806125 11.5903105 29.7006865
35.895643500000006 24.2839155 17.6699605
11.704948499999999 11.474829499999998 24.0953955
36.018880499999995 17.6379405 35.5549685
35.582721500000005 17.7277255 30.121138499999997
18.3554395 35.5076665 29.682864499999997
35.7382925 17.6163055 17.6239415
17.713665499999998 36.1117685 23.407327499999997
23.6864395 11.701143499999999 35.998448499999995
35.328633499999995 11.992977499999999 24.025284499999998
35.6274605 12.312787499999999 17.998292499999998
11.484597499999998 18.1370625 12.203934499999999
18.0912415 36.0501275 12.253196499999998
35.8625425 11.746168499999998 30.1915025
35.6205365 35.522850500000004 29.495942499999998
24.277254499999998 18.0587235 30.120105499999998
12.074118499999999 36.212189499999994 29.6735145
17.9448285 11.8477325 12.377766499999998
29.461526499999998 18.060021499999998 11.784604499999999
18.339173499999998 24.0572495 11.8879095
29.4774405 11.752296499999998 35.5687935
24.1096515 30.1356245 18.1025825
18.245060499999997 17.9059265 36.0745745
18.0979355 12.383780499999999 24.0660775
24.266055499999997 29.4501365 23.864066499999996
29.8995735 11.4718755 23.547071499999998
18.0137105 17.6551465 29.3170745
17.7537315 12.127706499999999 29.269308499999998
17.737004499999998 11.578793499999998 36.0118705
23.9084045 29.4531735 29.8600855
18.0573865 18.2342555 11.723369499999999
30.074833499999997 11.8947285 11.573709499999998
23.6554865 35.4351965 35.9259995
18.201295499999997 18.3797005 23.886006499999997
24.089187499999998 36.134453500000006 29.4126595
23.5704355 35.9964945 17.7211025
23.647153499999998 35.906940500000005 11.653568499999999
18.3262865 18.1437475 17.893247499999998
17.8017575 30.1149675 24.0564845
30.1432225 17.717090499999998 17.729114499999998
23.9421835 29.293203499999997 11.787984499999999
30.154161499999997 12.3968745 18.0524755
30.134987499999998 18.1737935 24.0899975
17.6738645 23.6774465 17.6799715
17.890458499999998 30.0888685 18.2133555
30.0939065 30.0172895 11.7368315
29.3141055 23.774596499999998 36.0965705
30.158291499999997 30.0111995 17.9835525
11.811051499999998 23.498305499999997 24.3130075
23.655019499999998 23.660755499999997 12.300139499999998
29.8621965 24.2557735 30.1369895
17.617078499999998 23.943404499999996 35.525854499999994
24.053883499999998 24.134579499999997 17.501471499999997
30.256738499999997 23.659849499999996 24.1955425
12.2691495 23.8305965 29.5930355
30.3004945 18.1346995 29.6294935
11.614790499999998 30.110269499999998 12.221874499999998
29.6963415 23.4630245 17.8440715
17.891155499999996 23.8122415 30.267379499999997
11.6122465 30.2896465 18.041400499999998
23.5841045 23.9247325 23.627704499999997
30.307761499999998 17.803070499999997 35.7749355
11.6530835 29.508028499999998 24.024315499999997
17.887852499999997 24.257212499999998 24.2348125
12.329870499999998 23.629440499999998 35.52155449999999
23.4873615 24.2687295 29.7363055
11.852727499999999 30.3385425 29.777890499999998
12.1210595 35.4062605 16.940184499999997
29.499898499999997 22.843268499999997 10.168630499999999
16.941666499999997 35.399381500000004 17.7507995
18.280968499999997 35.3666745 18.8161615
12.375350499999998 24.7278435 18.3479425
12.3802735 23.054113499999996 18.4135375
12.327746499999998 23.8147235 16.991241499999997
10.171225499999998 22.966496499999998 17.4510665
10.127695499999998 24.721634499999997 17.3684345
10.137141499999998 23.9284075 18.957405499999997
36.104628500000004 23.3868355 12.803307499999999
29.1641825 24.6744485 10.142916499999998
35.510664500000004 24.8397435 12.201832499999998
34.904857500000006 23.4076845 11.6553195
36.372035499999996 24.3515965 10.070182499999998
37.0803475 22.805044499999997 10.6732845
37.70172049999999 24.404454499999996 11.349826499999999
29.6670795 37.5920735 30.8587115
30.7685635 37.573927499999996 29.4388115
35.382639499999996 30.7938385 29.7979205
35.367043499999994 29.271993499999997 29.0121535
29.016841499999998 37.5623255 29.2097245
30.8181355 24.044288499999997 10.135243499999998
30.1260275 24.7419215 12.372886499999998
30.4231965 23.1768425 12.344499499999998
23.1285535 12.372637499999998 18.5446985
22.925137499999998 10.186161499999999 17.5689615
24.064258499999998 10.180380499999998 18.9088235
24.6431245 10.166855499999999 17.2755245
23.730913499999996 12.327945499999998 16.994317499999998
18.3178505 12.307476499999998 17.0207575
16.9618605 12.3330685 18.060705499999997
18.470173499999998 12.319013499999999 18.6736655
17.473169499999997 10.1915705 18.874688499999998
18.9254155 10.145646499999998 17.8335305
35.4172195 29.3935095 30.6495075
17.3107485 10.201200499999999 17.066107499999998
18.9552265 37.606311500000004 18.0465975
12.820508499999999 18.2714885 36.1287645
12.115680499999998 16.995208499999997 35.412523500000006
11.721928499999999 18.5297925 34.979633500000006
10.013501499999999 17.5610005 36.354829499999994
10.7639325 18.973300499999997 37.130699500000006
11.290261499999998 17.271775499999997 37.6072025
17.5666585 37.5519005 16.9295585
18.497946499999998 35.4215135 17.1426505
28.8979625 23.6651335 12.322046499999999
17.2361875 37.585748499999994 18.7002185
37.5535045 28.753942499999997 29.8944855
37.5987155 30.2651775 28.8675185
12.8477845 36.1651215 18.2558205
11.535589499999999 34.8084405 23.984350499999998
10.3797775 36.728973499999995 24.8428075
10.283230499999998 36.60822950000001 22.9984085
11.430020499999998 37.76787950000001 23.7958385
11.5784785 30.1965285 34.8807585
12.351303499999998 28.8541115 35.63096350000001
23.3882615 22.987692499999998 35.3869435
23.4007715 24.698475499999997 35.3725845
24.865546499999997 23.8776925 35.372296500000004
24.342739499999997 24.765962499999997 37.6009105
12.6102385 35.9164495 24.658734499999998
24.3974275 22.9924385 37.6035485
9.966597499999999 36.3810395 17.5121265
23.3056165 18.7305085 35.366288499999996
24.8441395 17.9684805 35.3957635
23.4695735 17.0839635 35.3787205
24.442521499999998 17.0967955 37.5801635
22.8164635 17.810094499999998 37.607251500000004
24.3324705 18.8220845 37.5791605
10.8167815 37.1716835 18.962251499999997
11.241103499999998 37.6433995 17.267881499999998
11.681452499999999 34.935404500000004 18.513419499999998
22.8247685 23.843001499999996 37.622497499999994
12.5451325 35.765955500000004 22.9909455
12.807754499999998 30.406055499999997 36.0375765
10.580980499999999 30.876731499999998 36.967605500000005
30.6105135 35.380000499999994 30.3783115
29.907838499999997 35.4145355 28.835451499999998
22.9306195 17.8189325 12.354292499999998
24.4311695 17.1011635 12.312614499999999
24.253053499999996 18.748778499999997 12.349678499999998
24.8995055 18.024247499999998 10.136910499999999
23.2566825 18.810429499999998 10.1592145
23.445734499999997 16.9825645 10.1343395
28.914136499999998 35.41009150000001 30.2165255
24.4340025 35.418417500000004 24.6595785
22.9277725 35.3669735 24.020895499999998
24.2656265 35.419400499999995 22.9578345
23.2067715 37.594400500000006 23.056762499999998
24.877152499999998 37.5989235 23.724122499999996
23.4980445 37.5806735 24.8121635
10.138744499999998 29.1942155 36.459111500000006
11.341750499999998 29.457797499999998 37.7519545
16.9651495 29.711857499999997 12.312762499999998
18.538026499999997 29.080699499999998 12.343117499999998
18.2936305 30.732414499999997 12.358721499999998
18.9675995 29.977527499999997 10.179992499999999
17.2552995 30.602493499999998 10.158371499999998
17.5078855 28.866818499999997 10.120460499999998
37.550676499999994 30.363684499999998 30.7015985
24.7409335 12.358729499999999 18.2794465
23.8754175 17.8862985 35.8339795
23.7904885 11.991894499999999 17.9732575
17.9873335 11.942850499999999 17.9562015
11.930989499999999 35.71160450000001 23.8192475
35.72545650000001 23.9262475 11.936472499999999
11.922823499999998 23.9011595 17.9619155
23.8256555 35.766026499999995 23.9456545
29.815288499999998 23.9198385 11.917789499999998
23.928488499999997 17.9368665 11.907183499999999
35.757056500000004 29.7483465 29.7703475
17.940668499999997 29.749639499999997 11.889743499999998
11.990678499999998 17.8683865 35.814545499999994
23.8602705 23.9492855 35.819194499999995
17.8658765 35.694757499999994 17.9639235
11.912617499999998 29.8656565 35.812149500000004
12.0165315 35.840948499999996 17.8712765
29.873405499999997 35.8022675 29.7834105
14.959660499999998 15.157102499999999 14.7757385
20.835009499999998 20.915686499999996 21.1706035
20.6294515 20.9630435 15.046165499999999
32.8625835 14.7239265 14.9279245
32.7827955 14.790774499999998 20.6311085
20.737113499999996 14.804791499999999 32.6340495
32.5585205 14.8509365 26.9236215
20.7253275 14.887912499999999 26.6328585
26.8946005 15.259637499999998 20.7873155
20.703144499999997 15.201713499999999 21.056530499999997
21.1093425 14.783606499999998 14.744033499999999
33.0340935 20.9800555 14.8456035
32.9957335 20.985449499999998 20.987554499999998
32.619761499999996 21.0318315 26.6423205
14.998718499999999 33.1193315 32.8220735
32.545042499999994 20.9647935 32.8433945
14.917872499999998 32.489763499999995 26.9231685
32.9510365 26.6708885 15.061765499999998
14.7900295 32.904388499999996 20.7729835
32.9839255 27.028410499999996 20.6545295
14.7774705 32.667525499999996 14.818719499999998
32.7502145 26.808715499999998 26.5885645
26.943423499999998 32.5905165 32.9944025
15.222281499999998 26.9505995 32.790285499999996
21.0917085 20.9244965 26.730769499999997
20.724516499999996 20.721437499999997 32.7531225
26.6391325 14.736639499999999 26.990830499999998
26.7913405 15.159080499999998 14.8610455
26.777287499999996 15.163114499999999 32.6461805
26.8533595 21.1041815 14.879491499999999
27.004689499999998 21.0709195 21.0615195
20.898449499999998 32.7328315 32.5456685
26.627881499999997 20.738971499999998 26.7158245
20.847791499999996 33.0617695 26.855702499999996
26.888632499999996 21.0946375 32.970440499999995
20.7267485 32.9243325 21.0772485
27.1074965 26.749197499999998 15.057416499999999
20.607000499999998 32.6819035 14.928945499999998
26.9443295 26.701315499999996 21.1346315
20.8377305 26.537995499999997 32.6464945
26.805822499999998 27.1004445 26.8386425
20.8448655 27.062418499999996 26.7897665
27.149510499999998 26.911323499999998 32.7737645
20.803806499999997 27.007015499999998 20.7246305
27.079599499999997 32.9444725 14.7531255
20.6230705 26.783290499999996 14.967155499999999
27.0293215 33.0068455 21.0342575
26.868837499999998 33.1135175 26.7013695
32.9797485 26.738404499999998 32.5565055
32.9717165 15.0014905 33.0949995
32.7981875 32.650009499999996 26.5111195
15.0048325 21.1033685 33.0016425
14.656103499999999 15.147056499999998 20.8017965
14.840010499999998 20.6990175 26.978986499999998
32.9537615 32.8793675 33.0309155
15.096228499999999 26.891874499999997 21.043365499999997
32.6186315 32.5145715 20.9090185
14.890592499999999 21.021039499999997 15.261518499999998
14.9925085 14.863218499999999 32.9936275
32.6663525 32.5756295 14.854653499999998
14.956131499999998 15.0005955 26.6277755
15.2278095 20.993884499999997 21.0323985
14.821632499999998 26.9117185 26.570614499999998
14.955541499999999 26.541880499999998 14.9216895
