3_train/206_cspbbr3_MA-2-Fur_3_0.40\206_cspbbr3_MA-2-Fur_3_0.40.xyz
1.0
42.08963 0 0
0 42.08963 0
0 0 42.08963
Br C Cs H N O Pb 
84 139 35 186 19 72 27 
Cartesian
15.094814999999999 15.094814999999999 12.119815
15.094814999999999 12.119815 15.094814999999999
15.094814999999999 15.094814999999999 18.069815
15.094814999999999 15.094814999999999 24.019814999999998
15.094814999999999 12.119815 26.994815
15.094814999999999 15.094814999999999 29.969815
15.094814999999999 21.044815 12.119815
15.094814999999999 18.069815 15.094814999999999
12.119815 21.044815 15.094814999999999
15.094814999999999 21.044815 18.069815
15.094814999999999 18.069815 21.044815
12.119815 21.044815 21.044815
15.094814999999999 21.044815 24.019814999999998
15.094814999999999 18.069815 26.994815
12.119815 21.044815 26.994815
15.094814999999999 26.994815 12.119815
15.094814999999999 24.019814999999998 15.094814999999999
15.094814999999999 26.994815 18.069815
15.094814999999999 24.019814999999998 21.044815
12.119815 26.994815 21.044815
15.094814999999999 26.994815 24.019814999999998
15.094814999999999 24.019814999999998 26.994815
12.119815 26.994815 26.994815
15.094814999999999 26.994815 29.969815
15.094814999999999 29.969815 15.094814999999999
21.044815 12.119815 15.094814999999999
18.069815 15.094814999999999 15.094814999999999
21.044815 15.094814999999999 18.069815
21.044815 12.119815 21.044815
18.069815 15.094814999999999 21.044815
21.044815 15.094814999999999 24.019814999999998
21.044815 12.119815 26.994815
18.069815 15.094814999999999 26.994815
21.044815 21.044815 12.119815
21.044815 18.069815 15.094814999999999
18.069815 21.044815 15.094814999999999
21.044815 21.044815 18.069815
21.044815 18.069815 21.044815
18.069815 21.044815 21.044815
21.044815 21.044815 24.019814999999998
21.044815 18.069815 26.994815
18.069815 21.044815 26.994815
21.044815 21.044815 29.969815
21.044815 24.019814999999998 15.094814999999999
18.069815 26.994815 15.094814999999999
21.044815 26.994815 18.069815
21.044815 24.019814999999998 21.044815
18.069815 26.994815 21.044815
21.044815 26.994815 24.019814999999998
21.044815 24.019814999999998 26.994815
18.069815 26.994815 26.994815
21.044815 26.994815 29.969815
21.044815 29.969815 21.044815
21.044815 29.969815 26.994815
26.994815 15.094814999999999 12.119815
24.019814999999998 15.094814999999999 15.094814999999999
26.994815 15.094814999999999 18.069815
24.019814999999998 15.094814999999999 21.044815
26.994815 15.094814999999999 24.019814999999998
24.019814999999998 15.094814999999999 26.994815
26.994815 18.069815 15.094814999999999
24.019814999999998 21.044815 15.094814999999999
26.994815 21.044815 18.069815
26.994815 18.069815 21.044815
24.019814999999998 21.044815 21.044815
26.994815 21.044815 24.019814999999998
26.994815 18.069815 26.994815
24.019814999999998 21.044815 26.994815
26.994815 21.044815 29.969815
26.994815 24.019814999999998 15.094814999999999
24.019814999999998 26.994815 15.094814999999999
26.994815 26.994815 18.069815
26.994815 24.019814999999998 21.044815
24.019814999999998 26.994815 21.044815
26.994815 26.994815 24.019814999999998
26.994815 24.019814999999998 26.994815
24.019814999999998 26.994815 26.994815
26.994815 29.969815 15.094814999999999
26.994815 29.969815 26.994815
29.969815 15.094814999999999 15.094814999999999
29.969815 15.094814999999999 26.994815
29.969815 21.044815 15.094814999999999
29.969815 21.044815 26.994815
29.969815 26.994815 21.044815
14.774026999999998 21.295888 33.620101
14.284875999999999 21.670345 32.337889000000004
15.094814999999999 21.044815 31.418271
15.844596 20.468761 33.394586000000004
15.094814999999999 21.044815 29.969815
27.273569 14.797764999999998 33.620101
27.699903 14.3531 32.337889000000004
26.994815 15.094814999999999 31.418271
26.341638 15.778458999999998 33.394586000000004
26.994815 15.094814999999999 29.969815
21.009096 14.689024 33.620101
20.961665 14.074826999999999 32.337889000000004
21.044815 15.094814999999999 31.418271
21.119260999999998 16.037399999999998 33.394586000000004
21.044815 15.094814999999999 29.969815
27.389754 26.894986 33.620101
27.988578999999998 26.750432999999997 32.337889000000004
26.994815 26.994815 31.418271
26.076083 27.218287999999998 33.394586000000004
26.994815 26.994815 29.969815
20.642248 26.932506 8.469529
20.032496 26.844814 9.751740999999999
21.044815 26.994815 10.671358999999999
21.98047 27.131044 8.695044
21.044815 26.994815 12.119815
27.185151 21.404974 8.469529
27.478807999999997 21.946502 9.751740999999999
26.994815 21.044815 10.671358999999999
26.545539 20.212853 8.695044
26.994815 21.044815 12.119815
27.090560999999997 27.390764 8.469529
27.241763 27.987944 9.751740999999999
26.994815 26.994815 10.671358999999999
26.764337 26.077814999999998 8.695044
26.994815 26.994815 12.119815
21.217183 15.463911 8.469529
21.483814 16.019244 9.751740999999999
21.044815 15.094814999999999 10.671358999999999
20.637057 14.241736999999999 8.695044
21.044815 15.094814999999999 12.119815
8.469529 15.137628 27.399919
9.751740999999999 15.208936999999999 28.011802999999997
10.671358999999999 15.094814999999999 26.994815
8.695044 14.987003 26.055460999999998
12.119815 15.094814999999999 26.994815
8.469529 27.002928 14.687534999999999
9.751740999999999 27.008591 14.071535999999998
10.671358999999999 26.994815 15.094814999999999
8.695044 26.984474 16.040278999999998
12.119815 26.994815 15.094814999999999
8.469529 14.99208 21.439007999999998
9.751740999999999 14.843121 22.036752
10.671358999999999 15.094814999999999 21.044815
8.695044 15.325047999999999 20.127753
12.119815 15.094814999999999 21.044815
8.469529 14.689058999999999 15.058698
9.751740999999999 14.074909 15.010663
10.671358999999999 15.094814999999999 15.094814999999999
8.695044 16.037326999999998 15.170186999999999
12.119815 15.094814999999999 15.094814999999999
33.620101 21.451705 21.025236
32.337889000000004 22.0673 21.002227
31.418271 21.044815 21.044815
33.394586000000004 20.100017 21.081778
29.969815 21.044815 21.044815
33.620101 14.784771 20.78059
32.337889000000004 14.320222 20.376013999999998
31.418271 15.094814999999999 21.044815
33.394586000000004 15.808921 21.664543
29.969815 15.094814999999999 21.044815
33.620101 27.218048 14.754067
32.337889000000004 27.561136 14.242424
31.418271 26.994815 15.094814999999999
33.394586000000004 26.46959 15.881039
29.969815 26.994815 15.094814999999999
33.620101 27.197753 27.348027
32.337889000000004 27.498898999999998 27.885427
31.418271 26.994815 26.994815
33.394586000000004 26.531156999999997 26.170782
29.969815 26.994815 26.994815
26.924519 8.469529 26.593566
26.824727 9.751740999999999 25.985677
26.994815 10.671358999999999 26.994815
27.14961 8.695044 27.927578
26.994815 12.119815 26.994815
15.267792 8.469529 20.676004
15.535338 9.751740999999999 20.121111
15.094814999999999 10.671358999999999 21.044815
14.685651 8.695044 21.89722
15.094814999999999 12.119815 21.044815
27.325474 8.469529 21.282737
27.821623 9.751740999999999 21.647872
26.994815 10.671358999999999 21.044815
26.232314 8.695044 20.485708
26.994815 12.119815 21.044815
27.394757 8.469529 15.172203
27.998274 9.751740999999999 15.29571
26.994815 10.671358999999999 15.094814999999999
26.068163 8.695044 14.906863
26.994815 12.119815 15.094814999999999
15.366525999999999 33.620101 27.298320999999998
15.782314999999999 32.337889000000004 27.752861
15.094814999999999 31.418271 26.994815
14.457849999999999 33.394586000000004 26.296041
15.094814999999999 29.969815 26.994815
26.902088 33.620101 20.648149
26.755438 32.337889000000004 20.049833999999997
26.994815 31.418271 21.044815
27.218301 33.394586000000004 21.963544
26.994815 29.969815 21.044815
20.639756 33.620101 15.051569999999998
20.026546 32.337889000000004 14.992745999999999
21.044815 31.418271 15.094814999999999
21.985856 33.394586000000004 15.186744999999998
21.044815 29.969815 15.094814999999999
14.818589 33.620101 21.344216999999997
14.405747999999999 32.337889000000004 21.801436
15.094814999999999 31.418271 21.044815
15.729695999999999 33.394586000000004 20.344147999999997
15.094814999999999 29.969815 21.044815
18.069815 10.644154 24.019814999999998
10.644154 18.069815 24.019814999999998
31.445476 18.069815 18.069815
11.076365 18.069815 31.013265
11.076365 18.069815 11.076365
11.076365 31.013265 24.019814999999998
31.445476 18.069815 24.019814999999998
31.013265 24.019814999999998 11.076365
24.019814999999998 10.644154 18.069815
24.019814999999998 31.013265 11.076365
18.069815 24.019814999999998 31.445476
31.445476 24.019814999999998 24.019814999999998
24.019814999999998 31.445476 18.069815
31.013265 11.076365 24.019814999999998
24.019814999999998 18.069815 31.445476
31.013265 18.069815 31.013265
31.445476 24.019814999999998 18.069815
18.069815 31.013265 31.013265
11.076365 11.076365 24.019814999999998
12.119815 12.119815 18.069815
12.119815 18.069815 18.069815
12.119815 24.019814999999998 12.119815
12.119815 24.019814999999998 18.069815
12.119815 24.019814999999998 24.019814999999998
12.119815 24.019814999999998 29.969815
12.119815 29.969815 18.069815
18.069815 12.119815 12.119815
18.069815 12.119815 18.069815
18.069815 12.119815 29.969815
18.069815 18.069815 12.119815
18.069815 18.069815 18.069815
18.069815 18.069815 24.019814999999998
18.069815 18.069815 29.969815
18.069815 24.019814999999998 12.119815
18.069815 24.019814999999998 18.069815
18.069815 24.019814999999998 24.019814999999998
18.069815 29.969815 12.119815
18.069815 29.969815 18.069815
18.069815 29.969815 24.019814999999998
24.019814999999998 12.119815 24.019814999999998
24.019814999999998 12.119815 29.969815
24.019814999999998 18.069815 12.119815
24.019814999999998 18.069815 18.069815
24.019814999999998 18.069815 24.019814999999998
24.019814999999998 24.019814999999998 12.119815
24.019814999999998 24.019814999999998 18.069815
24.019814999999998 24.019814999999998 24.019814999999998
24.019814999999998 24.019814999999998 29.969815
24.019814999999998 29.969815 24.019814999999998
29.969815 12.119815 18.069815
29.969815 18.069815 12.119815
29.969815 24.019814999999998 29.969815
29.969815 29.969815 18.069815
29.969815 29.969815 24.019814999999998
16.529214 19.937046 34.048206
14.389844 21.597677 34.58963
13.444405999999999 22.317891 32.105501000000004
25.746101 16.408347 34.048206
27.607242 14.440923999999999 34.58963
28.431807 13.584971999999999 32.105501000000004
21.192038 16.901187 34.048206
20.965397 14.20244 34.58963
20.876690999999997 13.017242999999999 32.105501000000004
25.23488 27.427575 34.048206
27.863186 26.774423 34.58963
29.01917 26.498268999999997 32.105501000000004
22.837607 27.26043 8.041424
20.159588 26.856924 7.499999999999999
18.982782 26.690521999999998 9.984129
26.137646999999998 19.447969 8.041424
27.412653 21.837312 7.499999999999999
27.981683999999998 22.880751 9.984129
26.557444 25.23602 8.041424
27.204545999999997 27.865821999999998 7.499999999999999
27.498991 29.017284 9.984129
20.26733 13.457692999999999 8.041424
21.423117 15.906927999999999 7.499999999999999
21.94007 16.977125 9.984129
8.041424 14.892674 25.193762
7.499999999999999 15.188113 27.885845999999997
9.984129 15.328484999999999 29.066039
8.041424 26.970451999999998 16.907013
7.499999999999999 27.013522 14.199107999999999
9.984129 27.021635 13.010624
8.041424 15.540526 19.288114999999998
7.499999999999999 14.868032999999999 21.911539
9.984129 14.583372999999998 23.065458
8.041424 16.901041 15.243813
7.499999999999999 14.202518 15.014520999999998
9.984129 13.017408999999999 14.92465
34.048206 19.234022 21.120203
34.58963 21.93964 21.00089
32.105501000000004 23.127424 20.95931
34.048206 16.466575 22.229268
34.58963 14.412377999999999 20.464367
32.105501000000004 13.517962999999998 19.68169
34.048206 25.991849 16.604356
34.58963 27.485045 14.344937999999999
32.105501000000004 28.149306 13.359383999999999
34.048206 26.102127 25.417551
34.58963 27.441885 27.771196999999997
32.105501000000004 28.020436 28.809388
27.296003 8.041424 28.781973999999998
26.839361 7.499999999999999 26.112503
26.649606 9.984129 24.939235999999998
14.314630999999999 8.041424 22.680653
15.474456 7.499999999999999 20.233327
15.993172999999999 9.984129 19.163984
25.530582 8.041424 19.976791
27.722534999999997 7.499999999999999 21.56737
28.678096 9.984129 22.274098
25.217724 8.041424 14.739002999999999
27.874565999999998 7.499999999999999 15.264163
29.038379 9.984129 15.505203999999999
13.877248 34.048206 25.652359999999998
15.691738999999998 34.58963 27.662888
16.496004 32.105501000000004 28.537941999999997
27.418777 34.048206 22.80689
26.791725 34.58963 20.172235999999998
26.506058999999997 32.105501000000004 19.018565
22.848142999999997 34.048206 15.275542999999999
20.154068 34.58963 14.998845999999999
18.970720999999998 32.105501000000004 14.888155999999999
16.315108 34.048206 19.704838
14.486678 34.58963 21.702698
13.692264999999999 32.105501000000004 22.586705
18.444240999999998 10.310233 23.050315
18.722214 10.310233 24.828827
17.042991 10.310233 24.180302
17.724742 12.494557 24.913310999999997
17.468561 12.494557 23.274224999999998
19.016142 12.494557 23.871909
10.310233 19.085069999999998 23.797596
10.310233 17.36974 23.251687
10.310233 17.754635 25.010161
12.494557 17.134149999999998 24.224614
12.494557 18.715007999999997 24.727725
12.494557 18.360286 23.107105999999998
31.779397 18.912065 17.460931
31.779397 18.175998999999997 19.103666999999998
31.779397 17.121381 17.644847
29.595073 17.293593 18.630965
29.595073 17.971955 17.117012
29.595073 18.943897 18.461468
10.320777999999999 18.804952999999998 30.729913
10.649804 17.066029 31.058939
11.550159999999998 18.338462999999997 31.959296
12.863543 17.392308 30.183578
12.560312 18.994909999999997 29.880346
11.730538 17.822226999999998 29.050573
10.361336 18.858112 11.319158999999999
11.562434999999999 18.262211 10.11806
10.596971 17.089122 11.083523
12.826165 17.343315999999998 11.943431
11.719225999999999 17.892502999999998 13.050369
12.609002 18.973627 12.160592999999999
10.364826999999998 30.773961999999997 23.227303
10.592645 31.00178 24.99834
11.56327 31.972405 23.833802
12.822947999999998 30.142982 24.750198
12.612988999999999 29.933024 23.118001
11.718456 29.038491 24.191245
31.779397 17.747832 23.031659
31.779397 19.086575 24.235046999999998
31.779397 17.375039 24.792738
29.595073 18.366556 24.930505
29.595073 17.132763999999998 23.821456
29.595073 18.710124999999998 23.307485
31.964285 24.260552999999998 11.55515
31.039353 23.023873 10.630218
30.74451 24.775018 10.335374999999999
29.045975 23.797949999999997 11.72594
29.898397 24.937679999999997 12.578361999999998
30.170125 23.323815 12.850090999999999
24.854224 10.310233 18.689401
23.066033 10.310233 18.482641
24.139188 10.310233 17.037402999999998
23.25082 12.494557 17.498801
24.898825 12.494557 17.689352
23.9098 12.494557 19.021290999999998
23.720363 31.953106 11.543970999999999
25.031423 31.080897 10.671762
23.30766 30.714145 10.305008999999998
24.295792 29.056276999999998 11.736241999999999
23.087512 29.860108999999998 12.540074999999998
24.676140999999998 30.19811 12.878075999999998
18.646179 23.154985999999997 31.779397
18.530597 24.951376 31.779397
17.032669 23.953083 31.779397
17.538634 24.816846 29.595073
17.645156999999998 23.161284 29.595073
19.025654 24.081315999999998 29.595073
31.779397 22.983014 23.947923999999997
31.779397 24.600475 23.157864
31.779397 24.475956 24.953657
29.595073 24.975336 24.086071
29.595073 23.484675 24.814193
29.595073 23.599433 23.159181999999998
23.421808 31.779397 17.219807
23.58269 31.779397 19.012708
25.054945999999997 31.779397 17.97693
24.570941 29.595073 18.853186
24.422670999999998 29.595073 17.20084
23.065831999999997 29.595073 18.155419
31.984253 11.575118 24.012421999999997
30.886475 10.477339999999998 24.923540999999997
30.87742 10.468284999999998 23.123482
29.027572 11.707536999999999 24.026629
30.039289999999998 12.719256 23.186936999999997
30.047635 12.727601 24.845879999999998
24.051399999999997 17.031004 31.779397
24.903659 18.616573 31.779397
23.104386 18.561867 31.779397
23.990706 19.027188 29.595073
23.20526 17.565919 29.595073
24.863479 17.616338 29.595073
31.782163 18.785646999999997 30.716601999999998
30.544636999999998 18.364418999999998 31.954128
31.421348 17.059379 31.077417
29.213819 17.410100999999997 30.195845
30.354329999999997 17.798306 29.055335
29.546348 19.001038 29.863317
31.779397 23.326262 18.843836
31.779397 23.69627 17.082169999999998
31.779397 25.036914 18.283439
29.595073 24.658998 17.356473
29.595073 24.317995999999997 18.980034
29.595073 23.082452 17.872937
17.0716 31.453944999999997 31.044819999999998
18.318386 30.535822 31.962943
18.819459 31.758381 30.740384
18.989774999999998 29.516306999999998 29.893358
17.840730999999998 30.362453 29.047211
17.378939 29.235737 30.173928
10.762960999999999 10.917534 25.053341999999997
10.245987 11.434508 23.408395
11.511793999999998 10.168700999999999 23.597708
12.456025 12.313569999999999 23.067311
12.932471 11.837124 24.583302999999997
11.765896999999999 13.003699 24.408831
18.069815 12.119815 24.019814999999998
12.119815 18.069815 24.019814999999998
29.969815 18.069815 18.069815
12.119815 18.069815 29.969815
12.119815 18.069815 12.119815
12.119815 29.969815 24.019814999999998
29.969815 18.069815 24.019814999999998
29.969815 24.019814999999998 12.119815
24.019814999999998 12.119815 18.069815
24.019814999999998 29.969815 12.119815
18.069815 24.019814999999998 29.969815
29.969815 24.019814999999998 24.019814999999998
24.019814999999998 29.969815 18.069815
29.969815 12.119815 24.019814999999998
24.019814999999998 18.069815 29.969815
29.969815 18.069815 29.969815
29.969815 24.019814999999998 18.069815
18.069815 29.969815 29.969815
12.119815 12.119815 24.019814999999998
16.058863 20.302621 32.061344
14.267043 21.719564 29.269219
15.904598 20.384788999999998 29.236599
26.15521 15.975328 32.061344
27.710022 14.301737999999999 29.269219
26.295140999999997 15.870598 29.236599
21.14181 16.307593999999998 32.061344
20.930113 14.033054 29.269219
21.156974 16.13347 29.236599
25.812918999999997 27.283541 32.061344
28.024798999999998 26.712636999999997 29.269219
25.987238 27.270805999999997 29.236599
22.248597999999998 27.171301 10.028286
19.992888 26.810585 12.820411
22.073853 27.174989 12.853031
26.417769 19.973713 10.028286
27.474994 21.998713 12.820411
26.525046999999997 20.111701 12.853031
26.699417 25.814569 10.028286
27.225205 28.037606 12.820411
26.769395 25.974732 12.853031
20.52122 13.996595 10.028286
21.477433 16.071202999999997 12.820411
20.621571 14.139698 12.853031
10.028286 14.957286 25.785962
12.820411 15.185987999999998 28.058854
12.853031 15.005581 25.95394
10.028286 26.980302 16.31138
12.820411 27.037235999999996 14.027719999999999
12.853031 26.953363 16.138685
10.028286 15.392237999999999 19.865077999999997
12.820411 14.805059 22.072692999999997
12.853031 15.378219999999999 20.039298
10.028286 16.307498 15.193002
12.820411 14.033168 14.97907
12.853031 16.133359 15.207994999999999
32.061344 19.829141999999997 21.093583
29.269219 22.110291999999998 20.972359
29.236599 20.002526 21.115647999999997
32.061344 16.014482 21.84134
29.269219 14.268435 20.368363
29.236599 15.903179 21.706579
32.061344 26.319982999999997 16.10716
29.269219 27.562228 14.190085999999999
29.236599 26.439713 15.979826
32.061344 26.397150999999997 25.93508
29.269219 27.545083 27.910073
29.236599 26.456563999999997 26.099455
27.195187999999998 10.028286 28.194853
26.789717999999997 12.820411 25.946755999999997
27.195403 12.853031 28.02007
14.569408999999998 10.028286 22.142169999999997
15.529043 12.820411 20.069142
14.669996999999999 12.853031 21.999232
26.012952 10.028286 20.326355
27.873862999999997 12.820411 21.651253
26.134927 12.853031 20.451538999999997
25.802204 10.028286 14.854149
28.047119 12.820411 15.276879
25.965424 12.853031 14.916668
14.27609 32.061344 26.094854
15.791227 29.269219 27.804446
14.413526999999998 29.236599 26.202837
27.281215 32.061344 22.227276999999997
26.772375 29.269219 20.0003
27.212459 29.236599 22.066585
22.255584 32.061344 15.214305999999999
19.985367 29.269219 14.960424
22.081208999999998 29.236599 15.226234999999999
15.912643 32.061344 20.144039
14.355246999999999 29.269219 21.815225
15.818252 29.236599 20.291142999999998
15.094814999999999 15.094814999999999 15.094814999999999
15.094814999999999 15.094814999999999 21.044815
15.094814999999999 15.094814999999999 26.994815
15.094814999999999 21.044815 15.094814999999999
15.094814999999999 21.044815 21.044815
15.094814999999999 21.044815 26.994815
15.094814999999999 26.994815 15.094814999999999
15.094814999999999 26.994815 21.044815
15.094814999999999 26.994815 26.994815
21.044815 15.094814999999999 15.094814999999999
21.044815 15.094814999999999 21.044815
21.044815 15.094814999999999 26.994815
21.044815 21.044815 15.094814999999999
21.044815 21.044815 21.044815
21.044815 21.044815 26.994815
21.044815 26.994815 15.094814999999999
21.044815 26.994815 21.044815
21.044815 26.994815 26.994815
26.994815 15.094814999999999 15.094814999999999
26.994815 15.094814999999999 21.044815
26.994815 15.094814999999999 26.994815
26.994815 21.044815 15.094814999999999
26.994815 21.044815 21.044815
26.994815 21.044815 26.994815
26.994815 26.994815 15.094814999999999
26.994815 26.994815 21.044815
26.994815 26.994815 26.994815
