1_train/7_cspbbr3_methylammonium_3_0.20\7_cspbbr3_methylammonium_3_0.20.xyz
1.0
41.739143 0 0
0 41.739143 0
0 0 41.739143
Br C Cs H N Pb 
108 10 44 60 10 27 
Cartesian
24.0995365 26.811818499999998 20.9582255
26.9295005 14.741449499999998 18.049279499999997
24.0253835 14.769049499999998 14.939769499999999
29.7171545 15.005624499999998 26.6508845
26.827553499999997 12.130859499999998 15.068910499999998
26.6670355 15.049187499999999 11.842511499999999
29.9540285 20.8680845 14.743853499999998
29.9150635 21.0280955 20.971972499999996
21.091482499999998 29.6781585 26.6934285
20.609259499999997 29.8236495 20.7953735
20.7540515 29.762579499999998 14.737868499999998
17.6682445 26.806674499999996 26.717253499999998
29.7746805 21.039453499999997 26.6924215
20.9784325 23.958920499999998 26.6463975
20.8565255 27.030019499999998 23.7739725
18.024056499999997 27.0270325 20.7846225
30.011953499999997 26.875421499999998 14.920008499999998
21.0317325 23.7870965 21.029784499999998
20.7458495 27.054277499999998 17.9176255
29.6700365 26.7892975 21.060023499999996
18.154333499999996 26.806432499999996 14.7941145
29.7549775 26.973528499999997 26.6954995
21.0451195 24.005943499999997 14.7952015
20.7688225 26.866093499999998 12.146811499999998
21.017932499999997 26.9815555 29.7225175
26.568008499999998 11.934534499999998 20.9166435
23.929639499999997 14.706550499999999 20.949021499999997
29.9255045 15.048584499999999 15.057462499999998
26.918272499999997 23.952255499999996 20.764100499999998
26.9761945 26.733437499999997 23.7770555
26.7961805 27.0768985 17.9539685
23.7648545 26.7514705 15.138702499999999
26.975073499999997 23.6697185 14.7983345
26.700645499999997 26.5565065 12.003527499999999
26.680791499999998 23.8821965 27.038528499999998
23.9516855 26.6964645 26.729532499999998
26.726975499999998 21.0246515 29.6741885
23.694800499999996 20.775905499999997 26.6410995
26.9982735 17.9919805 26.7756345
27.111474499999996 20.8983045 23.8828195
26.7422675 26.812705499999996 30.0775275
26.9592465 29.9554755 14.7351345
26.8219125 17.8216715 20.6444115
26.7621975 20.636285499999996 17.7488515
26.9642565 29.884752499999998 20.9657235
23.7178065 20.768309499999997 14.7753965
26.6896775 17.765873499999998 15.068073499999999
27.012019499999997 20.7250975 11.824307499999998
27.0463225 29.8290105 26.754885499999997
26.792741499999998 14.7368955 29.861596499999997
23.9716415 14.928285499999998 27.0004515
26.685690499999996 11.980449499999999 26.9890395
26.617021499999996 14.916706499999998 23.919690499999998
29.7286295 15.108146499999998 20.863649499999998
20.8618025 21.016433499999998 29.618010499999997
24.005189499999997 20.7080645 20.8169595
14.912740499999998 11.930700499999999 20.5970215
14.821119499999998 29.7174835 21.115135499999997
15.086208499999998 20.9032795 18.0677555
15.077271499999998 29.7406865 14.753494499999999
14.974614499999998 26.7286405 29.542695499999997
12.149353499999998 15.119287499999999 20.885235499999997
12.009683499999998 26.912604499999997 27.054563499999997
14.888382499999999 23.9241275 26.5570725
14.718188499999998 26.836857499999997 23.632874499999996
11.786131499999998 26.775187499999998 20.953874499999998
14.784766499999998 24.0638975 20.9920245
14.974109499999999 15.0591835 23.6929695
14.804276499999999 26.9664635 18.0406615
14.753159499999999 29.9027805 26.628365499999997
14.750052499999999 11.763213499999999 26.7238345
14.868273499999999 24.033209499999998 14.8903705
11.797165499999998 14.830359499999998 26.6261305
14.733299499999998 26.7923655 11.949382499999999
14.804447499999998 14.864270499999998 29.611952499999997
15.032885499999999 20.7929495 29.553081499999998
14.917888499999998 20.6812075 11.810305499999998
11.761896499999999 21.006023499999998 26.7123055
15.129927499999999 17.8509155 26.6603975
15.0357525 21.001800499999998 24.0604555
14.750431499999998 18.0276325 15.084705499999998
11.793268499999998 20.8343405 20.9621745
14.800450499999998 18.0683965 20.9628105
12.1775355 26.7868595 14.931980499999998
14.785331499999998 14.8379175 17.995340499999998
12.098498499999998 20.7529055 14.768881499999999
14.711667499999999 11.9135555 15.0602445
20.5915495 17.8714625 20.8851355
18.0400875 20.724803499999997 14.7104635
20.8747035 17.782946499999998 14.759302499999999
20.9762365 20.9414555 11.781554499999999
20.8940675 15.071247499999998 30.0032015
20.7379085 15.000587499999998 11.824252499999998
17.9703715 20.910362499999998 21.0577035
17.9628345 14.696965499999997 26.907772499999997
20.7909265 12.051091499999998 26.6692195
14.806251499999998 15.033259499999998 11.722676499999999
20.9915975 21.034104499999998 18.089598499999997
21.001001499999997 14.889165499999999 23.719380499999996
20.756642499999998 20.817596499999997 23.634711499999998
20.957225499999996 17.7109035 26.6336755
18.1143885 15.075220499999999 20.7443805
20.7812165 12.126492499999998 20.9361255
20.7598885 14.895785499999999 18.0604655
17.692392499999997 21.068950499999996 26.8462695
17.743612499999998 15.0620865 14.7183725
20.8036565 11.998133499999998 14.734418499999999
12.108020499999999 15.003110499999998 14.776089499999998
23.879609499999997 30.9014845 30.8946945
10.893080499999998 17.846452499999998 10.822501499999998
17.8550865 30.860919499999998 30.909218499999998
23.7676685 10.517908499999999 17.935387499999997
10.925727499999999 30.7900775 23.787013499999997
17.956708499999998 23.8816845 31.2360865
17.875521499999998 17.836944499999998 10.529753499999998
17.9386625 31.332337499999998 17.9362255
17.8873715 10.5293055 23.791792499999996
23.8998805 31.1859635 23.8100915
29.460827499999997 23.4237255 29.863259499999998
23.4460935 29.8493395 12.351636499999998
24.117806499999997 23.568119499999998 29.6736845
29.528981499999997 29.419825499999998 23.5836535
29.725118499999997 18.339889499999998 23.506987499999997
29.5976975 23.7065675 23.406021499999998
29.912947499999998 11.853997499999998 18.272426499999998
30.0391105 23.6392875 17.6985195
30.010416499999998 11.9903655 23.470041499999997
12.165842499999998 11.765543499999998 24.3304655
29.970716499999998 24.145936499999998 12.0867785
30.102914499999997 17.7337885 11.8241515
29.4955975 18.143447499999997 17.6600425
17.9560975 17.905595499999997 30.170940499999997
23.7296575 29.4279755 17.7746225
17.565516499999998 23.7000255 12.039223499999999
29.4636985 18.2604395 29.821609499999997
23.6430685 24.180987499999997 23.4791815
11.789236499999998 18.275981499999997 17.6676655
18.0878685 17.546750499999998 23.871524499999996
18.0840945 23.4966245 17.6879565
17.965963499999997 18.0217605 17.4058265
17.795768499999998 24.3979455 23.6479465
18.313073499999998 11.506959499999999 29.7376585
17.926933499999997 29.965593499999997 12.332241499999999
18.126052499999997 29.951154499999998 24.084884499999998
24.2547515 11.759780499999998 12.292418499999998
17.923678499999998 11.594069499999998 17.4182565
18.1365055 12.069571499999999 11.5518495
12.046323499999998 29.2646545 17.7680485
23.9525825 12.172543499999998 29.275246499999998
23.4268405 12.014343499999999 24.1371395
12.454051499999998 23.6035135 29.926747499999998
12.132535499999998 18.2153155 23.837375499999997
24.167248499999996 23.687941499999997 17.6533175
11.763654499999998 18.096482499999997 30.1330185
23.816906499999998 18.0826525 11.597831499999998
23.890689499999997 23.4400905 11.519996499999998
23.5354325 18.0162445 29.9650905
12.201259499999999 24.301664499999998 11.865908499999998
24.1022845 17.946620499999998 24.123634499999998
11.8355705 24.0873815 23.4767325
23.5266475 18.223605499999998 17.7960815
11.652826499999998 23.9206405 18.172804499999998
22.923352499999996 29.4441565 23.570098499999997
11.636037499999999 18.4293575 12.817678499999998
9.982048499999998 17.410317499999998 11.328401499999998
10.6787225 18.9402535 10.659470499999998
11.257830499999999 17.3260085 10.009668499999998
12.814738499999999 18.3690535 11.609516499999998
24.028680499999997 28.8507495 30.2023385
12.214753499999999 16.9327445 12.244276499999998
22.9489675 29.705498499999997 29.3572015
23.5657005 31.5829785 22.877204499999998
23.0043965 10.111112499999999 18.5119525
12.3680645 29.6278865 24.7764705
24.8230005 31.6087995 24.071311499999997
23.7268285 10.164707499999999 16.8516795
24.7855095 10.148294499999999 18.3234805
24.5792075 12.329014499999998 17.3279785
24.0015875 12.3128485 18.878023499999998
22.9645835 12.283525499999998 17.504665499999998
10.130353499999998 30.534353499999998 24.577984499999996
11.388427499999999 31.739966499999998 24.1546535
10.5366995 30.918245499999998 22.8041285
12.745774499999998 30.0294295 23.189914499999997
11.5668625 28.862813499999998 23.5216545
23.132328499999996 31.638225499999997 24.572921499999996
24.5165125 29.9873665 29.060577499999997
17.335153499999997 24.6945455 31.635986499999998
24.8178295 30.8264505 31.304767499999997
24.116504499999998 29.3993525 24.742789499999997
17.2549745 10.162754499999998 23.013311499999997
18.9277275 10.106138499999998 23.7231295
17.5040665 10.108602499999998 24.844622499999996
18.4930435 12.280268499999998 24.5847165
16.975924499999998 12.338444499999998 23.9845315
18.2651085 12.280854499999998 22.9449535
18.917391499999997 31.5892655 18.1862085
17.6620325 31.6238325 16.8774275
17.1283425 31.5882485 18.648390499999998
16.9627245 29.4452575 17.6231395
18.166472499999998 29.4461595 18.8359085
18.5513445 29.400857499999997 17.187223499999998
18.1843965 18.8995985 10.134405499999998
18.6212305 17.096873499999997 10.116710499999998
16.897851499999998 17.7029425 10.115048499999999
17.6209025 16.9879075 12.2804475
23.0994015 30.5417125 31.550648499999998
17.5742335 30.1735305 28.876098499999998
18.8519245 29.3921715 29.660618499999998
17.2979065 29.012817499999997 30.021600499999998
18.225146499999997 30.390396499999998 31.7488115
16.899778499999996 31.1683475 30.9485675
23.5902585 31.7910075 30.3866925
18.528439499999998 31.6708175 30.473421499999997
18.3660805 24.6915755 29.3976375
18.4219155 23.058669499999997 29.3962535
18.9029435 23.862473499999997 31.605334499999998
17.4313415 22.945202499999997 31.5949755
18.790086499999997 18.102668499999996 12.325983499999998
17.2349015 18.613473499999998 12.353688499999999
16.907331499999998 23.794313499999998 29.4492305
24.495330499999998 29.394964499999997 23.1416555
23.9128385 29.7807875 23.9168855
17.917035499999997 23.7980335 29.7404995
17.8255645 11.954589499999999 23.891616499999998
17.855406499999997 29.7916185 29.8634155
17.8779175 17.9630635 11.995589499999998
23.843614499999997 11.968609499999998 17.8174265
11.948464499999998 17.956152499999998 11.880692499999999
23.7811295 29.7280055 29.7465235
17.839754499999998 29.8584125 17.886024499999998
11.956653499999998 29.731067499999998 23.776217499999998
14.860974499999998 15.094038499999998 14.7813965
26.5334695 26.9683285 14.836998499999998
14.829813499999998 27.063529499999998 14.807673499999998
15.201041499999999 26.923760499999997 20.7458725
26.5891755 20.7362455 27.0645845
20.8002355 26.570745499999997 14.771734499999999
15.1171525 26.6539105 26.9569675
26.6773275 21.049314499999998 14.931338499999999
26.636370499999998 15.092395499999999 26.7627165
26.9635985 26.8343265 20.6160115
20.669640499999996 14.7415475 14.747625499999998
20.6763825 14.723901499999998 21.0632725
26.618811499999996 14.9236735 14.732239499999999
20.7581535 15.022340499999999 26.9907285
20.858327499999998 20.686041499999998 15.104902499999998
20.5290305 26.736322499999996 26.848982499999998
21.0582225 21.025176499999997 20.9222505
20.8127155 27.0071205 21.076510499999998
21.0935255 21.000627499999997 26.577367499999998
26.5975475 14.904053499999998 20.875141499999998
15.144153499999998 20.6926965 26.9306165
26.7147385 21.0991385 20.6160525
14.907535499999998 14.715420499999999 26.671258499999997
15.131362499999998 20.780045499999996 21.060825499999996
14.9352065 14.623016499999999 21.0580565
14.775375499999999 20.9747935 14.761486499999998
26.945531499999998 26.5777345 26.7059005
