3_train/222_cspbbr3_MA-4-Br-2-TPC_4_0.60\222_cspbbr3_MA-4-Br-2-TPC_4_0.60.xyz
1.0
48.958448000000004 0 0
0 48.958448000000004 0
0 0 48.958448000000004
Br C Cs H N O Pb S 
240 351 61 426 51 120 64 60 
Cartesian
15.554224000000001 15.554224000000001 12.579224000000002
15.554224000000001 15.554224000000001 18.529224
15.554224000000001 15.554224000000001 24.479224000000002
15.554224000000001 12.579224000000002 27.454224000000004
12.579224000000002 15.554224000000001 27.454224000000004
15.554224000000001 15.554224000000001 30.429224000000005
12.579224000000002 15.554224000000001 33.404224
15.554224000000001 18.529224 15.554224000000001
15.554224000000001 21.504224 18.529224
15.554224000000001 18.529224 21.504224
15.554224000000001 21.504224 24.479224000000002
15.554224000000001 18.529224 27.454224000000004
15.554224000000001 21.504224 30.429224000000005
15.554224000000001 18.529224 33.404224
15.554224000000001 27.454224000000004 12.579224000000002
15.554224000000001 24.479224000000002 15.554224000000001
15.554224000000001 27.454224000000004 18.529224
15.554224000000001 24.479224000000002 21.504224
15.554224000000001 27.454224000000004 24.479224000000002
15.554224000000001 24.479224000000002 27.454224000000004
12.579224000000002 27.454224000000004 27.454224000000004
15.554224000000001 27.454224000000004 30.429224000000005
15.554224000000001 24.479224000000002 33.404224
15.554224000000001 27.454224000000004 36.379224
15.554224000000001 30.429224000000005 15.554224000000001
12.579224000000002 33.404224 15.554224000000001
15.554224000000001 33.404224 18.529224
15.554224000000001 30.429224000000005 21.504224
15.554224000000001 33.404224 24.479224000000002
15.554224000000001 30.429224000000005 27.454224000000004
12.579224000000002 33.404224 27.454224000000004
15.554224000000001 33.404224 30.429224000000005
15.554224000000001 30.429224000000005 33.404224
12.579224000000002 33.404224 33.404224
15.554224000000001 33.404224 36.379224
15.554224000000001 36.379224 21.504224
15.554224000000001 36.379224 27.454224000000004
21.504224 15.554224000000001 12.579224000000002
18.529224 15.554224000000001 15.554224000000001
21.504224 15.554224000000001 18.529224
21.504224 12.579224000000002 21.504224
18.529224 15.554224000000001 21.504224
21.504224 15.554224000000001 24.479224000000002
18.529224 15.554224000000001 27.454224000000004
21.504224 15.554224000000001 30.429224000000005
21.504224 12.579224000000002 33.404224
18.529224 15.554224000000001 33.404224
21.504224 21.504224 12.579224000000002
21.504224 18.529224 15.554224000000001
18.529224 21.504224 15.554224000000001
21.504224 21.504224 18.529224
21.504224 18.529224 21.504224
18.529224 21.504224 21.504224
21.504224 21.504224 24.479224000000002
21.504224 18.529224 27.454224000000004
18.529224 21.504224 27.454224000000004
21.504224 21.504224 30.429224000000005
21.504224 18.529224 33.404224
18.529224 21.504224 33.404224
21.504224 21.504224 36.379224
21.504224 24.479224000000002 15.554224000000001
18.529224 27.454224000000004 15.554224000000001
21.504224 27.454224000000004 18.529224
21.504224 24.479224000000002 21.504224
18.529224 27.454224000000004 21.504224
21.504224 27.454224000000004 24.479224000000002
21.504224 24.479224000000002 27.454224000000004
18.529224 27.454224000000004 27.454224000000004
21.504224 27.454224000000004 30.429224000000005
21.504224 24.479224000000002 33.404224
18.529224 27.454224000000004 33.404224
21.504224 27.454224000000004 36.379224
21.504224 33.404224 12.579224000000002
21.504224 30.429224000000005 15.554224000000001
18.529224 33.404224 15.554224000000001
21.504224 33.404224 18.529224
21.504224 30.429224000000005 21.504224
18.529224 33.404224 21.504224
21.504224 33.404224 24.479224000000002
21.504224 30.429224000000005 27.454224000000004
18.529224 33.404224 27.454224000000004
21.504224 33.404224 30.429224000000005
21.504224 30.429224000000005 33.404224
18.529224 33.404224 33.404224
24.479224000000002 15.554224000000001 15.554224000000001
27.454224000000004 15.554224000000001 18.529224
24.479224000000002 15.554224000000001 21.504224
27.454224000000004 15.554224000000001 24.479224000000002
24.479224000000002 15.554224000000001 27.454224000000004
27.454224000000004 15.554224000000001 30.429224000000005
24.479224000000002 15.554224000000001 33.404224
27.454224000000004 21.504224 12.579224000000002
27.454224000000004 18.529224 15.554224000000001
24.479224000000002 21.504224 15.554224000000001
27.454224000000004 21.504224 18.529224
27.454224000000004 18.529224 21.504224
24.479224000000002 21.504224 21.504224
27.454224000000004 21.504224 24.479224000000002
27.454224000000004 18.529224 27.454224000000004
24.479224000000002 21.504224 27.454224000000004
27.454224000000004 21.504224 30.429224000000005
27.454224000000004 18.529224 33.404224
24.479224000000002 21.504224 33.404224
27.454224000000004 24.479224000000002 15.554224000000001
24.479224000000002 27.454224000000004 15.554224000000001
27.454224000000004 27.454224000000004 18.529224
27.454224000000004 24.479224000000002 21.504224
24.479224000000002 27.454224000000004 21.504224
27.454224000000004 27.454224000000004 24.479224000000002
27.454224000000004 24.479224000000002 27.454224000000004
24.479224000000002 27.454224000000004 27.454224000000004
27.454224000000004 27.454224000000004 30.429224000000005
27.454224000000004 24.479224000000002 33.404224
24.479224000000002 27.454224000000004 33.404224
27.454224000000004 30.429224000000005 15.554224000000001
24.479224000000002 33.404224 15.554224000000001
27.454224000000004 33.404224 18.529224
27.454224000000004 30.429224000000005 21.504224
24.479224000000002 33.404224 21.504224
27.454224000000004 33.404224 24.479224000000002
27.454224000000004 30.429224000000005 27.454224000000004
24.479224000000002 33.404224 27.454224000000004
27.454224000000004 33.404224 30.429224000000005
27.454224000000004 30.429224000000005 33.404224
24.479224000000002 33.404224 33.404224
27.454224000000004 36.379224 15.554224000000001
27.454224000000004 36.379224 21.504224
33.404224 12.579224000000002 15.554224000000001
30.429224000000005 15.554224000000001 15.554224000000001
33.404224 15.554224000000001 18.529224
33.404224 12.579224000000002 21.504224
30.429224000000005 15.554224000000001 21.504224
33.404224 15.554224000000001 24.479224000000002
30.429224000000005 15.554224000000001 27.454224000000004
33.404224 15.554224000000001 30.429224000000005
33.404224 12.579224000000002 33.404224
30.429224000000005 15.554224000000001 33.404224
33.404224 18.529224 15.554224000000001
30.429224000000005 21.504224 15.554224000000001
33.404224 21.504224 18.529224
33.404224 18.529224 21.504224
30.429224000000005 21.504224 21.504224
33.404224 21.504224 24.479224000000002
33.404224 18.529224 27.454224000000004
30.429224000000005 21.504224 27.454224000000004
33.404224 21.504224 30.429224000000005
33.404224 18.529224 33.404224
30.429224000000005 21.504224 33.404224
33.404224 21.504224 36.379224
33.404224 24.479224000000002 15.554224000000001
30.429224000000005 27.454224000000004 15.554224000000001
33.404224 27.454224000000004 18.529224
33.404224 24.479224000000002 21.504224
30.429224000000005 27.454224000000004 21.504224
33.404224 27.454224000000004 24.479224000000002
33.404224 24.479224000000002 27.454224000000004
30.429224000000005 27.454224000000004 27.454224000000004
33.404224 27.454224000000004 30.429224000000005
33.404224 24.479224000000002 33.404224
30.429224000000005 27.454224000000004 33.404224
33.404224 30.429224000000005 15.554224000000001
30.429224000000005 33.404224 15.554224000000001
33.404224 33.404224 18.529224
33.404224 30.429224000000005 21.504224
30.429224000000005 33.404224 21.504224
33.404224 33.404224 24.479224000000002
33.404224 30.429224000000005 27.454224000000004
30.429224000000005 33.404224 27.454224000000004
33.404224 33.404224 30.429224000000005
33.404224 30.429224000000005 33.404224
30.429224000000005 33.404224 33.404224
33.404224 33.404224 36.379224
33.404224 36.379224 15.554224000000001
33.404224 36.379224 27.454224000000004
36.379224 15.554224000000001 15.554224000000001
36.379224 15.554224000000001 27.454224000000004
36.379224 21.504224 21.504224
36.379224 21.504224 33.404224
36.379224 27.454224000000004 21.504224
36.379224 33.404224 15.554224000000001
29.405840000000005 27.426402000000003 41.458448000000004
15.241215000000002 19.577671000000002 41.458448000000004
31.927707000000005 26.177715 41.458448000000004
20.378307 31.809893000000002 41.458448000000004
27.656332000000006 31.462902 41.458448000000004
16.685976000000004 13.964030000000001 41.458448000000004
31.85893 16.746552 41.458448000000004
22.569276000000002 13.918607000000002 41.458448000000004
28.265958000000005 23.279236000000004 41.458448000000004
28.937251000000003 14.285284000000003 41.458448000000004
14.217536 22.926492000000003 7.500000000000002
34.055902 13.714415000000002 7.500000000000002
32.465504 31.692972000000005 7.500000000000002
25.903965 26.268358 7.500000000000002
13.744483000000002 34.135263 7.500000000000002
19.974697 28.666712000000004 7.500000000000002
32.168592000000004 19.993332000000002 7.500000000000002
29.37807 15.883459000000002 7.500000000000002
33.383687 25.502518000000002 7.500000000000002
26.560745000000004 31.668921000000005 7.500000000000002
7.500000000000002 17.330886 22.312340000000006
7.500000000000002 26.632155000000004 19.733975
7.500000000000002 19.862228 34.459415
7.500000000000002 19.642803 22.09133
7.500000000000002 17.499320000000004 15.392417000000002
7.500000000000002 21.940302000000003 29.356700000000004
7.500000000000002 27.083377000000006 13.637964000000002
7.500000000000002 29.266092 34.129975
7.500000000000002 31.775945 22.580461
7.500000000000002 23.361706000000005 16.153674000000002
41.458448000000004 25.641952000000003 16.278965
41.458448000000004 16.675101 19.906346
41.458448000000004 33.499879 23.453693
41.458448000000004 19.623391 15.032642000000001
41.458448000000004 32.193588 34.935217
41.458448000000004 29.135495 26.462808000000003
41.458448000000004 15.109008000000001 35.304583
41.458448000000004 25.505049 33.505703000000004
41.458448000000004 31.804545000000005 28.57253
41.458448000000004 20.286017 28.9792
27.787554 7.500000000000002 17.477365
17.484567000000002 7.500000000000002 33.692939
28.144001000000003 7.500000000000002 31.578358
25.564644 7.500000000000002 27.943169000000005
22.646207000000004 7.500000000000002 17.137087
14.757389000000002 7.500000000000002 23.285974000000003
25.690552000000004 7.500000000000002 20.668138000000003
32.613817000000004 7.500000000000002 29.238835
17.064176000000003 7.500000000000002 16.791004
19.555369 7.500000000000002 27.561671000000004
16.692188 41.458448000000004 31.818470000000005
16.694207 41.458448000000004 17.138528
33.221864000000004 41.458448000000004 31.460947000000004
20.933971 41.458448000000004 31.537571
35.249765000000004 41.458448000000004 22.139486000000005
19.575419000000004 41.458448000000004 15.853039
26.077156000000002 41.458448000000004 28.837432
27.621703000000004 41.458448000000004 31.459608000000003
22.914942000000003 41.458448000000004 20.155352
22.571356 41.458448000000004 25.819963
28.172736 27.444786 40.02676400000001
28.558375000000005 27.443856000000004 38.666546000000004
27.454224000000004 27.454224000000004 37.83208200000001
26.803802000000005 27.457327 40.208629
27.454224000000004 27.454224000000004 36.379224
15.439782000000003 20.794822000000003 40.02676400000001
15.382450000000002 20.413467000000004 38.666546000000004
15.554224000000001 21.504224 37.83208200000001
15.652439000000001 22.147196 40.208629
15.554224000000001 21.504224 36.379224
32.861161 26.98366 40.02676400000001
32.572437 26.728009 38.666546000000004
33.404224 27.454224000000004 37.83208200000001
33.892208000000004 27.884260000000005 40.208629
33.404224 27.454224000000004 36.379224
21.090368000000005 32.816796000000004 40.02676400000001
20.871655000000004 32.499175 38.666546000000004
21.504224 33.404224 37.83208200000001
21.874373000000006 33.939059 40.208629
21.504224 33.404224 36.379224
27.529432 32.689597 40.02676400000001
27.573904000000006 32.306529000000005 38.666546000000004
27.454224000000004 33.404224 37.83208200000001
27.380741 34.05049 40.208629
27.454224000000004 33.404224 36.379224
15.971542000000001 14.969251000000002 40.02676400000001
16.198859000000002 14.657730000000003 38.666546000000004
15.554224000000001 15.554224000000001 37.83208200000001
15.172066000000003 16.080546000000002 40.208629
15.554224000000001 15.554224000000001 36.379224
32.834822 15.992550000000001 40.02676400000001
32.526734000000005 16.224498000000004 38.666546000000004
33.404224 15.554224000000001 37.83208200000001
33.922928 15.161790000000002 40.208629
33.404224 15.554224000000001 36.379224
21.897004000000003 14.952500000000002 40.02676400000001
22.111250000000005 14.631849 38.666546000000004
21.504224 15.554224000000001 37.83208200000001
21.144149000000006 16.095893000000004 40.208629
21.504224 15.554224000000001 36.379224
27.752337000000004 22.158041000000004 40.02676400000001
27.908556000000004 22.510623000000002 38.666546000000004
27.454224000000004 21.504224 37.83208200000001
27.18934 20.910174 40.208629
27.454224000000004 21.504224 36.379224
28.000733000000004 15.087667000000001 40.02676400000001
28.296699000000004 14.840437000000001 38.666546000000004
27.454224000000004 15.554224000000001 37.83208200000001
26.956027000000006 15.972384000000002 40.208629
27.454224000000004 15.554224000000001 36.379224
15.062700000000001 22.028392000000004 8.931684000000002
14.801943000000001 22.312512000000005 10.291902000000002
15.554224000000001 21.504224 11.126366
15.995152000000003 21.026059000000004 8.749819000000002
15.554224000000001 21.504224 12.579224000000002
33.643385 14.876618000000002 8.931684000000002
33.767830000000004 14.511608000000003 10.291902000000002
33.404224 15.554224000000001 11.126366
33.192881 16.169360000000005 8.749819000000002
33.404224 15.554224000000001 12.579224000000002
33.057923 32.774603 8.931684000000002
32.868459 32.438713 10.291902000000002
33.404224 33.404224 11.126366
33.722441 33.971496 8.749819000000002
33.404224 33.404224 12.579224000000002
26.882997000000003 27.018279 8.931684000000002
26.573943 26.787619 10.291902000000002
27.454224000000004 27.454224000000004 11.126366
27.974562000000006 27.844489000000003 8.749819000000002
27.454224000000004 27.454224000000004 12.579224000000002
14.888258000000002 33.674107 8.931684000000002
14.532424000000002 33.82277 10.291902000000002
15.554224000000001 33.404224 11.126366
16.154971000000003 33.154902 8.749819000000002
15.554224000000001 33.404224 12.579224000000002
20.941619000000003 27.90124 8.931684000000002
20.642272000000002 28.144366000000005 10.291902000000002
21.504224 27.454224000000004 11.126366
22.010074000000003 27.045355 8.749819000000002
21.504224 27.454224000000004 12.579224000000002
32.948695 20.948489000000002 8.931684000000002
32.70104 20.652878 10.291902000000002
33.404224 21.504224 11.126366
33.820747000000004 22.003792000000004 8.749819000000002
33.404224 21.504224 12.579224000000002
28.162636 15.674641000000001 8.931684000000002
28.543494000000003 15.735185000000001 10.291902000000002
27.454224000000004 15.554224000000001 11.126366
26.812103 15.450593000000001 8.749819000000002
27.454224000000004 15.554224000000001 12.579224000000002
33.395858000000004 26.735699000000004 8.931684000000002
33.387234 26.350155 10.291902000000002
33.404224 27.454224000000004 11.126366
33.417236 28.104524000000005 8.749819000000002
33.404224 27.454224000000004 12.579224000000002
27.124568000000004 32.765730000000005 8.931684000000002
26.943986000000002 32.424982 10.291902000000002
27.454224000000004 33.404224 11.126366
27.757441 33.979653 8.749819000000002
27.454224000000004 33.404224 12.579224000000002
8.931684000000002 16.208647 21.801005000000004
10.291902000000002 16.561547000000004 21.956504000000002
11.126366 15.554224000000001 21.504224
8.749819000000002 14.959635000000002 21.240551000000004
12.579224000000002 15.554224000000001 21.504224
8.931684000000002 27.150844 20.852834
10.291902000000002 26.984289000000004 20.505016000000005
11.126366 27.454224000000004 21.504224
8.749819000000002 27.733755000000002 22.091524
12.579224000000002 27.454224000000004 21.504224
8.931684000000002 20.900148 33.793377
10.291902000000002 20.578213 34.005689000000004
11.126366 21.504224 33.404224
8.749819000000002 22.048049000000006 33.047415
12.579224000000002 21.504224 33.404224
8.931684000000002 20.819172000000002 21.721138000000003
10.291902000000002 20.452791000000005 21.841486000000003
11.126366 21.504224 21.504224
8.749819000000002 22.122647 21.302701000000006
12.579224000000002 21.504224 21.504224
8.931684000000002 16.270257 15.493852000000002
10.291902000000002 16.654164 15.457333000000002
11.126366 15.554224000000001 15.554224000000001
8.749819000000002 14.906574 15.614290000000002
12.579224000000002 15.554224000000001 15.554224000000001
8.931684000000002 21.665554 28.154453000000004
10.291902000000002 21.75616 28.529298000000004
11.126366 21.504224 27.454224000000004
8.749819000000002 21.352898000000003 26.821643
12.579224000000002 21.504224 27.454224000000004
8.931684000000002 27.316904 14.848893000000002
10.291902000000002 27.239153 14.471172000000001
11.126366 27.454224000000004 15.554224000000001
8.749819000000002 27.583857000000002 16.191605000000003
12.579224000000002 27.454224000000004 15.554224000000001
8.931684000000002 28.121574000000003 33.670667
10.291902000000002 28.481237 33.809811
11.126366 27.454224000000004 33.404224
8.749819000000002 26.848164000000004 33.168109
12.579224000000002 27.454224000000004 33.404224
8.931684000000002 32.805206 21.901119
10.291902000000002 32.486031000000004 22.117558000000002
11.126366 33.404224 21.504224
8.749819000000002 33.943412 21.140445
12.579224000000002 33.404224 21.504224
8.931684000000002 22.188315000000003 15.774149000000001
10.291902000000002 22.556694 15.888235000000002
11.126366 21.504224 15.554224000000001
8.749819000000002 20.883363000000003 15.360340000000003
12.579224000000002 21.504224 15.554224000000001
40.02676400000001 26.786725000000004 15.820295000000002
38.666546000000004 26.426985000000002 15.959239000000002
37.83208200000001 27.454224000000004 15.554224000000001
40.208629 28.060416000000004 15.318447
36.379224 27.454224000000004 15.554224000000001
40.02676400000001 15.967541000000002 20.916417000000003
38.666546000000004 16.192728000000002 20.603352
37.83208200000001 15.554224000000001 21.504224
40.208629 15.175666000000001 22.033140000000003
36.379224 15.554224000000001 21.504224
40.02676400000001 33.438636 22.221973000000006
38.666546000000004 33.452973 22.607347000000004
37.83208200000001 33.404224 21.504224
40.208629 33.37851 20.854303
36.379224 33.404224 21.504224
40.02676400000001 20.811998000000003 15.361425000000002
38.666546000000004 20.441629 15.253977
37.83208200000001 21.504224 15.554224000000001
40.208629 22.129323 15.733974000000002
36.379224 21.504224 15.554224000000001
40.02676400000001 32.957889 33.96737
38.666546000000004 32.715126000000005 34.26701
37.83208200000001 33.404224 33.404224
40.208629 33.812481 32.897879
36.379224 33.404224 33.404224
40.02676400000001 28.073604000000003 27.089921000000004
38.666546000000004 28.408087000000002 26.897984
37.83208200000001 27.454224000000004 27.454224000000004
40.208629 26.890843000000004 27.779279000000002
36.379224 27.454224000000004 27.454224000000004
40.02676400000001 15.389531000000002 34.10367
38.666546000000004 15.297125000000001 34.478075000000004
37.83208200000001 15.554224000000001 33.404224
40.208629 15.708588 32.772377
36.379224 15.554224000000001 33.404224
40.02676400000001 26.736581 33.440780000000004
38.666546000000004 26.351252000000002 33.456268
37.83208200000001 27.454224000000004 33.404224
40.208629 28.104066000000003 33.376568
36.379224 27.454224000000004 33.404224
40.02676400000001 32.814831000000005 27.865276
38.666546000000004 32.496171000000004 28.082473
37.83208200000001 33.404224 27.454224000000004
40.208629 33.940817 27.086628000000005
36.379224 33.404224 27.454224000000004
40.02676400000001 21.055104 28.015151000000003
38.666546000000004 20.810859 28.313585000000003
37.83208200000001 21.504224 27.454224000000004
40.208629 21.914985 26.949908
36.379224 21.504224 27.454224000000004
27.576148000000003 8.931684000000002 16.262378000000002
27.637503000000002 10.291902000000002 16.643107
27.454224000000004 11.126366 15.554224000000001
27.349227000000006 8.749819000000002 14.912325000000001
27.454224000000004 12.579224000000002 15.554224000000001
16.264773 8.931684000000002 33.511312000000004
16.645469000000002 10.291902000000002 33.572869000000004
15.554224000000001 11.126366 33.404224
14.911891000000002 8.749819000000002 33.301916
15.554224000000001 12.579224000000002 33.404224
27.708923000000006 8.931684000000002 32.732304
27.849472000000006 10.291902000000002 32.373188
27.454224000000004 11.126366 33.404224
27.218600000000002 8.749819000000002 34.010475
27.454224000000004 12.579224000000002 33.404224
26.758361 8.931684000000002 27.633453000000003
26.383899 10.291902000000002 27.725631
27.454224000000004 11.126366 27.454224000000004
28.085431 8.749819000000002 27.297265000000003
27.454224000000004 12.579224000000002 27.454224000000004
21.924 8.931684000000002 16.137436
22.145913 10.291902000000002 16.452829
21.504224 11.126366 15.554224000000001
21.128685000000004 8.749819000000002 15.023160000000003
21.504224 12.579224000000002 15.554224000000001
15.260129000000001 8.931684000000002 22.159858
15.098532000000002 10.291902000000002 22.510008
15.554224000000001 11.126366 21.504224
15.825383000000002 8.749819000000002 20.913012000000002
15.554224000000001 12.579224000000002 21.504224
26.805262000000006 8.931684000000002 21.195686000000002
26.458775000000003 10.291902000000002 21.026377000000004
27.454224000000004 11.126366 21.504224
28.039288 8.749819000000002 21.788406000000002
27.454224000000004 12.579224000000002 21.504224
33.112495 8.931684000000002 28.110914
32.952161000000004 10.291902000000002 28.461644
33.404224 11.126366 27.454224000000004
33.67325 8.749819000000002 26.862038000000005
33.404224 12.579224000000002 27.454224000000004
16.109613000000003 8.931684000000002 16.010175000000004
16.405035 10.291902000000002 16.258055000000002
15.554224000000001 11.126366 15.554224000000001
15.054973000000002 8.749819000000002 15.137322000000003
15.554224000000001 12.579224000000002 15.554224000000001
20.786696 8.931684000000002 27.492978
20.401416000000005 10.291902000000002 27.509646000000004
21.504224 11.126366 27.454224000000004
22.153978000000002 8.749819000000002 27.424578000000004
21.504224 12.579224000000002 27.454224000000004
15.972519000000002 40.02676400000001 32.819949
16.193632 38.666546000000004 32.503994
15.554224000000001 37.83208200000001 33.404224
15.180033000000002 40.208629 33.936239
15.554224000000001 36.379224 33.404224
15.974569 40.02676400000001 16.137026000000002
16.203499 38.666546000000004 16.447364
15.554224000000001 37.83208200000001 15.554224000000001
15.169342000000002 40.208629 15.029891000000001
15.554224000000001 36.379224 15.554224000000001
33.336286 40.02676400000001 32.688869000000004
33.295711000000004 38.666546000000004 32.305369
33.404224 37.83208200000001 33.404224
33.471133 40.208629 34.051203
33.404224 36.379224 33.404224
21.293512 40.02676400000001 32.717239
21.176481000000003 38.666546000000004 32.349785000000004
21.504224 37.83208200000001 33.404224
21.700148000000006 40.208629 34.024444
21.504224 36.379224 33.404224
34.083934 40.02676400000001 21.737339000000006
34.450038 38.666546000000004 21.858527000000002
33.404224 37.83208200000001 21.504224
32.787229 40.208629 21.298369
33.404224 36.379224 21.504224
20.794245000000004 40.02676400000001 15.665030000000002
20.413877 38.666546000000004 15.728579000000002
21.504224 37.83208200000001 15.554224000000001
22.146013000000004 40.208629 15.448555
21.504224 36.379224 15.554224000000001
26.947818000000005 40.02676400000001 27.964029000000004
26.678992 38.666546000000004 28.240527
27.454224000000004 37.83208200000001 27.454224000000004
27.908731000000003 40.208629 26.988947000000003
27.454224000000004 36.379224 27.454224000000004
27.515081000000002 40.02676400000001 32.688232
27.543619 38.666546000000004 32.303649
27.454224000000004 37.83208200000001 33.404224
27.404561 40.208629 34.052755000000005
27.454224000000004 36.379224 33.404224
22.023033000000005 40.02676400000001 21.007046000000003
22.298587000000005 38.666546000000004 20.737254
21.504224 37.83208200000001 21.504224
21.038395 40.208629 21.958165
21.504224 36.379224 21.504224
21.896422 40.02676400000001 26.85212
22.103427000000003 38.666546000000004 26.526748000000005
21.504224 37.83208200000001 27.454224000000004
21.15379 40.208629 28.002179000000005
21.504224 36.379224 27.454224000000004
30.429224000000005 11.103563000000001 30.429224000000005
24.479224000000002 11.103563000000001 24.479224000000002
24.479224000000002 18.529224 37.854885
37.854885 24.479224000000002 30.429224000000005
11.103563000000001 24.479224000000002 24.479224000000002
24.479224000000002 30.429224000000005 37.854885
18.529224 30.429224000000005 37.854885
37.42267400000001 18.529224 11.535774000000002
24.479224000000002 11.103563000000001 18.529224
18.529224 11.535774000000002 37.42267400000001
30.429224000000005 37.854885 18.529224
30.429224000000005 11.103563000000001 18.529224
11.535774000000002 11.535774000000002 24.479224000000002
37.854885 30.429224000000005 18.529224
11.535774000000002 18.529224 11.535774000000002
18.529224 37.854885 24.479224000000002
37.42267400000001 18.529224 37.42267400000001
37.42267400000001 30.429224000000005 37.42267400000001
11.535774000000002 11.535774000000002 18.529224
11.535774000000002 37.42267400000001 18.529224
24.479224000000002 37.42267400000001 37.42267400000001
24.479224000000002 24.479224000000002 37.854885
24.479224000000002 11.535774000000002 37.42267400000001
30.429224000000005 11.535774000000002 11.535774000000002
24.479224000000002 11.535774000000002 11.535774000000002
11.535774000000002 11.535774000000002 30.429224000000005
37.42267400000001 37.42267400000001 30.429224000000005
37.42267400000001 11.535774000000002 18.529224
30.429224000000005 18.529224 11.103563000000001
37.854885 24.479224000000002 24.479224000000002
30.429224000000005 37.854885 24.479224000000002
24.479224000000002 11.103563000000001 30.429224000000005
18.529224 24.479224000000002 11.103563000000001
24.479224000000002 37.854885 18.529224
30.429224000000005 24.479224000000002 37.854885
18.529224 11.103563000000001 18.529224
18.529224 30.429224000000005 11.103563000000001
30.429224000000005 37.42267400000001 11.535774000000002
18.529224 37.854885 30.429224000000005
18.529224 11.535774000000002 11.535774000000002
11.535774000000002 18.529224 37.42267400000001
11.535774000000002 37.42267400000001 24.479224000000002
11.103563000000001 24.479224000000002 30.429224000000005
37.42267400000001 30.429224000000005 11.535774000000002
18.529224 37.854885 18.529224
24.479224000000002 37.854885 24.479224000000002
24.479224000000002 37.42267400000001 11.535774000000002
18.529224 24.479224000000002 37.854885
18.529224 11.103563000000001 30.429224000000005
30.429224000000005 37.854885 30.429224000000005
30.429224000000005 30.429224000000005 11.103563000000001
12.579224000000002 18.529224 18.529224
12.579224000000002 18.529224 24.479224000000002
12.579224000000002 18.529224 30.429224000000005
12.579224000000002 24.479224000000002 12.579224000000002
12.579224000000002 24.479224000000002 18.529224
12.579224000000002 24.479224000000002 36.379224
12.579224000000002 30.429224000000005 12.579224000000002
12.579224000000002 30.429224000000005 18.529224
12.579224000000002 30.429224000000005 24.479224000000002
12.579224000000002 30.429224000000005 30.429224000000005
12.579224000000002 30.429224000000005 36.379224
12.579224000000002 36.379224 30.429224000000005
18.529224 12.579224000000002 24.479224000000002
18.529224 18.529224 12.579224000000002
18.529224 18.529224 18.529224
18.529224 18.529224 24.479224000000002
18.529224 18.529224 30.429224000000005
18.529224 18.529224 36.379224
18.529224 24.479224000000002 18.529224
18.529224 24.479224000000002 24.479224000000002
18.529224 24.479224000000002 30.429224000000005
18.529224 30.429224000000005 18.529224
18.529224 30.429224000000005 24.479224000000002
18.529224 30.429224000000005 30.429224000000005
18.529224 36.379224 36.379224
24.479224000000002 18.529224 12.579224000000002
24.479224000000002 18.529224 18.529224
24.479224000000002 18.529224 24.479224000000002
24.479224000000002 18.529224 30.429224000000005
24.479224000000002 24.479224000000002 12.579224000000002
24.479224000000002 24.479224000000002 18.529224
24.479224000000002 24.479224000000002 24.479224000000002
24.479224000000002 24.479224000000002 30.429224000000005
24.479224000000002 30.429224000000005 12.579224000000002
24.479224000000002 30.429224000000005 18.529224
24.479224000000002 30.429224000000005 24.479224000000002
24.479224000000002 30.429224000000005 30.429224000000005
24.479224000000002 36.379224 30.429224000000005
30.429224000000005 12.579224000000002 36.379224
30.429224000000005 18.529224 18.529224
30.429224000000005 18.529224 24.479224000000002
30.429224000000005 18.529224 30.429224000000005
30.429224000000005 18.529224 36.379224