3_train/184_cspbbr3_MA-PhP_3_0.20\184_cspbbr3_MA-PhP_3_0.20.xyz
1.0
44.215118000000004 0 0
0 44.215118000000004 0
0 0 44.215118000000004
Br C Cs H N O P Pb 
96 82 44 132 10 36 12 27 
Cartesian
16.157559 16.157559 13.182559
16.157559 13.182559 16.157559
13.182559 16.157559 16.157559
16.157559 16.157559 19.132559
16.157559 13.182559 22.107559000000002
16.157559 16.157559 25.082558999999996
13.182559 16.157559 28.057558999999998
16.157559 16.157559 31.032559
16.157559 22.107559000000002 13.182559
16.157559 19.132559 16.157559
13.182559 22.107559000000002 16.157559
16.157559 22.107559000000002 19.132559
16.157559 19.132559 22.107559000000002
13.182559 22.107559000000002 22.107559000000002
16.157559 22.107559000000002 25.082558999999996
16.157559 19.132559 28.057558999999998
13.182559 22.107559000000002 28.057558999999998
16.157559 22.107559000000002 31.032559
16.157559 25.082558999999996 16.157559
16.157559 28.057558999999998 19.132559
16.157559 25.082558999999996 22.107559000000002
13.182559 28.057558999999998 22.107559000000002
16.157559 28.057558999999998 25.082558999999996
16.157559 25.082558999999996 28.057558999999998
13.182559 28.057558999999998 28.057558999999998
16.157559 28.057558999999998 31.032559
16.157559 31.032559 16.157559
16.157559 31.032559 22.107559000000002
16.157559 31.032559 28.057558999999998
22.107559000000002 16.157559 13.182559
22.107559000000002 13.182559 16.157559
19.132559 16.157559 16.157559
22.107559000000002 16.157559 19.132559
19.132559 16.157559 22.107559000000002
22.107559000000002 16.157559 25.082558999999996
22.107559000000002 13.182559 28.057558999999998
19.132559 16.157559 28.057558999999998
22.107559000000002 16.157559 31.032559
22.107559000000002 19.132559 16.157559
19.132559 22.107559000000002 16.157559
22.107559000000002 22.107559000000002 19.132559
22.107559000000002 19.132559 22.107559000000002
19.132559 22.107559000000002 22.107559000000002
22.107559000000002 22.107559000000002 25.082558999999996
22.107559000000002 19.132559 28.057558999999998
19.132559 22.107559000000002 28.057558999999998
22.107559000000002 22.107559000000002 31.032559
22.107559000000002 28.057558999999998 13.182559
22.107559000000002 25.082558999999996 16.157559
19.132559 28.057558999999998 16.157559
22.107559000000002 28.057558999999998 19.132559
22.107559000000002 25.082558999999996 22.107559000000002
19.132559 28.057558999999998 22.107559000000002
22.107559000000002 28.057558999999998 25.082558999999996
22.107559000000002 25.082558999999996 28.057558999999998
19.132559 28.057558999999998 28.057558999999998
22.107559000000002 28.057558999999998 31.032559
22.107559000000002 31.032559 16.157559
28.057558999999998 16.157559 13.182559
28.057558999999998 13.182559 16.157559
25.082558999999996 16.157559 16.157559
28.057558999999998 16.157559 19.132559
28.057558999999998 13.182559 22.107559000000002
25.082558999999996 16.157559 22.107559000000002
28.057558999999998 16.157559 25.082558999999996
28.057558999999998 13.182559 28.057558999999998
25.082558999999996 16.157559 28.057558999999998
28.057558999999998 22.107559000000002 13.182559
28.057558999999998 19.132559 16.157559
25.082558999999996 22.107559000000002 16.157559
28.057558999999998 22.107559000000002 19.132559
28.057558999999998 19.132559 22.107559000000002
25.082558999999996 22.107559000000002 22.107559000000002
28.057558999999998 22.107559000000002 25.082558999999996
28.057558999999998 19.132559 28.057558999999998
25.082558999999996 22.107559000000002 28.057558999999998
28.057558999999998 22.107559000000002 31.032559
28.057558999999998 28.057558999999998 13.182559
28.057558999999998 25.082558999999996 16.157559
25.082558999999996 28.057558999999998 16.157559
28.057558999999998 28.057558999999998 19.132559
28.057558999999998 25.082558999999996 22.107559000000002
25.082558999999996 28.057558999999998 22.107559000000002
28.057558999999998 28.057558999999998 25.082558999999996
28.057558999999998 25.082558999999996 28.057558999999998
25.082558999999996 28.057558999999998 28.057558999999998
28.057558999999998 31.032559 16.157559
28.057558999999998 31.032559 22.107559000000002
28.057558999999998 31.032559 28.057558999999998
31.032559 16.157559 22.107559000000002
31.032559 16.157559 28.057558999999998
31.032559 22.107559000000002 16.157559
31.032559 22.107559000000002 22.107559000000002
31.032559 22.107559000000002 28.057558999999998
31.032559 28.057558999999998 22.107559000000002
31.032559 28.057558999999998 28.057558999999998
29.643233000000002 16.775683 34.900778
29.609436000000002 16.762603 33.509155
29.057558999999998 15.657559 32.828397
28.612418999999996 14.574347999999999 34.953913
29.146592999999996 15.683497999999998 35.623578
28.56104 14.560552999999999 33.563081
29.643233000000002 28.675683 34.900778
29.609436000000002 28.662602999999997 33.509155
29.057558999999998 27.557558999999998 32.828397
28.612418999999996 26.474348 34.953913
29.146592999999996 27.583498 35.623578
28.56104 26.460552999999997 33.563081
14.571885 28.675683 9.31434
14.605682 28.662602999999997 10.705963
15.157559 27.557558999999998 11.386721
15.602699 26.474348 9.261205
15.068525 27.583498 8.591539999999998
15.654078 26.460552999999997 10.652037
20.521884999999997 22.725682999999997 9.31434
20.555681999999997 22.712603 10.705963
21.107559000000002 21.607559000000002 11.386721
21.552698999999997 20.524348 9.261205
21.018524999999997 21.633498 8.591539999999998
21.604078 20.510553 10.652037
9.31434 16.775683 23.693233
10.705963 16.762603 23.659436
11.386721 15.657559 23.107559000000002
9.261205 14.574347999999999 22.662419
8.591539999999998 15.683497999999998 23.196593
10.652037 14.560552999999999 22.611039999999996
9.31434 28.675683 17.743232999999996
10.705963 28.662602999999997 17.709435999999997
11.386721 27.557558999999998 17.157559
9.261205 26.474348 16.712418999999997
8.591539999999998 27.583498 17.246592999999997
10.652037 26.460552999999997 16.66104
34.900778 28.675683 14.571885
33.509155 28.662602999999997 14.605682
32.828397 27.557558999999998 15.157559
34.953913 26.474348 15.602699
35.623578 27.583498 15.068525
33.563081 26.460552999999997 15.654078
34.900778 16.775683 14.571885
33.509155 16.762603 14.605682
32.828397 15.657559 15.157559
34.953913 14.574347999999999 15.602699
35.623578 15.683497999999998 15.068525
33.563081 14.560552999999999 15.654078
23.693233 9.31434 22.725682999999997
23.659436 10.705963 22.712603
23.107559000000002 11.386721 21.607559000000002
22.662419 9.261205 20.524348
23.196593 8.591539999999998 21.633498
22.611039999999996 10.652037 20.510553
17.743232999999996 9.31434 28.675683
17.709435999999997 10.705963 28.662602999999997
17.157559 11.386721 27.557558999999998
16.712418999999997 9.261205 26.474348
17.246592999999997 8.591539999999998 27.583498
16.66104 10.652037 26.460552999999997
23.693233 34.900778 27.439434999999996
23.659436 33.509155 27.452515
23.107559000000002 32.828397 28.557558999999998
22.662419 34.953913 29.640769999999996
23.196593 35.623578 28.531619999999997
22.611039999999996 33.563081 29.654564999999998
23.693233 34.900778 21.489435
23.659436 33.509155 21.502515
23.107559000000002 32.828397 22.607559000000002
22.662419 34.953913 23.69077
23.196593 35.623578 22.58162
22.611039999999996 33.563081 23.704564999999995
12.139109 12.139109 25.082558999999996
12.139109 25.082558999999996 12.139109
11.706897999999999 25.082558999999996 19.132559
19.132559 19.132559 11.706897999999999
25.082558999999996 11.706897999999999 19.132559
25.082558999999996 32.50822 25.082558999999996
25.082558999999996 32.076009 32.076009
32.076009 25.082558999999996 12.139109
32.076009 25.082558999999996 32.076009
11.706897999999999 19.132559 19.132559
13.182559 13.182559 19.132559
13.182559 19.132559 13.182559
13.182559 19.132559 25.082558999999996
13.182559 19.132559 31.032559
13.182559 25.082558999999996 25.082558999999996
13.182559 25.082558999999996 31.032559
13.182559 31.032559 19.132559
13.182559 31.032559 25.082558999999996
19.132559 13.182559 13.182559
19.132559 13.182559 31.032559
19.132559 19.132559 19.132559
19.132559 19.132559 25.082558999999996
19.132559 19.132559 31.032559
19.132559 25.082558999999996 13.182559
19.132559 25.082558999999996 19.132559
19.132559 25.082558999999996 25.082558999999996
19.132559 25.082558999999996 31.032559
19.132559 31.032559 13.182559
19.132559 31.032559 19.132559
19.132559 31.032559 25.082558999999996
19.132559 31.032559 31.032559
25.082558999999996 13.182559 13.182559
25.082558999999996 13.182559 25.082558999999996
25.082558999999996 13.182559 31.032559
25.082558999999996 19.132559 13.182559
25.082558999999996 19.132559 19.132559
25.082558999999996 19.132559 25.082558999999996
25.082558999999996 19.132559 31.032559
25.082558999999996 25.082558999999996 13.182559
25.082558999999996 25.082558999999996 19.132559
25.082558999999996 25.082558999999996 25.082558999999996
25.082558999999996 25.082558999999996 31.032559
25.082558999999996 31.032559 13.182559
25.082558999999996 31.032559 19.132559
31.032559 13.182559 19.132559
31.032559 13.182559 25.082558999999996
31.032559 19.132559 13.182559
31.032559 19.132559 19.132559
31.032559 19.132559 25.082558999999996
31.032559 19.132559 31.032559
31.032559 25.082558999999996 19.132559
31.032559 25.082558999999996 25.082558999999996
31.032559 31.032559 19.132559
31.032559 31.032559 25.082558999999996
28.236371999999996 13.722256 35.523431
29.178132999999995 15.695019 36.715118
30.057577000000002 17.636668 35.428662
29.990774000000002 17.606909 32.932298
28.142454999999998 13.701412999999999 33.035759999999996
26.917806999999996 15.353212999999998 30.680512
28.236371999999996 25.622256 35.523431
29.178132999999995 27.595019 36.715118
30.057577000000002 29.536668 35.428662
29.990774000000002 29.506909 32.932298
28.142454999999998 25.601413 33.035759999999996
26.917806999999996 27.253212999999995 30.680512
15.978746 25.622256 8.691686999999998
15.036985 27.595019 7.499999999999999
14.157541 29.536668 8.786456
14.224344 29.506909 11.28282
16.072663 25.601413 11.179358
17.297311 27.253212999999995 13.534606
21.928745999999997 19.672255999999997 8.691686999999998
20.986984999999997 21.645018999999998 7.499999999999999
20.107540999999998 23.586667999999996 8.786456
20.174343999999998 23.556908999999997 11.28282
22.022663 19.651412999999998 11.179358
23.247310999999996 21.303213 13.534606
8.691686999999998 13.722256 22.286372
7.499999999999999 15.695019 23.228133
8.786456 17.636668 24.107577
11.28282 17.606909 24.040774
11.179358 13.701412999999999 22.192454999999995
13.534606 15.353212999999998 20.967807
8.691686999999998 25.622256 16.336371999999997
7.499999999999999 27.595019 17.278132999999997
8.786456 29.536668 18.157577
11.28282 29.506909 18.090774
11.179358 25.601413 16.242455
13.534606 27.253212999999995 15.017807
35.523431 25.622256 15.978746
36.715118 27.595019 15.036985
35.428662 29.536668 14.157541
32.932298 29.506909 14.224344
33.035759999999996 25.601413 16.072663
30.680512 27.253212999999995 17.297311
35.523431 13.722256 15.978746
36.715118 15.695019 15.036985
35.428662 17.636668 14.157541
32.932298 17.606909 14.224344
33.035759999999996 13.701412999999999 16.072663
30.680512 15.353212999999998 17.297311
22.286372 8.691686999999998 19.672255999999997
23.228133 7.499999999999999 21.645018999999998
24.107577 8.786456 23.586667999999996
24.040774 11.28282 23.556908999999997
22.192454999999995 11.179358 19.651412999999998
20.967807 13.534606 21.303213
16.336371999999997 8.691686999999998 25.622256
17.278132999999997 7.499999999999999 27.595019
18.157577 8.786456 29.536668
18.090774 11.28282 29.506909
16.242455 11.179358 25.601413
15.017807 13.534606 27.253212999999995
22.286372 35.523431 30.492862000000002
23.228133 36.715118 28.520099000000002
24.107577 35.428662 26.578449999999997
24.040774 32.932298 26.608208999999995
22.192454999999995 33.035759999999996 30.513705
20.967807 30.680512 28.861905
22.286372 35.523431 24.542862
23.228133 36.715118 22.570099
24.107577 35.428662 20.62845
24.040774 32.932298 20.658209
22.192454999999995 33.035759999999996 24.563705
20.967807 30.680512 22.911904999999997
11.775768 12.030214999999998 26.106156999999996
11.33978 12.466203 24.414944
12.593426 11.212556 24.726576
13.564791 13.330292 24.139206
13.966600999999999 12.928483 25.697837
12.811233 14.08385 25.410635
12.184527 26.042558999999997 11.621455999999998
12.350100999999999 24.25775 11.455881999999999
11.174346 24.947367999999997 12.631637
13.188077 24.197817999999998 13.707006
13.035483 25.842708000000002 13.859599999999999
14.119064999999999 25.207150999999996 12.776018
11.372976999999999 24.314976 18.431887
11.372976999999999 24.85955 20.147641
11.372976999999999 26.07315 18.818149
13.557300999999999 25.789966999999997 19.778301999999996
13.557300999999999 25.288084999999995 18.197054
13.557300999999999 24.169624999999996 19.422320999999997
18.111687 18.937765 11.372976999999999
19.474297999999997 20.114057000000003 11.372976999999999
19.811692 18.345855 11.372976999999999
20.0734 19.312081999999997 13.557300999999999
18.817610000000002 18.228005 13.557300999999999
18.506667 19.857590000000002 13.557300999999999
26.096747999999998 11.372976999999999 18.905521999999998
24.772084999999997 11.372976999999999 20.124391
24.378845 11.372976999999999 18.367764
24.147877 13.557300999999999 19.341797
25.368693999999998 13.557300999999999 18.218482
25.731105999999997 13.557300999999999 19.837398
24.043822999999996 32.842141 25.048618999999995
25.572533999999997 32.842141 25.999100999999996
25.631319999999995 32.842141 24.199956999999998
26.039864 30.657817 25.113838
24.630995 30.657817 24.237868999999996
24.576817999999996 30.657817 25.89597
24.561242999999997 32.947876 31.676377000000002
24.564586 31.675012000000002 32.949241
26.121848 32.313492 32.310762
25.563007 30.181666999999997 31.353485999999997
25.559925 31.354743999999997 30.180408
24.124744999999997 30.766318 30.768834
32.923218999999996 24.505274999999997 12.514084
31.653067 24.622768999999998 11.243932
32.360093 26.119633 11.950958
30.204391 25.614587 12.884356
31.374969 25.506304 14.054934
30.723370000000003 24.126785999999996 13.403334999999998
33.046653 25.115237999999998 31.577599999999997
31.924852 25.965826 32.699401
31.964875999999997 24.166612 32.659378
30.090632999999997 25.052441 31.444519
31.124491 24.268535 30.410662000000002
31.087604999999996 25.926699999999997 30.447547999999998
11.372976999999999 20.061205 19.599187999999998
11.372976999999999 19.072347999999998 18.095014
11.372976999999999 18.264124000000002 19.703474999999997
13.557300999999999 18.276714 18.702512
13.557300999999999 19.188049999999997 20.088766
13.557300999999999 19.932913 18.606399
13.182559 13.182559 25.082558999999996
13.182559 25.082558999999996 13.182559
13.182559 25.082558999999996 19.132559
19.132559 19.132559 13.182559
25.082558999999996 13.182559 19.132559
25.082558999999996 31.032559 25.082558999999996
25.082558999999996 31.032559 31.032559
31.032559 25.082558999999996 13.182559
31.032559 25.082558999999996 31.032559
13.182559 19.132559 19.132559
29.073332999999998 17.072918 30.471671
27.739269999999998 14.831926999999999 30.61108
30.271271 14.918505999999999 30.483773
29.073332999999998 28.972918 30.471671
27.739269999999998 26.731927 30.61108
30.271271 26.818506 30.483773
15.141784999999999 28.972918 13.743447
16.475848 26.731927 13.604038
13.943847 26.818506 13.731345
21.091785 23.022917999999997 13.743447
22.425848000000002 20.781927 13.604038
19.893847 20.868505999999996 13.731345
13.743447 17.072918 23.123332999999995
13.604038 14.831926999999999 21.789270000000002
13.731345 14.918505999999999 24.321270999999996
13.743447 28.972918 17.173333
13.604038 26.731927 15.839269999999999
13.731345 26.818506 18.371271
30.471671 28.972918 15.141784999999999
30.61108 26.731927 16.475848
30.483773 26.818506 13.943847
30.471671 17.072918 15.141784999999999
30.61108 14.831926999999999 16.475848
30.483773 14.918505999999999 13.943847
23.123332999999995 13.743447 23.022917999999997
21.789270000000002 13.604038 20.781927
24.321270999999996 13.731345 20.868505999999996
17.173333 13.743447 28.972918
15.839269999999999 13.604038 26.731927
18.371271 13.731345 26.818506
23.123332999999995 30.471671 27.142199999999995
21.789270000000002 30.61108 29.383190999999997
24.321270999999996 30.483773 29.296611999999996
23.123332999999995 30.471671 21.1922
21.789270000000002 30.61108 23.433191
24.321270999999996 30.483773 23.346612
29.057558999999998 15.657559 31.032559
29.057558999999998 27.557558999999998 31.032559
15.157559 27.557558999999998 13.182559
21.107559000000002 21.607559000000002 13.182559
13.182559 15.657559 23.107559000000002
13.182559 27.557558999999998 17.157559
31.032559 27.557558999999998 15.157559
31.032559 15.657559 15.157559
23.107559000000002 13.182559 21.607559000000002
17.157559 13.182559 27.557558999999998
23.107559000000002 31.032559 28.557558999999998
23.107559000000002 31.032559 22.607559000000002
16.157559 16.157559 16.157559
16.157559 16.157559 22.107559000000002
16.157559 16.157559 28.057558999999998
16.157559 22.107559000000002 16.157559
16.157559 22.107559000000002 22.107559000000002
16.157559 22.107559000000002 28.057558999999998
16.157559 28.057558999999998 16.157559
16.157559 28.057558999999998 22.107559000000002
16.157559 28.057558999999998 28.057558999999998
22.107559000000002 16.157559 16.157559
22.107559000000002 16.157559 22.107559000000002
22.107559000000002 16.157559 28.057558999999998
22.107559000000002 22.107559000000002 16.157559
22.107559000000002 22.107559000000002 22.107559000000002
22.107559000000002 22.107559000000002 28.057558999999998
22.107559000000002 28.057558999999998 16.157559
22.107559000000002 28.057558999999998 22.107559000000002
22.107559000000002 28.057558999999998 28.057558999999998
28.057558999999998 16.157559 16.157559
28.057558999999998 16.157559 22.107559000000002
28.057558999999998 16.157559 28.057558999999998
28.057558999999998 22.107559000000002 16.157559
28.057558999999998 22.107559000000002 22.107559000000002
28.057558999999998 22.107559000000002 28.057558999999998
28.057558999999998 28.057558999999998 16.157559
28.057558999999998 28.057558999999998 22.107559000000002
28.057558999999998 28.057558999999998 28.057558999999998
