146_cspbbr3_5\146_cspbbr3_5.xyz
1.0
50.752843999999996 0 0
0 50.752843999999996 0
0 0 50.752843999999996
Br Cs Pb 
450 200 125 
Cartesian
40.412723 13.417887 31.544085000000003
31.234738 10.312596 19.390746999999998
31.154443999999998 13.373441 28.50875
28.488871000000003 13.663867999999999 19.238597999999996
31.308183 16.305784000000003 13.31912
28.262065999999997 13.627142 25.459598999999997
31.157179 19.530929999999998 10.669933
40.425276 13.301188999999999 13.392792
28.504210999999998 13.377685 37.509384
31.505547 10.31293 37.425988
31.350552999999998 13.231502 34.237105
40.122582 13.298945999999999 19.582045
40.20703099999999 13.607721 25.538334999999996
31.172697999999997 10.350941 31.131
31.243330999999998 10.541094 25.537728
31.235053999999998 13.406307 22.196377
31.302171 13.258913 40.195037
28.240457 13.334741 31.489492
28.500556000000003 19.290036999999998 19.613839
37.393297999999994 40.127244 37.501934
31.153669 22.273738 19.602471
37.195145 37.460107 34.514429
31.396642999999997 25.274260999999996 16.596725999999997
28.563193 25.377406 13.527839
31.483378000000002 22.286315000000002 13.350005999999999
31.456645 25.401311 10.28736
37.249912 34.09133 37.073642
34.030545999999994 37.290276999999996 37.195271
31.200055 19.554814999999998 40.434491
28.47627 19.227173999999998 37.167627
31.180517000000002 16.618764999999996 37.236231
31.526581 19.302922000000002 34.296346
28.517637 19.394360999999996 13.241449
37.403825 37.110982 40.292348999999994
28.446599999999997 19.554536 31.204866000000003
31.131982999999998 16.463363 31.323616
31.231924999999997 19.336942999999998 28.511139999999997
37.439721999999996 40.046281 19.555194
28.348985999999996 19.296630999999998 25.538784999999997
31.454084 16.487439000000002 25.502167
31.448034999999997 19.457687 22.189124999999997
37.20155 40.057114 25.422351
37.204662 40.029064999999996 31.268546
40.316596 13.352284 37.490865
31.214379 16.388173000000002 19.205177999999997
31.529265000000002 19.347569 16.609817999999997
37.161639 40.42214 13.496634
31.326922000000003 13.293754999999999 16.242876000000003
34.484508999999996 25.493715 31.149783
28.192259999999997 13.538196 13.282214999999999
25.16059 37.404092999999996 10.354585
40.281085 31.569651999999998 19.452627
25.413159 31.500239 40.103744
22.235068 31.224535000000003 37.173295
25.450221999999997 28.491219 37.431202
39.9562 31.321717 25.351695
22.569930999999997 31.406996999999997 31.149554000000002
25.475094 28.262282999999996 31.479593
25.407207 31.104709999999997 28.433875999999998
40.400797 31.438737000000003 31.242787999999997
40.403704 31.434112999999996 37.393002
22.111249 31.299408999999997 25.429561999999997
25.541105 28.303781 25.270085
40.099977 31.22773 13.49325
25.455022999999997 31.297699 22.154784
22.204803999999996 31.492821999999997 19.414268999999997
25.274164 28.366124 19.212154999999996
25.499246 31.36482 16.205674000000002
40.403331 37.183397 19.620224999999998
40.396611 37.366305 25.305419
22.588087 31.491478 13.513142
25.509816 28.491971999999997 13.527022
25.252210999999996 31.154275 10.39876
40.230437 37.46986 31.218618999999997
40.114773 37.174727 37.395874
25.519038000000002 25.264473000000002 40.109728
22.640405 25.429572 37.418579
25.16399 22.456142999999997 37.199704
40.357319999999994 37.174412999999994 13.292004
40.062683 19.301707 13.623825
25.206230999999995 34.235302999999995 13.624861
40.42982 25.363172999999996 37.434908
31.462384999999998 10.492104 13.356252
40.236747 19.691975 19.455542
31.497233 13.330078 10.320048
28.124916999999996 25.526949000000002 19.356628
25.272885000000002 40.328517999999995 37.095589999999994
25.622712 40.150748 31.321593999999997
40.023653 19.442991999999997 31.165694000000002
25.437984 40.43565 25.152209
25.311312 40.175405 19.267866999999995
25.274043 40.061828999999996 13.308873
25.568170000000002 37.101003 40.134531
22.53118 37.463679 37.432083
25.31917 34.121602 37.370766999999994
22.190965 37.233301 13.374411
25.481747999999996 37.211504 34.473492
22.580971999999996 37.218202999999995 31.145925
25.231830000000002 34.451423 31.334006000000002
40.369762 25.247667 13.52404
25.222521999999998 37.409094 28.507722
40.452915999999995 25.203266999999997 19.414440999999997
22.266771 37.324177999999996 25.545527
25.281684 34.236062 25.527834999999996
40.064105 25.321635 25.427313999999996
25.450699999999998 37.177878 22.231553999999996
22.271378 37.38258 19.239621999999997
25.317332999999998 34.552011 19.547421999999997
40.091454 25.165193000000002 31.388398000000002
25.408195 37.235475 16.633998
40.369588 19.305825 37.193554
40.349849999999996 19.529528 25.537898999999996
31.201352999999997 25.313226999999998 34.541254
34.385096 37.468098 31.426549
37.126116 19.473534 16.675761
37.291371 28.578091 19.320355999999997
34.113936 19.447553999999997 13.264702
37.438032 16.33738 13.562025
37.198859 19.239376 10.690072
34.402454 31.118761999999997 19.48999
37.323479 13.315465 40.478225
34.205605 13.306614999999999 37.446555999999994
37.418254999999995 10.406025 37.175444
37.427022 13.270385 34.404619
37.376494 31.213907 22.502308999999997
34.386156 13.407324000000001 31.560259000000002
37.223293 16.373575000000002 19.262875
37.075168999999995 10.309436999999999 31.405101000000002
37.088899 28.162788 25.353425
34.51016499999999 31.373693000000003 25.335397
34.449193 13.277970999999999 25.370424999999997
37.357288 10.359671 25.297587
37.322903 13.672082 22.496482
37.215943 31.464801 28.521302
34.467512 13.298817999999999 19.539626
37.15574899999999 10.339648 19.597445999999998
37.378848 13.373911 16.313601
37.087677 28.484409 31.228074
34.318506 13.603213 13.317988
37.128481 10.685608 13.420739
37.090244 13.484834 28.196025
34.193508 19.592264 19.344946
37.106472 31.160483 16.374709000000003
37.384482999999996 19.581773 22.297896
37.275667 22.152687 31.282733
37.226595999999994 25.492253999999996 34.107925
37.216994 25.650276999999996 28.274779000000002
34.404475999999995 25.375642999999997 25.603409999999997
37.122122999999995 22.447947999999997 25.494369
37.52657 25.302729999999997 22.330424
37.478343 22.261854 37.216789999999996
34.224205 25.359248 37.106711
34.440801 25.415599 19.282738000000002
37.351959 22.275070999999997 19.222324999999998
37.182555 25.15048 16.347358
37.241645999999996 25.207209999999996 40.349360999999995
34.098002 25.225563 13.409083
37.263636999999996 22.294694999999997 13.314448
37.253991 25.526946000000002 10.608506
37.116972 31.476284 10.575759999999999
37.067472 19.373373 40.238822
34.166647 19.526565999999995 37.18537799999999
37.104541 16.511254 37.22512
37.338426 28.58874 13.483123
37.443875 19.418635000000002 34.054808
34.46702199999999 31.317887999999996 13.687776999999999
34.510087 19.285306 31.402515
37.217998 16.335700000000003 31.581724
37.06959199999999 19.233762 28.448427000000002
34.38458 19.215925 25.235141999999996
37.426874 16.458101 25.194248
37.174184 13.611053 10.378674
34.170331999999995 31.387988 31.218192000000002
31.526604 40.069244 37.22134
31.520484000000003 40.119306 31.487364
37.072302 37.335884 16.545828999999998
31.385908999999998 28.518119 31.289095000000003
31.517642000000002 31.418765 28.349705999999998
37.158922 34.436195 19.248207999999998
28.465671999999998 31.476446000000003 25.441435
34.418044 37.317440999999995 19.561814999999996
31.235222 28.244067 25.221778999999998
31.571278 31.289234999999998 22.25526
28.265026999999996 31.089671000000003 19.471877
31.135785 28.523055999999997 19.540281
31.212499 31.475716 16.679311999999996
37.144890999999994 37.362833 22.632886
28.351004000000003 31.135317 13.398867
31.203894 28.354692999999997 13.308038
31.428821999999997 31.400224 10.731094
37.052534 34.286072999999995 25.397289
34.410188 37.31073799999999 25.523182999999996
31.157328 25.262589 40.189625
28.156550000000003 25.415211999999997 37.486253
31.426923000000002 22.591020999999998 37.221748
37.281337 37.455142 28.249965000000003
28.202795000000002 25.502269 31.158969999999997
31.444817999999998 22.306961 31.206781999999997
31.350743 25.143077999999996 28.487613000000003
37.432534999999994 34.415912999999996 31.314818000000002
28.260568 25.549205 25.401454
31.343220000000002 22.18081 25.345098999999998
28.265262999999997 31.094669000000003 31.364012000000002
31.593435999999997 25.395863 22.349002999999996
31.344642 31.144269 34.31703099999999
28.433521 31.447826999999997 37.398273999999994
31.142569 40.428464 25.445096
31.515120000000003 40.087753 19.542482999999997
31.419884000000003 40.368642 13.328169
31.242213999999997 37.04058 40.354233
37.230757 31.121319999999997 34.443141
28.489589000000002 37.462436 37.258545
31.534506 34.227636999999994 37.285395
31.509036000000002 37.33180599999999 34.270845
37.512274 28.385908999999998 37.33899
28.451692 37.439507 31.519505000000002
25.492869 25.492590999999997 34.206769
31.042192 37.278584 28.380888
34.247144 31.498832 37.470056
37.300050999999996 31.120150000000002 40.058337
28.502705999999996 37.371627999999994 25.347372
31.492371 34.118468 25.292060999999997
31.198166999999998 37.397358 22.315092999999997
28.196039999999996 37.107631 19.392291
31.109833000000002 34.258102 19.519298999999997
31.163773999999997 37.25683299999999 16.646037
37.225309 37.36658 10.701065999999999
28.261046 37.329620999999996 13.329202
31.459837 34.550056 13.424431
37.357169 34.513781 13.445473
31.293505000000003 37.508449999999996 10.325198
34.196225 37.370422 13.60203
31.539876 31.331553999999997 40.325236999999994
31.175989 28.306545999999997 37.173978999999996
31.322446999999997 34.430800999999995 31.570179000000003
25.263928 31.456679 34.190247
22.117427999999997 25.340015 31.321028
16.590079000000003 25.365459 19.577049000000002
19.262783 22.556435999999998 19.550415
19.510564000000002 25.219980999999997 16.515880000000003
13.493073 19.529831 40.434709
16.499473000000002 25.545643 13.370174
13.587413 25.507773999999998 10.352389
19.310513 22.368764999999996 13.631005
19.304038 25.305304 10.310957
19.258502999999997 19.540450999999997 40.197894
13.408828 22.176093 13.63497
10.318467 25.597930999999996 13.441145
16.256238 19.457276999999998 37.124288
19.290829000000002 16.376939999999998 37.407553
19.472403999999997 19.230998 34.095536
13.633843 25.312148999999998 16.351654
16.303814000000003 19.448769 31.458998
19.331564 16.432502 31.065157999999997
19.243302 19.372171 28.451379000000003
13.402434 22.324292999999997 19.281335999999996
16.384984000000003 19.541204 25.512731000000002
19.572381 16.519863 25.254573999999998
19.332220999999997 19.398939 22.139314999999996
10.307792 25.375096999999997 19.558914
16.653472999999998 19.602131 19.332178999999996
19.543596 16.596707000000002 19.226093999999996
19.563626 19.610197 16.284298
13.565244999999999 25.283526000000002 22.190011
10.511582 19.299912 37.066159
19.506607000000002 25.576194 22.215016
19.316294999999997 22.483598 25.249029999999998
16.340986 25.53456 25.428067
19.487969999999997 31.165526999999997 34.367512
16.445397999999997 31.159315 31.475895
19.435175 28.418844 31.521622
19.402847 31.307212 28.104045
16.588786 31.506359000000003 25.556956
13.362483 19.574717999999997 22.550088000000002
19.506442 28.554344 25.449605
19.469039000000002 31.341586999999997 22.178846
10.565096 31.077260000000003 37.368176
13.479335 16.207743 25.542594
19.368598999999996 28.066668999999997 19.44654
19.302842999999996 31.087251000000002 16.531919000000002
16.345551 31.563721 13.413464
13.631121 22.597538999999998 25.378875999999998
10.359195 19.49131 25.194935
19.555951 31.166452 10.429257
13.377748 19.244856 28.463253
19.265532999999998 25.553137999999997 40.277443
13.428762 16.333133 31.195853999999997
16.382891 25.577989000000002 37.483836
19.517851999999998 22.266160999999997 37.088856
19.236109 25.169147000000002 34.374615
10.377883 19.560662999999998 31.181030999999997
16.591565000000003 25.510185999999997 31.220233999999998
19.257391999999996 22.412889999999997 31.44798
19.461585 25.527704 28.577492
13.550368 19.546599 34.413249
13.465646 16.669831000000002 37.07189
19.282955 28.188358 13.385256
19.292631 28.242399999999996 37.054854
16.418602 19.293188 13.325089
10.469066999999999 25.597616000000002 25.355541000000002
10.366988 31.188646 19.479616999999998
13.406135 40.412866 19.572935
13.660946000000001 31.261826 22.428688
13.554029 40.389428 13.239037
13.567732999999999 37.136390999999996 40.164322
10.516697 37.254399 37.062797999999994
13.436658 28.188451999999998 25.232414
13.339762 34.143181 37.227032
13.579976 37.217262999999996 34.481544
10.461154 37.188191999999994 31.502895000000002
10.616121 31.523313 25.220135
13.622554 34.450495 31.431212000000002
13.378079 37.469176 28.260345
10.368649 37.389432 25.178692999999996
13.309896 31.563051 28.276293000000003
13.624217 34.34755499999999 25.522979999999997
13.717295 37.33526199999999 22.520055
13.485446 28.517998 31.494518
10.748276 37.214278 19.292419000000002
13.603022 34.539179 19.544418999999998
13.634538 37.03162 16.483629
10.327912 37.273318999999994 13.532323
13.547063 34.110413 13.485413
13.718961 37.128814 10.540977
10.333703 31.244483000000002 31.364728999999997
13.330343 31.246284000000003 40.03111
13.599571 31.114976 34.147501
13.576608 40.328168 25.233178000000002
13.457787999999999 28.522761000000003 19.539977
13.38771 40.061778999999994 31.346083
13.593062999999999 31.128168000000002 16.409886
19.567178999999996 19.292316999999997 10.596722999999999
13.306256 25.187464 28.464450999999997
13.581434 22.410361 31.170189999999998
19.530037999999998 13.616495 40.122564
10.715607 25.440039 31.239907000000002
16.502521 13.439677 37.459994
19.583622999999996 10.401854 37.061895
19.527188000000002 13.632233 34.105407
13.196147999999999 25.405026999999997 34.244882999999994
13.568927 22.209029 37.403119999999994
16.329363999999998 13.3673 31.225454
19.549391 10.544113 31.466766
19.452005 13.566222 28.125214999999997
19.349508 16.255238 13.274973
10.78315 25.351115999999998 37.260876
19.237251999999998 10.478852999999999 25.251911999999997
19.584285 13.631027 22.500534000000002
13.433211 25.126638 40.173534
16.349550999999998 13.672513 19.335783999999997
19.680856 10.445755 19.455574
19.295440999999997 13.398835 16.572573999999996
13.515112 31.150599999999997 10.377006999999999
16.449652999999998 13.480678 13.286263
19.208258999999998 10.391549 13.40477
19.351048 13.322284999999999 10.658381
13.4917 28.584671 13.589108
10.554129 31.310955999999997 13.68565
13.663452999999999 40.361301 37.128019
16.467996999999997 13.682848 25.392308999999997
10.464525 19.296239 19.586616
16.389674999999997 31.453654999999998 19.590994000000002
13.328552 13.369132 28.312103999999998
25.191203 19.543874000000002 16.647661999999997
13.619932 13.596635000000001 22.251391999999996
22.159898999999996 19.348985999999996 13.547816
25.186301999999998 16.431618 13.420869
25.539091 19.396251 10.300215
13.526131 10.642391 25.244261
25.157626999999998 13.491766 40.269329
22.239044999999997 13.415737 37.192857999999994
25.438679 10.704839 37.379549
25.426296 13.314891 34.411356
10.480568 13.603202 25.248941000000002
25.154775 16.447225 19.380805000000002
22.588757 13.610059999999999 31.267411000000003
16.371021 31.399019000000003 37.034073
25.550976 13.632485 28.275750000000002
13.298669 10.487057 31.140290999999998
22.241611 13.562807 25.521774
10.404914 13.360353 31.566344
25.301544 10.672316 25.576076999999998
25.160891 13.272615 22.413513000000002
22.337624999999996 13.338513 19.525964000000002
25.382073999999996 10.645082 19.182156999999997
25.595478 13.462691999999999 16.343234000000002
22.580204000000002 13.366684 13.405705
25.435871999999996 10.312574 31.362530999999997
22.590586000000002 19.560612999999996 19.437790999999997
25.588682 19.334859 22.440103999999998
25.365046 16.594471 25.511438999999996
25.465078 22.576997 31.396231999999998
25.406247999999998 25.552903999999998 28.518960999999997
22.237048 25.383871 25.171650999999997
25.443785999999996 22.314149 25.178275999999997
25.423381999999997 25.258986999999998 22.211146999999997
13.676174 13.542193 10.679129
22.578581999999997 25.214377999999996 19.284185
25.258989999999997 22.448977 19.22954
25.540469 25.498139000000002 16.564996
13.323182 10.672934999999999 13.639496
22.505221 25.584279000000002 13.521319
25.134917 22.438493 13.543445
25.398992999999997 25.294156 10.722648
10.402220999999999 13.288132 13.503587
25.252659 19.249425000000002 40.446025999999996
22.518968 19.584224999999996 37.335539
13.635879 13.570708999999999 16.42517
25.506650999999998 16.316435 37.155721
25.219496 19.476653 34.413613
13.656432 10.348728 19.461619999999996
22.577655 19.568866 31.508960000000002
25.469046999999996 16.406236 31.51459
25.16782 19.445104 28.504861
10.630217 13.611229 19.276933999999997
22.386105 19.584896 25.463873
25.573535 10.531086 13.296574
25.560463999999996 13.515122 10.579889
13.567253 28.606926 37.15891
13.355295 13.25587 34.190039
13.495033 19.368288999999997 16.228157
19.274670999999998 37.435359999999996 16.647216999999998
10.478937 19.626295999999996 13.275671
19.575912000000002 34.405561999999996 19.581314
16.588036000000002 37.139654 19.432032999999997
19.238329 37.473859999999995 40.167498
13.344277 19.542865 10.460092
16.326195 37.459604999999996 37.111364
19.539265 34.460969999999996 37.140167
19.567347999999996 37.431402999999996 22.205002999999998
19.267662 37.13398299999999 34.397772999999994
13.585696 16.290280000000003 13.564161
16.622431 37.208114 31.469929999999998
19.433894000000002 34.058068 25.497787000000002
19.530378 34.098893999999994 31.398580000000003
16.548372999999998 37.154214 25.273258999999996
19.563004 37.478535 28.452584
13.296899 13.281911 40.141673
16.354235000000003 37.397777 13.59794
19.292865999999997 40.414465 13.407529
19.493989 40.088620999999996 31.093200000000003
19.484392999999997 34.168332 13.654693
19.207485 40.22853 37.090859
19.619929 31.366577999999997 40.05719199999999
10.336233 13.449333 37.36607
19.597378999999997 37.123672 10.659123
19.504810999999997 40.142986 19.177957
19.486249 40.416166999999994 25.317937
13.248492 16.448389 19.338367999999996
13.646265999999999 10.562076 37.105261
10.444571 28.504852999999997 22.844464000000002
39.923699 40.496035 16.811079999999997
40.610229 34.646181 10.35632
40.028438 28.684393 40.538884
10.330765 28.308497000000003 34.674572
34.132189 28.326638000000003 15.968662
40.007855 40.505108 22.541050999999996
40.677747 28.492561000000002 34.198462
39.899977 10.822587 16.117137999999997
34.705969 34.361583 39.848392999999994
34.098493999999995 39.90931199999999 16.536949999999997
10.463709999999999 15.964359 16.766061
33.797748 40.382977 22.147486999999998
33.962983 22.325972999999998 34.447410999999995
34.348178 27.842106 10.287374999999999
40.479211 34.164128 15.996229999999999
10.265463 16.692487999999997 22.559483999999998
10.681756 10.347040999999999 16.169761
33.922129 22.579675 40.275985
34.569702 40.071755 10.867409
34.231338 40.625296 34.520154
34.588319 39.980388 40.50331
40.63546899999999 34.567939 28.522674000000002
10.721165 28.663055999999997 28.108324000000003
40.585727 34.146554 34.063494
40.059006 33.99813699999999 40.148211999999994
10.767345 16.365263 27.993021999999996
10.12505 10.859225 22.505899
39.875729 10.412735 22.774245999999998
39.862941 22.231042000000002 28.196435
34.140629 27.836775000000003 40.335705999999995
40.66500799999999 16.728198 16.333303
34.722322 34.420021999999996 10.706097
40.464502 22.262752999999996 22.108240000000002
40.029621 22.686512999999998 16.310112
10.644092 21.980871 22.59196
34.345115 33.856548 28.131816999999998
10.837496 22.339689999999997 10.060005
40.219472 16.314518999999997 22.794300999999997
40.286629999999995 16.190292 39.805864
34.606311 34.236218 16.824298999999996
10.807882 10.286401 34.016183
40.639866 16.472467 28.128611999999997
33.980826 34.022466 22.434253999999996
10.689347999999999 22.121161999999998 16.172687
40.080265 22.720200999999996 10.116472
10.201477 22.075891 28.250836
10.697080999999999 10.143542 28.216302999999996
40.050788 22.026846999999997 34.23476
39.831825 28.097614999999998 28.073161999999996
33.928382 28.288328 22.728747999999996
34.000299 33.869159 34.604859999999995
40.537276999999996 16.325634 33.856322999999996
40.23085 28.021983 22.115173
10.040026 22.547675999999996 39.945887
40.389345999999996 10.848338 28.393842999999997
10.048541 16.67219 34.635456999999995
40.413551 28.256548000000002 16.110773000000002
34.603263 28.577323 28.480652
40.776222 28.342011999999997 10.262855
40.334545999999996 22.443221 40.614692
40.224760999999994 9.927794 34.152575
10.37811 16.016623000000003 10.686156
10.772736 22.087759 33.884783
40.208716 16.887580999999997 10.590057
34.695084 28.511043 34.675594999999994
10.738589 28.583173000000002 16.281253999999997
34.311032 40.071689 28.007596
28.651182 40.046544 21.917868
10.412573 28.401336 40.803611
28.67819 10.382676 10.757772
22.328634 10.410691 21.925016
28.672226000000002 10.306958 16.259605
22.219057 10.758068 10.698205999999999
16.928123 40.35643099999999 39.949647999999996
28.227905999999997 10.131549999999999 28.255314
16.036091 40.124385 34.468514
16.134430000000002 40.081574999999994 28.250152999999997
28.691498000000003 10.413841 34.182606
16.846317999999997 40.465191 22.70888
15.921437 40.360865999999994 16.57475
28.279245000000003 10.611355 40.686445
16.186272000000002 40.438228 10.227131
28.520576 16.707228 10.15755
16.162588999999997 34.270537 40.477754999999995
28.794899 16.558435000000003 16.741086000000003
16.533431999999998 33.828979 34.237952
28.193511 16.931694 22.696044999999998
16.419881 34.801852 28.541814000000002
28.15706 16.183536 27.908665
15.967722 34.212163 22.64183
28.548929 16.086176000000002 34.566725
16.771749999999997 33.876447 16.559706999999996
28.621716999999997 16.729025 40.262052
16.681944 34.001777 10.194196
16.69334 28.458064 39.819031
28.477215 22.173499999999997 16.177961
16.449720999999997 28.580029000000003 34.602033999999996
28.433863000000002 22.186701999999997 21.963501
22.097546 40.398534 39.94826
16.108370999999998 28.414778 28.527827000000002
22.727649 40.093244 34.775388
22.602047 39.924673 28.182021999999996
22.092540999999997 22.651204 39.838294
21.938598999999996 28.537182 10.172208
22.037981000000002 22.344423999999997 28.447266
22.149276999999998 28.614876000000002 16.169769000000002
22.046054999999996 22.068444 22.085313
22.450702 28.342595000000003 22.985788
22.547039999999996 22.767880999999996 16.092951999999997
22.706412 28.663069 28.307453000000002
22.022456 22.665189999999996 10.405361
22.389801999999996 16.433543 40.648182999999996
22.165895999999996 28.605825000000003 34.016451999999994
40.049437 39.91990499999999 28.166787999999997
22.033048 16.142362 34.467887
22.922173 28.245463 40.17170599999999
22.881517000000002 34.10292999999999 10.70875
22.680470999999997 16.730483 28.264854999999997
22.698090999999998 34.811579 16.33406
22.552514000000002 16.730308 22.652009
22.648252999999997 33.933356999999994 22.26292
22.894218000000002 16.359471 16.539788
22.609876999999997 34.245832 27.876734
22.387357 16.031958 10.545024
22.31277 34.104779 34.732535
22.455396 10.023389 40.6085
22.326223999999996 34.087576 40.712022
22.105835999999996 10.539249 33.867791
22.319254 40.588645 10.857192
22.575049999999997 40.508044 16.678401
22.423111999999996 39.93693 21.983798999999998
22.904409 10.553246 28.218069999999997
34.317316 22.474218999999998 27.953077999999998
28.446406000000003 22.803056999999995 28.367568
28.138167000000003 22.146586999999997 34.521479
33.969969 10.876017 10.684721999999999
16.119732 10.306587 40.50729
33.958656 10.426359 16.320593000000002
16.767333999999998 10.048881 34.070184
34.02428 10.769852 22.036153999999996
16.092143 10.20532 28.523936999999997
33.812174999999996 10.672787 28.098585999999997
16.352446999999998 10.304768 22.819797
34.46157899999999 10.81379 34.038305
16.764003000000002 10.311641 16.591189
34.71834 10.881288 40.243446999999996
16.738343999999998 10.827909 10.084907
34.528724 16.835178 10.72344
10.675327 40.40059299999999 34.592164
10.742711 40.491904999999996 27.995359
34.723007 16.506818000000003 16.740850000000002
10.210355999999999 39.939932 22.101937999999997
10.082604 40.388819 16.142027
34.002738 16.421447999999998 22.078992
10.69239 34.28222 39.922925
33.991741 16.661557000000002 28.125864
10.81669 34.613079 34.269706
33.960874999999994 16.714025 33.974469
10.231906 34.317934 28.767090000000003
33.878426999999995 16.220843000000002 40.499081
10.38354 34.684705 22.642085
34.526683999999996 22.612139999999997 16.154511
34.814742 22.541823 22.242125
10.115363 34.429826999999996 10.450794
28.508087000000003 39.763282 39.948354
16.100160000000002 28.375814 22.061472000000002
28.099210999999997 40.394574999999996 34.787794
28.363098 40.274665 28.733525
16.442867999999997 27.875895 16.075882
28.742272999999997 21.973709999999997 40.130489
28.054505999999996 28.321723 10.050767
16.426005 27.960621000000003 10.130813
16.217905000000002 22.717174999999997 39.876031
27.947228000000003 28.579428 16.088394
16.703263999999997 22.695037999999997 34.002576999999995
28.232295999999998 28.663055 21.960139999999996
16.054414 22.760005 28.349925999999996
28.455553000000002 28.537280000000003 28.699948
16.719865999999996 22.824337999999997 22.251159
28.055489 27.988971 34.409350999999994
16.750738999999996 22.547855 16.668666
28.597043999999997 28.431373 39.750948
28.681277 33.970833 10.674825
16.389038999999997 22.376069 11.009108
27.997388 34.125953 16.181562999999997
16.117776 16.704647 40.643505
28.311394999999997 33.847472 22.641484999999996
16.775272 16.298524 33.952476
27.933783 33.946768999999996 28.149259999999998
16.641137 16.001196999999998 28.115679
28.099629 34.300413 34.010262
16.466953 16.831761999999998 22.180549
27.861689 34.523404 40.257462999999994
16.4095 16.187858 16.847153
28.725417 40.305691 10.406630999999999
28.330775000000003 40.636862 16.048826
22.743913 22.591606 34.407582999999995
16.787441 16.550793 10.679672
40.113921999999995 40.507085 34.63175
13.573856 13.480373 13.201479
19.72074 19.515307999999997 19.460771
31.142992 37.430372 37.384601999999994
19.320797 19.585842 25.548206
31.413804999999996 37.384919 31.555068
19.576737 19.624395 31.078967
31.099246 37.127659 25.391599
19.342188 19.483694999999997 37.081506999999995
31.44751 37.537530999999994 19.637529
19.169171999999996 25.447795 13.282273
19.499668999999997 19.582177 13.73068
31.540805 37.297862 13.33249
31.364272 31.284349 37.635371
19.650612000000002 25.332116 25.212640999999998
31.346849999999996 31.082318 31.109336
19.361285000000002 25.24181 31.114368999999996
31.106492000000003 31.258986999999998 25.16122
19.205182 25.288612999999998 37.301353999999996
31.440223000000003 31.121231 19.206888
19.508863999999996 31.1205 13.63137
31.177838 31.046086000000003 13.540144
19.217909 25.289574 19.646219000000002
19.329149 31.102744 19.254464999999996
37.45883 13.500047 13.702911
37.417502999999996 13.456997 19.739526999999995
37.267828 25.206207999999997 25.228592999999996
13.775803999999999 37.192136 13.352421999999999
13.657953000000001 37.054477 19.448910999999995
37.133953 25.216606 19.566632
13.309744 37.197533 25.625448
37.12714 25.066234 13.440978
13.395533 37.596689 31.479436999999997
37.271721 19.186422 37.085833
13.640822 37.486394 37.269535
19.662507999999995 13.68602 37.15215799999999
37.413182 19.597484 31.528211999999996
37.006659 19.507253 19.556891999999998
37.199688 19.674298999999998 13.67368
19.552337 13.485497 13.674244
37.194114 13.354705 37.44677599999999
19.670830000000002 13.441528 19.230275999999996
37.393815999999994 13.704991999999999 31.556306999999997
19.336337 13.786681 25.246673
37.422672999999996 13.760709 25.278771
19.529714 13.194873 31.456615999999997
37.33253199999999 19.570233 25.609372
37.099996999999995 25.601546 31.431727000000002
31.575771000000003 25.369355 37.359078
31.139815 25.173048 31.193091000000003
25.570129 13.732087 37.433079
25.244357 37.153858 37.082001999999996
25.389584999999997 19.149333999999996 13.607583
25.149191000000002 37.543853 31.329068
25.411423999999997 19.282919 19.711419999999997
25.307003 37.120921 25.603034
25.455131 19.521715 25.607279
25.240983999999997 37.305446999999994 19.224322
25.170037 19.265428999999997 31.092954
25.257089999999998 13.187752 31.509917
25.640073 37.283864 13.263884
25.262487 31.493231 37.504543
25.427065 31.393208 31.573030000000003
25.485782 25.447828 13.202050999999999
25.129484999999995 31.404907 25.595636999999996
25.115592 25.588566999999998 19.361458999999996
25.241509 31.145544 19.651148999999997
25.378997 25.631911000000002 25.536082999999998
25.307867 31.408243 13.810260999999999
25.440154999999997 25.233294 31.533085
25.549639 19.654001 37.291644999999995
19.533853999999998 31.204175 25.163629
31.503895 13.332918 13.624467
31.137954999999998 13.643066 19.605840999999998
19.435344 31.047311999999998 31.112772999999997
31.491459999999996 25.212953999999996 25.522019999999998
19.712007999999997 31.183906999999998 37.155586
31.174114000000003 25.160564 19.380829999999996
31.241608999999997 25.583221 13.722957
19.593438999999996 37.371914 13.350486
19.590108 37.436609999999995 19.388792000000002
31.065002999999997 19.282705999999997 37.290866
19.16456 37.099392 25.527727999999996