3_train/197_cspbbr3_MA-BS_4_0.40\197_cspbbr3_MA-BS_4_0.40.xyz
1.0
51.076988 0 0
0 51.076988 0
0 0 51.076988
Br C Cs H N O Pb S 
198 287 77 420 35 126 64 42 
Cartesian
16.613494 16.613494 19.588493999999997
13.638494 16.613494 22.563494
16.613494 16.613494 25.538494
16.613494 13.638494 28.513494
13.638494 16.613494 28.513494
16.613494 16.613494 31.488494000000003
16.613494 13.638494 34.463494
13.638494 16.613494 34.463494
16.613494 16.613494 37.438494
16.613494 22.563494 13.638494
16.613494 19.588493999999997 16.613494
16.613494 22.563494 19.588493999999997
16.613494 19.588493999999997 22.563494
13.638494 22.563494 22.563494
16.613494 22.563494 25.538494
16.613494 19.588493999999997 28.513494
16.613494 22.563494 31.488494000000003
16.613494 19.588493999999997 34.463494
13.638494 22.563494 34.463494
16.613494 22.563494 37.438494
16.613494 28.513494 13.638494
16.613494 25.538494 16.613494
16.613494 28.513494 19.588493999999997
16.613494 25.538494 22.563494
16.613494 28.513494 25.538494
16.613494 25.538494 28.513494
13.638494 28.513494 28.513494
16.613494 28.513494 31.488494000000003
16.613494 25.538494 34.463494
13.638494 28.513494 34.463494
16.613494 34.463494 13.638494
16.613494 31.488494000000003 16.613494
16.613494 34.463494 19.588493999999997
16.613494 31.488494000000003 22.563494
13.638494 34.463494 22.563494
16.613494 34.463494 25.538494
16.613494 31.488494000000003 28.513494
13.638494 34.463494 28.513494
16.613494 34.463494 31.488494000000003
16.613494 31.488494000000003 34.463494
16.613494 34.463494 37.438494
22.563494 13.638494 16.613494
19.588493999999997 16.613494 16.613494
22.563494 16.613494 19.588493999999997
19.588493999999997 16.613494 22.563494
22.563494 16.613494 25.538494
19.588493999999997 16.613494 28.513494
22.563494 16.613494 31.488494000000003
22.563494 13.638494 34.463494
19.588493999999997 16.613494 34.463494
22.563494 16.613494 37.438494
22.563494 22.563494 13.638494
22.563494 19.588493999999997 16.613494
19.588493999999997 22.563494 16.613494
22.563494 22.563494 19.588493999999997
22.563494 19.588493999999997 22.563494
19.588493999999997 22.563494 22.563494
22.563494 22.563494 25.538494
22.563494 19.588493999999997 28.513494
19.588493999999997 22.563494 28.513494
22.563494 22.563494 31.488494000000003
22.563494 19.588493999999997 34.463494
19.588493999999997 22.563494 34.463494
22.563494 25.538494 16.613494
19.588493999999997 28.513494 16.613494
22.563494 28.513494 19.588493999999997
22.563494 25.538494 22.563494
19.588493999999997 28.513494 22.563494
22.563494 28.513494 25.538494
22.563494 25.538494 28.513494
19.588493999999997 28.513494 28.513494
22.563494 28.513494 31.488494000000003
22.563494 25.538494 34.463494
19.588493999999997 28.513494 34.463494
22.563494 28.513494 37.438494
22.563494 31.488494000000003 16.613494
19.588493999999997 34.463494 16.613494
22.563494 34.463494 19.588493999999997
22.563494 31.488494000000003 22.563494
19.588493999999997 34.463494 22.563494
22.563494 34.463494 25.538494
22.563494 31.488494000000003 28.513494
19.588493999999997 34.463494 28.513494
22.563494 34.463494 31.488494000000003
22.563494 31.488494000000003 34.463494
19.588493999999997 34.463494 34.463494
22.563494 37.438494 22.563494
22.563494 37.438494 28.513494
28.513494 13.638494 16.613494
25.538494 16.613494 16.613494
28.513494 16.613494 19.588493999999997
25.538494 16.613494 22.563494
28.513494 16.613494 25.538494
25.538494 16.613494 28.513494
28.513494 16.613494 31.488494000000003
28.513494 13.638494 34.463494
25.538494 16.613494 34.463494
28.513494 22.563494 13.638494
28.513494 19.588493999999997 16.613494
25.538494 22.563494 16.613494
28.513494 22.563494 19.588493999999997
28.513494 19.588493999999997 22.563494
25.538494 22.563494 22.563494
28.513494 22.563494 25.538494
28.513494 19.588493999999997 28.513494
25.538494 22.563494 28.513494
28.513494 22.563494 31.488494000000003
28.513494 19.588493999999997 34.463494
25.538494 22.563494 34.463494
28.513494 22.563494 37.438494
28.513494 28.513494 13.638494
28.513494 25.538494 16.613494
25.538494 28.513494 16.613494
28.513494 28.513494 19.588493999999997
28.513494 25.538494 22.563494
25.538494 28.513494 22.563494
28.513494 28.513494 25.538494
28.513494 25.538494 28.513494
25.538494 28.513494 28.513494
28.513494 28.513494 31.488494000000003
28.513494 25.538494 34.463494
25.538494 28.513494 34.463494
28.513494 28.513494 37.438494
28.513494 34.463494 13.638494
28.513494 31.488494000000003 16.613494
25.538494 34.463494 16.613494
28.513494 34.463494 19.588493999999997
28.513494 31.488494000000003 22.563494
25.538494 34.463494 22.563494
28.513494 34.463494 25.538494
28.513494 31.488494000000003 28.513494
25.538494 34.463494 28.513494
28.513494 34.463494 31.488494000000003
28.513494 31.488494000000003 34.463494
25.538494 34.463494 34.463494
28.513494 37.438494 22.563494
28.513494 37.438494 28.513494
28.513494 37.438494 34.463494
34.463494 16.613494 13.638494
31.488494000000003 16.613494 16.613494
34.463494 16.613494 19.588493999999997
34.463494 13.638494 22.563494
31.488494000000003 16.613494 22.563494
34.463494 16.613494 25.538494
34.463494 13.638494 28.513494
31.488494000000003 16.613494 28.513494
34.463494 16.613494 31.488494000000003
34.463494 13.638494 34.463494
31.488494000000003 16.613494 34.463494
34.463494 16.613494 37.438494
34.463494 19.588493999999997 16.613494
31.488494000000003 22.563494 16.613494
34.463494 22.563494 19.588493999999997
34.463494 19.588493999999997 22.563494
31.488494000000003 22.563494 22.563494
34.463494 22.563494 25.538494
34.463494 19.588493999999997 28.513494
31.488494000000003 22.563494 28.513494
34.463494 22.563494 31.488494000000003
34.463494 19.588493999999997 34.463494
31.488494000000003 22.563494 34.463494
34.463494 28.513494 13.638494
34.463494 25.538494 16.613494
31.488494000000003 28.513494 16.613494
34.463494 28.513494 19.588493999999997
34.463494 25.538494 22.563494
31.488494000000003 28.513494 22.563494
34.463494 28.513494 25.538494
34.463494 25.538494 28.513494
31.488494000000003 28.513494 28.513494
34.463494 28.513494 31.488494000000003
34.463494 25.538494 34.463494
31.488494000000003 28.513494 34.463494
34.463494 28.513494 37.438494
34.463494 31.488494000000003 16.613494
31.488494000000003 34.463494 16.613494
34.463494 34.463494 19.588493999999997
34.463494 31.488494000000003 22.563494
31.488494000000003 34.463494 22.563494
34.463494 34.463494 25.538494
34.463494 31.488494000000003 28.513494
31.488494000000003 34.463494 28.513494
34.463494 34.463494 31.488494000000003
34.463494 31.488494000000003 34.463494
31.488494000000003 34.463494 34.463494
34.463494 37.438494 16.613494
34.463494 37.438494 22.563494
34.463494 37.438494 28.513494
34.463494 37.438494 34.463494
37.438494 16.613494 22.563494
37.438494 16.613494 28.513494
37.438494 22.563494 16.613494
37.438494 22.563494 22.563494
37.438494 28.513494 16.613494
37.438494 28.513494 34.463494
37.438494 34.463494 16.613494
37.438494 34.463494 28.513494
37.438494 34.463494 34.463494
34.243668 34.423222 41.791061000000006
34.463494 34.463494 40.415135
34.882645 33.296964 39.764156
34.865501 32.07643 41.838305
34.441472 33.233829 42.500908
35.089205 32.100687 40.464035
28.293668000000004 16.573222 41.791061000000006
28.513494 16.613494 40.415135
28.932645 15.446964 39.764156
28.915501 14.226429999999999 41.838305
28.491472 15.383829 42.500908
29.139205000000004 14.250687 40.464035
22.343668 34.423222 41.791061000000006
22.563494 34.463494 40.415135
22.982644999999998 33.296964 39.764156
22.965501000000003 32.07643 41.838305
22.541472 33.233829 42.500908
23.189205 32.100687 40.464035
16.393667999999998 28.473222 41.791061000000006
16.613494 28.513494 40.415135
17.032645000000002 27.346964 39.764156
17.015501 26.12643 41.838305
16.591472 27.283828999999997 42.500908
17.239205 26.150686999999998 40.464035
22.343668 22.523222000000004 41.791061000000006
22.563494 22.563494 40.415135
22.982644999999998 21.396963999999997 39.764156
22.965501000000003 20.17643 41.838305
22.541472 21.333829 42.500908
23.189205 20.200687000000002 40.464035
28.293668000000004 34.423222 41.791061000000006
28.513494 34.463494 40.415135
28.932645 33.296964 39.764156
28.915501 32.07643 41.838305
28.491472 33.233829 42.500908
29.139205000000004 32.100687 40.464035
34.243668 22.523222000000004 41.791061000000006
34.463494 22.563494 40.415135
34.882645 21.396963999999997 39.764156
34.865501 20.17643 41.838305
34.441472 21.333829 42.500908
35.089205 20.200687000000002 40.464035
22.783320000000003 34.423222 9.285927000000001
22.563494 34.463494 10.661853
22.144343 33.296964 11.312832
22.161487 32.07643 9.238683
22.585516 33.233829 8.57608
21.937783 32.100687 10.612953
22.783320000000003 28.473222 9.285927000000001
22.563494 28.513494 10.661853
22.144343 27.346964 11.312832
22.161487 26.12643 9.238683
22.585516 27.283828999999997 8.57608
21.937783 26.150686999999998 10.612953
28.73332 16.573222 9.285927000000001
28.513494 16.613494 10.661853
28.094343000000002 15.446964 11.312832
28.111487000000004 14.226429999999999 9.238683
28.535516 15.383829 8.57608
27.887783 14.250687 10.612953
34.68332 34.423222 9.285927000000001
34.463494 34.463494 10.661853
34.044343 33.296964 11.312832
34.061487 32.07643 9.238683
34.485516 33.233829 8.57608
33.837783 32.100687 10.612953
34.68332 22.523222000000004 9.285927000000001
34.463494 22.563494 10.661853
34.044343 21.396963999999997 11.312832
34.061487 20.17643 9.238683
34.485516 21.333829 8.57608
33.837783 20.200687000000002 10.612953
22.783320000000003 16.573222 9.285927000000001
22.563494 16.613494 10.661853
22.144343 15.446964 11.312832
22.161487 14.226429999999999 9.238683
22.585516 15.383829 8.57608
21.937783 14.250687 10.612953
16.83332 16.573222 9.285927000000001
16.613494 16.613494 10.661853
16.194343 15.446964 11.312832
16.211486999999998 14.226429999999999 9.238683
16.635516 15.383829 8.57608
15.987783 14.250687 10.612953
9.285927000000001 16.573222 16.393667999999998
10.661853 16.613494 16.613494
11.312832 15.446964 17.032645000000002
9.238683 14.226429999999999 17.015501
8.57608 15.383829 16.591472
10.612953 14.250687 17.239205
9.285927000000001 28.473222 16.393667999999998
10.661853 28.513494 16.613494
11.312832 27.346964 17.032645000000002
9.238683 26.12643 17.015501
8.57608 27.283828999999997 16.591472
10.612953 26.150686999999998 17.239205
9.285927000000001 22.523222000000004 16.393667999999998
10.661853 22.563494 16.613494
11.312832 21.396963999999997 17.032645000000002
9.238683 20.17643 17.015501
8.57608 21.333829 16.591472
10.612953 20.200687000000002 17.239205
9.285927000000001 28.473222 22.343668
10.661853 28.513494 22.563494
11.312832 27.346964 22.982644999999998
9.238683 26.12643 22.965501000000003
8.57608 27.283828999999997 22.541472
10.612953 26.150686999999998 23.189205
9.285927000000001 34.423222 34.243668
10.661853 34.463494 34.463494
11.312832 33.296964 34.882645
9.238683 32.07643 34.865501
8.57608 33.233829 34.441472
10.612953 32.100687 35.089205
9.285927000000001 34.423222 16.393667999999998
10.661853 34.463494 16.613494
11.312832 33.296964 17.032645000000002
9.238683 32.07643 17.015501
8.57608 33.233829 16.591472
10.612953 32.100687 17.239205
9.285927000000001 22.523222000000004 28.293668000000004
10.661853 22.563494 28.513494
11.312832 21.396963999999997 28.932645
9.238683 20.17643 28.915501
8.57608 21.333829 28.491472
10.612953 20.200687000000002 29.139205000000004
41.791061000000006 28.473222 28.73332
40.415135 28.513494 28.513494
39.764156 27.346964 28.094343000000002
41.838305 26.12643 28.111487000000004
42.500908 27.283828999999997 28.535516
40.464035 26.150686999999998 27.887783
41.791061000000006 16.573222 34.68332
40.415135 16.613494 34.463494
39.764156 15.446964 34.044343
41.838305 14.226429999999999 34.061487
42.500908 15.383829 34.485516
40.464035 14.250687 33.837783
41.791061000000006 22.523222000000004 28.73332
40.415135 22.563494 28.513494
39.764156 21.396963999999997 28.094343000000002
41.838305 20.17643 28.111487000000004
42.500908 21.333829 28.535516
40.464035 20.200687000000002 27.887783
41.791061000000006 16.573222 16.83332
40.415135 16.613494 16.613494
39.764156 15.446964 16.194343
41.838305 14.226429999999999 16.211486999999998
42.500908 15.383829 16.635516
40.464035 14.250687 15.987783
41.791061000000006 28.473222 22.783320000000003
40.415135 28.513494 22.563494
39.764156 27.346964 22.144343
41.838305 26.12643 22.161487
42.500908 27.283828999999997 22.585516
40.464035 26.150686999999998 21.937783
41.791061000000006 34.423222 22.783320000000003
40.415135 34.463494 22.563494
39.764156 33.296964 22.144343
41.838305 32.07643 22.161487
42.500908 33.233829 22.585516
40.464035 32.100687 21.937783
41.791061000000006 22.523222000000004 34.68332
40.415135 22.563494 34.463494
39.764156 21.396963999999997 34.044343
41.838305 20.17643 34.061487
42.500908 21.333829 34.485516
40.464035 20.200687000000002 33.837783
28.293668000000004 9.285927000000001 22.523222000000004
28.513494 10.661853 22.563494
28.932645 11.312832 21.396963999999997
28.915501 9.238683 20.17643
28.491472 8.57608 21.333829
29.139205000000004 10.612953 20.200687000000002
16.393667999999998 9.285927000000001 16.573222
16.613494 10.661853 16.613494
17.032645000000002 11.312832 15.446964
17.015501 9.238683 14.226429999999999
16.591472 8.57608 15.383829
17.239205 10.612953 14.250687
22.343668 9.285927000000001 28.473222
22.563494 10.661853 28.513494
22.982644999999998 11.312832 27.346964
22.965501000000003 9.238683 26.12643
22.541472 8.57608 27.283828999999997
23.189205 10.612953 26.150686999999998
16.393667999999998 9.285927000000001 22.523222000000004
16.613494 10.661853 22.563494
17.032645000000002 11.312832 21.396963999999997
17.015501 9.238683 20.17643
16.591472 8.57608 21.333829
17.239205 10.612953 20.200687000000002
22.343668 9.285927000000001 22.523222000000004
22.563494 10.661853 22.563494
22.982644999999998 11.312832 21.396963999999997
22.965501000000003 9.238683 20.17643
22.541472 8.57608 21.333829
23.189205 10.612953 20.200687000000002
34.243668 9.285927000000001 16.573222
34.463494 10.661853 16.613494
34.882645 11.312832 15.446964
34.865501 9.238683 14.226429999999999
34.441472 8.57608 15.383829
35.089205 10.612953 14.250687
28.293668000000004 9.285927000000001 28.473222
28.513494 10.661853 28.513494
28.932645 11.312832 27.346964
28.915501 9.238683 26.12643
28.491472 8.57608 27.283828999999997
29.139205000000004 10.612953 26.150686999999998
16.393667999999998 41.791061000000006 34.503766
16.613494 40.415135 34.463494
17.032645000000002 39.764156 35.630024
17.015501 41.838305 36.850558
16.591472 42.500908 35.693159
17.239205 40.464035 36.826301
16.393667999999998 41.791061000000006 22.603766
16.613494 40.415135 22.563494
17.032645000000002 39.764156 23.730024
17.015501 41.838305 24.950558
16.591472 42.500908 23.793159000000003
17.239205 40.464035 24.926301000000002
22.343668 41.791061000000006 16.653765999999997
22.563494 40.415135 16.613494
22.982644999999998 39.764156 17.780023999999997
22.965501000000003 41.838305 19.000557999999998
22.541472 42.500908 17.843159
23.189205 40.464035 18.976301
16.393667999999998 41.791061000000006 28.553766000000003
16.613494 40.415135 28.513494
17.032645000000002 39.764156 29.680024000000003
17.015501 41.838305 30.900557999999997
16.591472 42.500908 29.743159
17.239205 40.464035 30.876300999999998
28.293668000000004 41.791061000000006 16.653765999999997
28.513494 40.415135 16.613494
28.932645 39.764156 17.780023999999997
28.915501 41.838305 19.000557999999998
28.491472 42.500908 17.843159
29.139205000000004 40.464035 18.976301
22.343668 41.791061000000006 34.503766
22.563494 40.415135 34.463494
22.982644999999998 39.764156 35.630024
22.965501000000003 41.838305 36.850558
22.541472 42.500908 35.693159
23.189205 40.464035 36.826301
16.393667999999998 41.791061000000006 16.653765999999997
16.613494 40.415135 16.613494
17.032645000000002 39.764156 17.780023999999997
17.015501 41.838305 19.000557999999998
16.591472 42.500908 17.843159
17.239205 40.464035 18.976301
12.595044 12.595044 19.588493999999997
12.162833 19.588493999999997 19.588493999999997
12.162833 25.538494 19.588493999999997
12.162833 25.538494 25.538494
12.162833 31.488494000000003 19.588493999999997
12.595044 31.488494000000003 38.481944000000006
19.588493999999997 12.595044 12.595044
19.588493999999997 12.162833 19.588493999999997
19.588493999999997 25.538494 12.162833
19.588493999999997 25.538494 38.914155
19.588493999999997 31.488494000000003 12.162833
19.588493999999997 38.914155 19.588493999999997
19.588493999999997 38.914155 25.538494
19.588493999999997 38.914155 31.488494000000003
19.588493999999997 38.481944000000006 38.481944000000006
25.538494 12.595044 12.595044
25.538494 12.162833 19.588493999999997
25.538494 12.162833 25.538494
25.538494 19.588493999999997 38.914155
25.538494 31.488494000000003 38.914155
25.538494 38.914155 19.588493999999997
25.538494 38.481944000000006 38.481944000000006
31.488494000000003 12.162833 19.588493999999997
31.488494000000003 12.162833 25.538494
31.488494000000003 19.588493999999997 12.162833
31.488494000000003 31.488494000000003 38.914155
31.488494000000003 38.914155 19.588493999999997
38.481944000000006 12.595044 31.488494000000003
38.914155 19.588493999999997 25.538494
38.914155 19.588493999999997 31.488494000000003
38.481944000000006 19.588493999999997 38.481944000000006
38.914155 25.538494 19.588493999999997
38.914155 25.538494 25.538494
38.914155 31.488494000000003 19.588493999999997
38.481944000000006 31.488494000000003 38.481944000000006
13.638494 13.638494 25.538494
13.638494 13.638494 31.488494000000003
13.638494 19.588493999999997 13.638494
13.638494 19.588493999999997 25.538494
13.638494 19.588493999999997 37.438494
13.638494 25.538494 13.638494
13.638494 25.538494 37.438494
13.638494 31.488494000000003 13.638494
13.638494 31.488494000000003 25.538494
13.638494 31.488494000000003 31.488494000000003
13.638494 37.438494 19.588493999999997
13.638494 37.438494 25.538494
13.638494 37.438494 31.488494000000003
19.588493999999997 13.638494 25.538494
19.588493999999997 13.638494 31.488494000000003
19.588493999999997 13.638494 37.438494
19.588493999999997 19.588493999999997 13.638494
19.588493999999997 19.588493999999997 19.588493999999997
19.588493999999997 19.588493999999997 25.538494
19.588493999999997 19.588493999999997 31.488494000000003
19.588493999999997 19.588493999999997 37.438494
19.588493999999997 25.538494 19.588493999999997
19.588493999999997 25.538494 25.538494
19.588493999999997 25.538494 31.488494000000003
19.588493999999997 31.488494000000003 19.588493999999997
19.588493999999997 31.488494000000003 25.538494
19.588493999999997 31.488494000000003 31.488494000000003
19.588493999999997 31.488494000000003 37.438494
19.588493999999997 37.438494 13.638494
25.538494 13.638494 31.488494000000003
25.538494 13.638494 37.438494
25.538494 19.588493999999997 13.638494
25.538494 19.588493999999997 19.588493999999997
25.538494 19.588493999999997 25.538494
25.538494 19.588493999999997 31.488494000000003
25.538494 25.538494 13.638494
25.538494 25.538494 19.588493999999997
25.538494 25.538494 25.538494
25.538494 25.538494 31.488494000000003
25.538494 25.538494 37.438494
25.538494 31.488494000000003 13.638494
25.538494 31.488494000000003 19.588493999999997
25.538494 31.488494000000003 25.538494
25.538494 31.488494000000003 31.488494000000003
25.538494 37.438494 13.638494
25.538494 37.438494 25.538494
25.538494 37.438494 31.488494000000003
31.488494000000003 13.638494 31.488494000000003
31.488494000000003 19.588493999999997 19.588493999999997
31.488494000000003 19.588493999999997 25.538494
31.488494000000003 19.588493999999997 31.488494000000003
31.488494000000003 19.588493999999997 37.438494
31.488494000000003 25.538494 13.638494
31.488494000000003 25.538494 19.588493999999997
31.488494000000003 25.538494 25.538494
31.488494000000003 25.538494 31.488494000000003
31.488494000000003 25.538494 37.438494
31.488494000000003 31.488494000000003 19.588493999999997
31.488494000000003 31.488494000000003 25.538494
31.488494000000003 31.488494000000003 31.488494000000003
31.488494000000003 37.438494 13.638494
31.488494000000003 37.438494 25.538494
31.488494000000003 37.438494 31.488494000000003
31.488494000000003 37.438494 37.438494
37.438494 13.638494 19.588493999999997
37.438494 13.638494 25.538494
37.438494 19.588493999999997 13.638494
37.438494 19.588493999999997 19.588493999999997
37.438494 25.538494 13.638494
37.438494 25.538494 31.488494000000003
37.438494 25.538494 37.438494
37.438494 31.488494000000003 13.638494
37.438494 31.488494000000003 25.538494
37.438494 31.488494000000003 31.488494000000003
37.438494 37.438494 19.588493999999997
37.438494 37.438494 25.538494
37.438494 37.438494 31.488494000000003
35.019331 31.150927000000003 42.394435
34.260403 33.207726 43.576988
33.910383 35.322251 42.311108
34.302235 35.378447 39.843596
35.412436 31.206575 39.929346
29.069331 13.300927 42.394435
28.310403 15.357726 43.576988
27.960383 17.472251 42.311108
28.352235 17.528447 39.843596
29.462436000000004 13.356575 39.929346
23.119331000000003 31.150927000000003 42.394435
22.360402999999998 33.207726 43.576988
22.010382999999997 35.322251 42.311108
22.402234999999997 35.378447 39.843596
23.512436 31.206575 39.929346
17.169331 25.200927 42.394435
16.410403000000002 27.257725999999998 43.576988
16.060383 29.372251 42.311108
16.452235 29.428447 39.843596
17.562435999999998 25.256574999999998 39.929346
23.119331000000003 19.250926999999997 42.394435
22.360402999999998 21.307726000000002 43.576988
22.010382999999997 23.422251000000003 42.311108
22.402234999999997 23.478447000000003 39.843596
23.512436 19.306575000000002 39.929346
29.069331 31.150927000000003 42.394435
28.310403 33.207726 43.576988
27.960383 35.322251 42.311108
28.352235 35.378447 39.843596
29.462436000000004 31.206575 39.929346
35.019331 19.250926999999997 42.394435
34.260403 21.307726000000002 43.576988
33.910383 23.422251000000003 42.311108
34.302235 23.478447000000003 39.843596
35.412436 19.306575000000002 39.929346
22.007657000000002 31.150927000000003 8.682552999999999
22.766585 33.207726 7.5
23.116605 35.322251 8.76588
22.724753 35.378447 11.233392
21.614552 31.206575 11.147642
22.007657000000002 25.200927 8.682552999999999
22.766585 27.257725999999998 7.5
23.116605 29.372251 8.76588
22.724753 29.428447 11.233392
21.614552 25.256574999999998 11.147642
27.957656999999998 13.300927 8.682552999999999
28.716585000000002 15.357726 7.5
29.066605000000003 17.472251 8.76588
28.674753000000003 17.528447 11.233392
27.564552 13.356575 11.147642
33.907657 31.150927000000003 8.682552999999999
34.666585 33.207726 7.5
35.016605 35.322251 8.76588
34.624753 35.378447 11.233392
33.514552 31.206575 11.147642
33.907657 19.250926999999997 8.682552999999999
34.666585 21.307726000000002 7.5
35.016605 23.422251000000003 8.76588
34.624753 23.478447000000003 11.233392
33.514552 19.306575000000002 11.147642
22.007657000000002 13.300927 8.682552999999999
22.766585 15.357726 7.5
23.116605 17.472251 8.76588
22.724753 17.528447 11.233392
21.614552 13.356575 11.147642
16.057657 13.300927 8.682552999999999
16.816585 15.357726 7.5
17.166604999999997 17.472251 8.76588
16.774752999999997 17.528447 11.233392
15.664551999999999 13.356575 11.147642
8.682552999999999 13.300927 17.169331
7.5 15.357726 16.410403000000002
8.76588 17.472251 16.060383
11.233392 17.528447 16.452235
11.147642 13.356575 17.562435999999998
8.682552999999999 25.200927 17.169331
7.5 27.257725999999998 16.410403000000002
8.76588 29.372251 16.060383
11.233392 29.428447 16.452235
11.147642 25.256574999999998 17.562435999999998
8.682552999999999 19.250926999999997 17.169331
7.5 21.307726000000002 16.410403000000002
8.76588 23.422251000000003 16.060383
11.233392 23.478447000000003 16.452235
11.147642 19.306575000000002 17.562435999999998
8.682552999999999 25.200927 23.119331000000003
7.5 27.257725999999998 22.360402999999998
8.76588 29.372251 22.010382999999997
11.233392 29.428447 22.402234999999997
11.147642 25.256574999999998 23.512436
8.682552999999999 31.150927000000003 35.019331
7.5 33.207726 34.260403
8.76588 35.322251 33.910383
11.233392 35.378447 34.302235
11.147642 31.206575 35.412436
8.682552999999999 31.150927000000003 17.169331
7.5 33.207726 16.410403000000002
8.76588 35.322251 16.060383
11.233392 35.378447 16.452235
11.147642 31.206575 17.562435999999998
8.682552999999999 19.250926999999997 29.069331
7.5 21.307726000000002 28.310403
8.76588 23.422251000000003 27.960383
11.233392 23.478447000000003 28.352235
11.147642 19.306575000000002 29.462436000000004
42.394435 25.200927 27.957656999999998
43.576988 27.257725999999998 28.716585000000002
42.311108 29.372251 29.066605000000003
39.843596 29.428447 28.674753000000003
39.929346 25.256574999999998 27.564552
42.394435 13.300927 33.907657
43.576988 15.357726 34.666585
42.311108 17.472251 35.016605
39.843596 17.528447 34.624753
39.929346 13.356575 33.514552
42.394435 19.250926999999997 27.957656999999998
43.576988 21.307726000000002 28.716585000000002
42.311108 23.422251000000003 29.066605000000003
39.843596 23.478447000000003 28.674753000000003
39.929346 19.306575000000002 27.564552
42.394435 13.300927 16.057657
43.576988 15.357726 16.816585
42.311108 17.472251 17.166604999999997
39.843596 17.528447 16.774752999999997
39.929346 13.356575 15.664551999999999
42.394435 25.200927 22.007657000000002
43.576988 27.257725999999998 22.766585
42.311108 29.372251 23.116605
39.843596 29.428447 22.724753
39.929346 25.256574999999998 21.614552
42.394435 31.150927000000003 22.007657000000002
43.576988 33.207726 22.766585
42.311108 35.322251 23.116605
39.843596 35.378447 22.724753
39.929346 31.206575 21.614552
42.394435 19.250926999999997 33.907657
43.576988 21.307726000000002 34.666585
42.311108 23.422251000000003 35.016605
39.843596 23.478447000000003 34.624753
39.929346 19.306575000000002 33.514552
29.069331 8.682552999999999 19.250926999999997
28.310403 7.5 21.307726000000002
27.960383 8.76588 23.422251000000003
28.352235 11.233392 23.478447000000003
29.462436000000004 11.147642 19.306575000000002
17.169331 8.682552999999999 13.300927
16.410403000000002 7.5 15.357726
16.060383 8.76588 17.472251
16.452235 11.233392 17.528447
17.562435999999998 11.147642 13.356575
23.119331000000003 8.682552999999999 25.200927
22.360402999999998 7.5 27.257725999999998
22.010382999999997 8.76588 29.372251
22.402234999999997 11.233392 29.428447
23.512436 11.147642 25.256574999999998
17.169331 8.682552999999999 19.250926999999997
16.410403000000002 7.5 21.307726000000002
16.060383 8.76588 23.422251000000003
16.452235 11.233392 23.478447000000003
17.562435999999998 11.147642 19.306575000000002
23.119331000000003 8.682552999999999 19.250926999999997
22.360402999999998 7.5 21.307726000000002
22.010382999999997 8.76588 23.422251000000003
22.402234999999997 11.233392 23.478447000000003
23.512436 11.147642 19.306575000000002
35.019331 8.682552999999999 13.300927
34.260403 7.5 15.357726
33.910383 8.76588 17.472251
34.302235 11.233392 17.528447
35.412436 11.147642 13.356575
29.069331 8.682552999999999 25.200927
28.310403 7.5 27.257725999999998
27.960383 8.76588 29.372251
28.352235 11.233392 29.428447
29.462436000000004 11.147642 25.256574999999998
17.169331 42.394435 37.776061
16.410403000000002 43.576988 35.719262
16.060383 42.311108 33.604737
16.452235 39.843596 33.548541
17.562435999999998 39.929346 37.720413
17.169331 42.394435 25.876061
16.410403000000002 43.576988 23.819262000000002
16.060383 42.311108 21.704737
16.452235 39.843596 21.648541
17.562435999999998 39.929346 25.820413000000002
23.119331000000003 42.394435 19.926060999999997
22.360402999999998 43.576988 17.869262
22.010382999999997 42.311108 15.754737
22.402234999999997 39.843596 15.698541
23.512436 39.929346 19.870413
17.169331 42.394435 31.826061000000003
16.410403000000002 43.576988 29.769261999999998
16.060383 42.311108 27.654736999999997
16.452235 39.843596 27.598540999999997
17.562435999999998 39.929346 31.770412999999998
29.069331 42.394435 19.926060999999997
28.310403 43.576988 17.869262
27.960383 42.311108 15.754737
28.352235 39.843596 15.698541
29.462436000000004 39.929346 19.870413
23.119331000000003 42.394435 37.776061
22.360402999999998 43.576988 35.719262
22.010382999999997 42.311108 33.604737
22.402234999999997 39.843596 33.548541
23.512436 39.929346 37.720413
17.169331 42.394435 19.926060999999997
16.410403000000002 43.576988 17.869262
16.060383 42.311108 15.754737
16.452235 39.843596 15.698541
17.562435999999998 39.929346 19.870413
12.743769 11.974084 18.703103
12.708694 12.009159 20.502523
11.624316 13.093537 19.559855
13.548804 14.258149999999999 20.404474999999998
13.581129 14.225824 18.746119999999998
14.580497 13.226455999999999 19.614888
11.828911999999999 18.889136 20.357273999999997
11.828911999999999 20.603955999999997 19.809766
11.828911999999999 19.272388999999997 18.598442
14.013236 20.233026000000002 18.879982
14.013236 18.652639 19.384569
14.013236 19.879818 20.500931
11.828911999999999 25.318906 18.572665999999998
11.828911999999999 24.768555 20.286577
11.828911999999999 26.528021000000003 19.906239
14.013236 25.740868 20.524686000000003
14.013236 26.248072999999998 18.945137000000003
14.013236 24.626541000000003 19.295659