3_train/183_cspbbr3_MA-OP_3_0.60\183_cspbbr3_MA-OP_3_0.60.xyz
1.0
55.692052 0 0
0 55.692052 0
0 0 55.692052
Br C Cs H N O P Pb 
72 317 25 822 29 108 36 27 
Cartesian
21.896026 21.896026 24.871025999999997
21.896026 18.921025999999998 27.846026
21.896026 21.896026 30.821025999999996
21.896026 24.871025999999997 21.896026
18.921025999999998 27.846026 21.896026
21.896026 27.846026 24.871025999999997
21.896026 24.871025999999997 27.846026
21.896026 27.846026 30.821025999999996
21.896026 24.871025999999997 33.796026
18.921025999999998 27.846026 33.796026
21.896026 27.846026 36.771026
21.896026 30.821025999999996 21.896026
21.896026 33.796026 24.871025999999997
21.896026 30.821025999999996 27.846026
21.896026 33.796026 30.821025999999996
21.896026 30.821025999999996 33.796026
18.921025999999998 33.796026 33.796026
21.896026 36.771026 27.846026
27.846026 21.896026 18.921025999999998
24.871025999999997 21.896026 21.896026
27.846026 21.896026 24.871025999999997
24.871025999999997 21.896026 27.846026
27.846026 21.896026 30.821025999999996
24.871025999999997 21.896026 33.796026
27.846026 24.871025999999997 21.896026
24.871025999999997 27.846026 21.896026
27.846026 27.846026 24.871025999999997
27.846026 24.871025999999997 27.846026
24.871025999999997 27.846026 27.846026
27.846026 27.846026 30.821025999999996
27.846026 24.871025999999997 33.796026
24.871025999999997 27.846026 33.796026
27.846026 27.846026 36.771026
27.846026 30.821025999999996 21.896026
24.871025999999997 33.796026 21.896026
27.846026 33.796026 24.871025999999997
27.846026 30.821025999999996 27.846026
24.871025999999997 33.796026 27.846026
27.846026 33.796026 30.821025999999996
27.846026 30.821025999999996 33.796026
24.871025999999997 33.796026 33.796026
27.846026 33.796026 36.771026
33.796026 21.896026 18.921025999999998
30.821025999999996 21.896026 21.896026
33.796026 21.896026 24.871025999999997
33.796026 18.921025999999998 27.846026
30.821025999999996 21.896026 27.846026
33.796026 21.896026 30.821025999999996
33.796026 18.921025999999998 33.796026
30.821025999999996 21.896026 33.796026
33.796026 24.871025999999997 21.896026
30.821025999999996 27.846026 21.896026
33.796026 27.846026 24.871025999999997
33.796026 24.871025999999997 27.846026
30.821025999999996 27.846026 27.846026
33.796026 27.846026 30.821025999999996
33.796026 24.871025999999997 33.796026
30.821025999999996 27.846026 33.796026
33.796026 33.796026 18.921025999999998
33.796026 30.821025999999996 21.896026
30.821025999999996 33.796026 21.896026
33.796026 33.796026 24.871025999999997
33.796026 30.821025999999996 27.846026
30.821025999999996 33.796026 27.846026
33.796026 33.796026 30.821025999999996
33.796026 30.821025999999996 33.796026
30.821025999999996 33.796026 33.796026
33.796026 36.771026 21.896026
33.796026 36.771026 27.846026
36.771026 21.896026 21.896026
36.771026 21.896026 27.846026
36.771026 33.796026 21.896026
33.449669 22.870106 39.375969999999995
32.46292 23.544258 40.342203999999995
33.088814 23.877463 41.698915
32.09462499999999 24.531412999999997 42.659685999999994
32.686206999999996 24.895307999999996 44.022529999999996
31.668988999999996 25.556068999999997 44.954769
32.241828 25.962396 46.31398299999999
31.211447999999997 26.633188999999998 47.225493
21.549668999999998 34.770106 39.375969999999995
20.56292 35.444258 40.342203999999995
21.188813999999997 35.777463 41.698915
20.194625 36.431413 42.659685999999994
20.786206999999997 36.795308 44.022529999999996
19.768988999999998 37.456069 44.954769
20.341828 37.862396 46.31398299999999
19.311448 38.53318899999999 47.225493
21.549668999999998 22.870106 39.375969999999995
20.56292 23.544258 40.342203999999995
21.188813999999997 23.877463 41.698915
20.194625 24.531412999999997 42.659685999999994
20.786206999999997 24.895307999999996 44.022529999999996
19.768988999999998 25.556068999999997 44.954769
20.341828 25.962396 46.31398299999999
19.311448 26.633188999999998 47.225493
27.499668999999997 22.870106 39.375969999999995
26.512919999999998 23.544258 40.342203999999995
27.138813999999996 23.877463 41.698915
26.144624999999998 24.531412999999997 42.659685999999994
26.736206999999997 24.895307999999996 44.022529999999996
25.718988999999997 25.556068999999997 44.954769
26.291828 25.962396 46.31398299999999
25.261447999999998 26.633188999999998 47.225493
33.449669 28.820105999999996 39.375969999999995
32.46292 29.494258 40.342203999999995
33.088814 29.827462999999998 41.698915
32.09462499999999 30.481412999999996 42.659685999999994
32.686206999999996 30.845307999999996 44.022529999999996
31.668988999999996 31.506068999999997 44.954769
32.241828 31.912395999999998 46.31398299999999
31.211447999999997 32.583189 47.225493
33.449669 34.770106 39.375969999999995
32.46292 35.444258 40.342203999999995
33.088814 35.777463 41.698915
32.09462499999999 36.431413 42.659685999999994
32.686206999999996 36.795308 44.022529999999996
31.668988999999996 37.456069 44.954769
32.241828 37.862396 46.31398299999999
31.211447999999997 38.53318899999999 47.225493
28.192383 28.820105999999996 16.316081999999998
29.179131999999996 29.494258 15.349847999999998
28.553238 29.827462999999998 13.993136999999997
29.547427 30.481412999999996 13.032365999999998
28.955844999999997 30.845307999999996 11.669521999999997
29.973062999999996 31.506068999999997 10.737282999999998
29.400223999999998 31.912395999999998 9.378068999999998
30.430603999999995 32.583189 8.466558999999998
22.242382999999997 34.770106 16.316081999999998
23.229132 35.444258 15.349847999999998
22.603237999999997 35.777463 13.993136999999997
23.597426999999996 36.431413 13.032365999999998
23.005844999999997 36.795308 11.669521999999997
24.023062999999997 37.456069 10.737282999999998
23.450224 37.862396 9.378068999999998
24.480604 38.53318899999999 8.466558999999998
22.242382999999997 22.870106 16.316081999999998
23.229132 23.544258 15.349847999999998
22.603237999999997 23.877463 13.993136999999997
23.597426999999996 24.531412999999997 13.032365999999998
23.005844999999997 24.895307999999996 11.669521999999997
24.023062999999997 25.556068999999997 10.737282999999998
23.450224 25.962396 9.378068999999998
24.480604 26.633188999999998 8.466558999999998
34.142382999999995 28.820105999999996 16.316081999999998
35.129132 29.494258 15.349847999999998
34.503237999999996 29.827462999999998 13.993136999999997
35.497427 30.481412999999996 13.032365999999998
34.905845 30.845307999999996 11.669521999999997
35.923063 31.506068999999997 10.737282999999998
35.350224 31.912395999999998 9.378068999999998
36.380604 32.583189 8.466558999999998
22.242382999999997 28.820105999999996 16.316081999999998
23.229132 29.494258 15.349847999999998
22.603237999999997 29.827462999999998 13.993136999999997
23.597426999999996 30.481412999999996 13.032365999999998
23.005844999999997 30.845307999999996 11.669521999999997
24.023062999999997 31.506068999999997 10.737282999999998
23.450224 31.912395999999998 9.378068999999998
24.480604 32.583189 8.466558999999998
28.192383 34.770106 16.316081999999998
29.179131999999996 35.444258 15.349847999999998
28.553238 35.777463 13.993136999999997
29.547427 36.431413 13.032365999999998
28.955844999999997 36.795308 11.669521999999997
29.973062999999996 37.456069 10.737282999999998
29.400223999999998 37.862396 9.378068999999998
30.430603999999995 38.53318899999999 8.466558999999998
16.316081999999998 28.820105999999996 27.499668999999997
15.349847999999998 29.494258 26.512919999999998
13.993136999999997 29.827462999999998 27.138813999999996
13.032365999999998 30.481412999999996 26.144624999999998
11.669521999999997 30.845307999999996 26.736206999999997
10.737282999999998 31.506068999999997 25.718988999999997
9.378068999999998 31.912395999999998 26.291828
8.466558999999998 32.583189 25.261447999999998
16.316081999999998 22.870106 27.499668999999997
15.349847999999998 23.544258 26.512919999999998
13.993136999999997 23.877463 27.138813999999996
13.032365999999998 24.531412999999997 26.144624999999998
11.669521999999997 24.895307999999996 26.736206999999997
10.737282999999998 25.556068999999997 25.718988999999997
9.378068999999998 25.962396 26.291828
8.466558999999998 26.633188999999998 25.261447999999998
16.316081999999998 34.770106 21.549668999999998
15.349847999999998 35.444258 20.56292
13.993136999999997 35.777463 21.188813999999997
13.032365999999998 36.431413 20.194625
11.669521999999997 36.795308 20.786206999999997
10.737282999999998 37.456069 19.768988999999998
9.378068999999998 37.862396 20.341828
8.466558999999998 38.53318899999999 19.311448
16.316081999999998 22.870106 21.549668999999998
15.349847999999998 23.544258 20.56292
13.993136999999997 23.877463 21.188813999999997
13.032365999999998 24.531412999999997 20.194625
11.669521999999997 24.895307999999996 20.786206999999997
10.737282999999998 25.556068999999997 19.768988999999998
9.378068999999998 25.962396 20.341828
8.466558999999998 26.633188999999998 19.311448
16.316081999999998 34.770106 27.499668999999997
15.349847999999998 35.444258 26.512919999999998
13.993136999999997 35.777463 27.138813999999996
13.032365999999998 36.431413 26.144624999999998
11.669521999999997 36.795308 26.736206999999997
10.737282999999998 37.456069 25.718988999999997
9.378068999999998 37.862396 26.291828
8.466558999999998 38.53318899999999 25.261447999999998
16.316081999999998 22.870106 33.449669
15.349847999999998 23.544258 32.46292
13.993136999999997 23.877463 33.088814
13.032365999999998 24.531412999999997 32.09462499999999
11.669521999999997 24.895307999999996 32.686206999999996
10.737282999999998 25.556068999999997 31.668988999999996
9.378068999999998 25.962396 32.241828
8.466558999999998 26.633188999999998 31.211447999999997
39.375969999999995 28.820105999999996 28.192383
40.342203999999995 29.494258 29.179131999999996
41.698915 29.827462999999998 28.553238
42.659685999999994 30.481412999999996 29.547427
44.022529999999996 30.845307999999996 28.955844999999997
44.954769 31.506068999999997 29.973062999999996
46.31398299999999 31.912395999999998 29.400223999999998
47.225493 32.583189 30.430603999999995
39.375969999999995 34.770106 28.192383
40.342203999999995 35.444258 29.179131999999996
41.698915 35.777463 28.553238
42.659685999999994 36.431413 29.547427
44.022529999999996 36.795308 28.955844999999997
44.954769 37.456069 29.973062999999996
46.31398299999999 37.862396 29.400223999999998
47.225493 38.53318899999999 30.430603999999995
39.375969999999995 28.820105999999996 34.142382999999995
40.342203999999995 29.494258 35.129132
41.698915 29.827462999999998 34.503237999999996
42.659685999999994 30.481412999999996 35.497427
44.022529999999996 30.845307999999996 34.905845
44.954769 31.506068999999997 35.923063
46.31398299999999 31.912395999999998 35.350224
47.225493 32.583189 36.380604
39.375969999999995 22.870106 34.142382999999995
40.342203999999995 23.544258 35.129132
41.698915 23.877463 34.503237999999996
42.659685999999994 24.531412999999997 35.497427
44.022529999999996 24.895307999999996 34.905845
44.954769 25.556068999999997 35.923063
46.31398299999999 25.962396 35.350224
47.225493 26.633188999999998 36.380604
39.375969999999995 34.770106 34.142382999999995
40.342203999999995 35.444258 35.129132
41.698915 35.777463 34.503237999999996
42.659685999999994 36.431413 35.497427
44.022529999999996 36.795308 34.905845
44.954769 37.456069 35.923063
46.31398299999999 37.862396 35.350224
47.225493 38.53318899999999 36.380604
39.375969999999995 28.820105999999996 22.242382999999997
40.342203999999995 29.494258 23.229132
41.698915 29.827462999999998 22.603237999999997
42.659685999999994 30.481412999999996 23.597426999999996
44.022529999999996 30.845307999999996 23.005844999999997
44.954769 31.506068999999997 24.023062999999997
46.31398299999999 31.912395999999998 23.450224
47.225493 32.583189 24.480604
21.549668999999998 16.316081999999998 34.770106
20.56292 15.349847999999998 35.444258
21.188813999999997 13.993136999999997 35.777463
20.194625 13.032365999999998 36.431413
20.786206999999997 11.669521999999997 36.795308
19.768988999999998 10.737282999999998 37.456069
20.341828 9.378068999999998 37.862396
19.311448 8.466558999999998 38.53318899999999
21.549668999999998 16.316081999999998 22.870106
20.56292 15.349847999999998 23.544258
21.188813999999997 13.993136999999997 23.877463
20.194625 13.032365999999998 24.531412999999997
20.786206999999997 11.669521999999997 24.895307999999996
19.768988999999998 10.737282999999998 25.556068999999997
20.341828 9.378068999999998 25.962396
19.311448 8.466558999999998 26.633188999999998
27.499668999999997 16.316081999999998 22.870106
26.512919999999998 15.349847999999998 23.544258
27.138813999999996 13.993136999999997 23.877463
26.144624999999998 13.032365999999998 24.531412999999997
26.736206999999997 11.669521999999997 24.895307999999996
25.718988999999997 10.737282999999998 25.556068999999997
26.291828 9.378068999999998 25.962396
25.261447999999998 8.466558999999998 26.633188999999998
33.449669 16.316081999999998 22.870106
32.46292 15.349847999999998 23.544258
33.088814 13.993136999999997 23.877463
32.09462499999999 13.032365999999998 24.531412999999997
32.686206999999996 11.669521999999997 24.895307999999996
31.668988999999996 10.737282999999998 25.556068999999997
32.241828 9.378068999999998 25.962396
31.211447999999997 8.466558999999998 26.633188999999998
27.499668999999997 16.316081999999998 34.770106
26.512919999999998 15.349847999999998 35.444258
27.138813999999996 13.993136999999997 35.777463
26.144624999999998 13.032365999999998 36.431413
26.736206999999997 11.669521999999997 36.795308
25.718988999999997 10.737282999999998 37.456069
26.291828 9.378068999999998 37.862396
25.261447999999998 8.466558999999998 38.53318899999999
27.499668999999997 16.316081999999998 28.820105999999996
26.512919999999998 15.349847999999998 29.494258
27.138813999999996 13.993136999999997 29.827462999999998
26.144624999999998 13.032365999999998 30.481412999999996
26.736206999999997 11.669521999999997 30.845307999999996
25.718988999999997 10.737282999999998 31.506068999999997
26.291828 9.378068999999998 31.912395999999998
25.261447999999998 8.466558999999998 32.583189
21.549668999999998 39.375969999999995 20.921946
20.56292 40.342203999999995 20.247794
21.188813999999997 41.698915 19.914589
20.194625 42.659685999999994 19.260638999999998
20.786206999999997 44.022529999999996 18.896743999999998
19.768988999999998 44.954769 18.235982999999997
20.341828 46.31398299999999 17.829656
19.311448 47.225493 17.158862999999997
27.499668999999997 39.375969999999995 26.871945999999998
26.512919999999998 40.342203999999995 26.197794
27.138813999999996 41.698915 25.864589
26.144624999999998 42.659685999999994 25.210638999999997
26.736206999999997 44.022529999999996 24.846743999999997
25.718988999999997 44.954769 24.185982999999997
26.291828 46.31398299999999 23.779655999999996
25.261447999999998 47.225493 23.108863
27.499668999999997 39.375969999999995 32.821946
26.512919999999998 40.342203999999995 32.147794
27.138813999999996 41.698915 31.814588999999998
26.144624999999998 42.659685999999994 31.160638999999996
26.736206999999997 44.022529999999996 30.796743999999997
25.718988999999997 44.954769 30.135982999999996
26.291828 46.31398299999999 29.729656
25.261447999999998 47.225493 29.058862999999995
33.449669 39.375969999999995 32.821946
32.46292 40.342203999999995 32.147794
33.088814 41.698915 31.814588999999998
32.09462499999999 42.659685999999994 31.160638999999996
32.686206999999996 44.022529999999996 30.796743999999997
31.668988999999996 44.954769 30.135982999999996
32.241828 46.31398299999999 29.729656
31.211447999999997 47.225493 29.058862999999995
21.549668999999998 39.375969999999995 32.821946
20.56292 40.342203999999995 32.147794
21.188813999999997 41.698915 31.814588999999998
20.194625 42.659685999999994 31.160638999999996
20.786206999999997 44.022529999999996 30.796743999999997
19.768988999999998 44.954769 30.135982999999996
20.341828 46.31398299999999 29.729656
19.311448 47.225493 29.058862999999995
27.499668999999997 39.375969999999995 20.921946
26.512919999999998 40.342203999999995 20.247794
27.138813999999996 41.698915 19.914589
26.144624999999998 42.659685999999994 19.260638999999998
26.736206999999997 44.022529999999996 18.896743999999998
25.718988999999997 44.954769 18.235982999999997
26.291828 46.31398299999999 17.829656
25.261447999999998 47.225493 17.158862999999997
17.877575999999998 17.877575999999998 24.871025999999997
17.877575999999998 24.871025999999997 17.877575999999998
17.445365 24.871025999999997 24.871025999999997
17.445365 24.871025999999997 30.821025999999996
17.877575999999998 24.871025999999997 37.814476
17.445365 30.821025999999996 24.871025999999997
17.877575999999998 37.814476 24.871025999999997
17.877575999999998 37.814476 30.821025999999996
24.871025999999997 17.445365 24.871025999999997
24.871025999999997 17.445365 30.821025999999996
24.871025999999997 17.877575999999998 37.814476
24.871025999999997 24.871025999999997 17.445365
24.871025999999997 24.871025999999997 38.246686999999994
24.871025999999997 30.821025999999996 17.445365
24.871025999999997 37.814476 17.877575999999998
24.871025999999997 38.246686999999994 24.871025999999997
24.871025999999997 38.246686999999994 30.821025999999996
30.821025999999996 17.445365 24.871025999999997
30.821025999999996 24.871025999999997 38.246686999999994
30.821025999999996 30.821025999999996 17.445365
30.821025999999996 30.821025999999996 38.246686999999994
30.821025999999996 37.814476 17.877575999999998
30.821025999999996 38.246686999999994 30.821025999999996
30.821025999999996 37.814476 37.814476
37.814476 30.821025999999996 17.877575999999998
38.246686999999994 30.821025999999996 24.871025999999997
38.246686999999994 30.821025999999996 30.821025999999996
37.814476 30.821025999999996 37.814476
37.814476 37.814476 30.821025999999996
18.921025999999998 18.921025999999998 30.821025999999996
18.921025999999998 30.821025999999996 18.921025999999998
18.921025999999998 30.821025999999996 30.821025999999996
18.921025999999998 30.821025999999996 36.771026
24.871025999999997 18.921025999999998 18.921025999999998
24.871025999999997 24.871025999999997 24.871025999999997
24.871025999999997 24.871025999999997 30.821025999999996
24.871025999999997 30.821025999999996 24.871025999999997
24.871025999999997 30.821025999999996 30.821025999999996
24.871025999999997 30.821025999999996 36.771026
24.871025999999997 36.771026 36.771026
30.821025999999996 18.921025999999998 18.921025999999998
30.821025999999996 18.921025999999998 30.821025999999996
30.821025999999996 18.921025999999998 36.771026
30.821025999999996 24.871025999999997 18.921025999999998
30.821025999999996 24.871025999999997 24.871025999999997
30.821025999999996 24.871025999999997 30.821025999999996
30.821025999999996 30.821025999999996 24.871025999999997
30.821025999999996 30.821025999999996 30.821025999999996
30.821025999999996 36.771026 24.871025999999997
36.771026 18.921025999999998 24.871025999999997
36.771026 18.921025999999998 30.821025999999996
36.771026 24.871025999999997 18.921025999999998
36.771026 24.871025999999997 24.871025999999997
36.771026 36.771026 24.871025999999997
30.965683999999996 21.85881 38.651438
33.796026 21.896026 39.764165999999996
34.342777 23.499064999999998 39.239065999999994
31.592003 22.881987 40.50839499999999
32.068554 24.470426999999997 39.892461999999995
33.950164 24.551862999999997 41.548131
33.493356999999996 22.953477999999997 42.146232
31.237592999999997 23.851056999999997 42.806966
31.681424 25.443938999999997 42.193659
33.089923999999996 23.987969999999997 44.505836
33.546802 25.574237999999998 43.881831
30.815731 24.870621999999997 45.113224
31.24937 26.450347999999998 44.458394999999996
32.655153999999996 25.070878999999998 46.819496
33.095577 26.645805999999997 46.157410999999996
30.361253999999995 25.959113 47.42828299999999
30.803351999999997 27.545623 46.75686399999999
31.647655999999998 26.920935999999998 48.192052
19.065683999999997 33.75881 38.651438
21.896026 33.796026 39.764165999999996
22.442777 35.39906499999999 39.239065999999994
19.692003 34.781987 40.50839499999999
20.168553999999997 36.370427 39.892461999999995
22.050164 36.451862999999996 41.548131
21.593356999999997 34.853477999999996 42.146232
19.337593 35.751057 42.806966
19.781423999999998 37.343939 42.193659
21.189923999999998 35.887969999999996 44.505836
21.646801999999997 37.474238 43.881831
18.915730999999997 36.770621999999996 45.113224
19.349369999999997 38.350348 44.458394999999996
20.755153999999997 36.970879 46.819496
21.195577 38.545806 46.157410999999996
18.461253999999997 37.859112999999994 47.42828299999999
18.903351999999998 39.445623 46.75686399999999
19.747656 38.820935999999996 48.192052
19.065683999999997 21.85881 38.651438
21.896026 21.896026 39.764165999999996
22.442777 23.499064999999998 39.239065999999994
19.692003 22.881987 40.50839499999999
20.168553999999997 24.470426999999997 39.892461999999995
22.050164 24.551862999999997 41.548131
21.593356999999997 22.953477999999997 42.146232
19.337593 23.851056999999997 42.806966
19.781423999999998 25.443938999999997 42.193659
21.189923999999998 23.987969999999997 44.505836
21.646801999999997 25.574237999999998 43.881831
18.915730999999997 24.870621999999997 45.113224
19.349369999999997 26.450347999999998 44.458394999999996
20.755153999999997 25.070878999999998 46.819496
21.195577 26.645805999999997 46.157410999999996
18.461253999999997 25.959113 47.42828299999999
18.903351999999998 27.545623 46.75686399999999
19.747656 26.920935999999998 48.192052
25.015683999999997 21.85881 38.651438
27.846026 21.896026 39.764165999999996
28.392776999999995 23.499064999999998 39.239065999999994
25.642003 22.881987 40.50839499999999
26.118553999999996 24.470426999999997 39.892461999999995
28.000163999999998 24.551862999999997 41.548131
27.543357 22.953477999999997 42.146232
25.287592999999998 23.851056999999997 42.806966
25.731423999999997 25.443938999999997 42.193659
27.139923999999997 23.987969999999997 44.505836
27.596801999999997 25.574237999999998 43.881831
24.865730999999997 24.870621999999997 45.113224
25.299369999999996 26.450347999999998 44.458394999999996
26.705153999999997 25.070878999999998 46.819496
27.145576999999996 26.645805999999997 46.157410999999996
24.411254 25.959113 47.42828299999999
24.853351999999997 27.545623 46.75686399999999
25.697656 26.920935999999998 48.192052
30.965683999999996 27.808809999999998 38.651438
33.796026 27.846026 39.764165999999996
34.342777 29.449064999999997 39.239065999999994
31.592003 28.831986999999998 40.50839499999999
32.068554 30.420426999999997 39.892461999999995
33.950164 30.501863 41.548131
33.493356999999996 28.903478 42.146232
31.237592999999997 29.801057 42.806966
31.681424 31.393938999999996 42.193659
33.089923999999996 29.93797 44.505836
33.546802 31.524237999999997 43.881831
30.815731 30.820622 45.113224
31.24937 32.400347999999994 44.458394999999996
32.655153999999996 31.020878999999997 46.819496
33.095577 32.595805999999996 46.157410999999996
30.361253999999995 31.909112999999998 47.42828299999999
30.803351999999997 33.495622999999995 46.75686399999999
31.647655999999998 32.870936 48.192052
30.965683999999996 33.75881 38.651438
33.796026 33.796026 39.764165999999996
34.342777 35.39906499999999 39.239065999999994
31.592003 34.781987 40.50839499999999
32.068554 36.370427 39.892461999999995
33.950164 36.451862999999996 41.548131
33.493356999999996 34.853477999999996 42.146232
31.237592999999997 35.751057 42.806966
31.681424 37.343939 42.193659
33.089923999999996 35.887969999999996 44.505836
33.546802 37.474238 43.881831
30.815731 36.770621999999996 45.113224
31.24937 38.350348 44.458394999999996
32.655153999999996 36.970879 46.819496
33.095577 38.545806 46.157410999999996
30.361253999999995 37.859112999999994 47.42828299999999
30.803351999999997 39.445623 46.75686399999999
31.647655999999998 38.820935999999996 48.192052
30.676367999999997 27.808809999999998 17.040613999999998
27.846026 27.846026 15.927885999999997
27.299274999999998 29.449064999999997 16.452985999999996
30.050048999999998 28.831986999999998 15.183656999999997
29.573497999999997 30.420426999999997 15.799589999999998
27.691888 30.501863 14.143920999999999
28.148694999999996 28.903478 13.545819999999997
30.404458999999996 29.801057 12.885085999999998
29.960628 31.393938999999996 13.498392999999997
28.552127999999996 29.93797 11.186215999999998
28.09525 31.524237999999997 11.810220999999999
30.826321 30.820622 10.578827999999998
30.392681999999997 32.400347999999994 11.233656999999997
28.986897999999997 31.020878999999997 8.872555999999998
28.546474999999997 32.595805999999996 9.534640999999997
31.280797999999997 31.909112999999998 8.263768999999998
30.838699999999996 33.495622999999995 8.935187999999998
29.994396 32.870936 7.499999999999998
24.726367999999997 33.75881 17.040613999999998
21.896026 33.796026 15.927885999999997
21.349275 35.39906499999999 16.452985999999996
24.100049 34.781987 15.183656999999997
23.623497999999998 36.370427 15.799589999999998
21.741887999999996 36.451862999999996 14.143920999999999
22.198694999999997 34.853477999999996 13.545819999999997
24.454458999999996 35.751057 12.885085999999998
24.010627999999997 37.343939 13.498392999999997
22.602127999999997 35.887969999999996 11.186215999999998
22.145249999999997 37.474238 11.810220999999999
24.876320999999997 36.770621999999996 10.578827999999998
24.442681999999998 38.350348 11.233656999999997
23.036897999999997 36.970879 8.872555999999998
22.596474999999998 38.545806 9.534640999999997
25.330797999999998 37.859112999999994 8.263768999999998
24.888699999999996 39.445623 8.935187999999998
24.044396 38.820935999999996 7.499999999999998
24.726367999999997 21.85881 17.040613999999998
21.896026 21.896026 15.927885999999997
21.349275 23.499064999999998 16.452985999999996
24.100049 22.881987 15.183656999999997
23.623497999999998 24.470426999999997 15.799589999999998
21.741887999999996 24.551862999999997 14.143920999999999
22.198694999999997 22.953477999999997 13.545819999999997
24.454458999999996 23.851056999999997 12.885085999999998
24.010627999999997 25.443938999999997 13.498392999999997
22.602127999999997 23.987969999999997 11.186215999999998
22.145249999999997 25.574237999999998 11.810220999999999
24.876320999999997 24.870621999999997 10.578827999999998
24.442681999999998 26.450347999999998 11.233656999999997
23.036897999999997 25.070878999999998 8.872555999999998
22.596474999999998 26.645805999999997 9.534640999999997
25.330797999999998 25.959113 8.263768999999998
24.888699999999996 27.545623 8.935187999999998
24.044396 26.920935999999998 7.499999999999998
36.626368 27.808809999999998 17.040613999999998
33.796026 27.846026 15.927885999999997
33.249275 29.449064999999997 16.452985999999996
36.000049 28.831986999999998 15.183656999999997
35.523498 30.420426999999997 15.799589999999998
33.641887999999994 30.501863 14.143920999999999
34.098695 28.903478 13.545819999999997
36.354459 29.801057 12.885085999999998
35.910628 31.393938999999996 13.498392999999997
34.502128 29.93797 11.186215999999998
34.045249999999996 31.524237999999997 11.810220999999999
36.776320999999996 30.820622 10.578827999999998
36.342681999999996 32.400347999999994 11.233656999999997
34.936898 31.020878999999997 8.872555999999998
34.496475 32.595805999999996 9.534640999999997
37.23079799999999 31.909112999999998 8.263768999999998
36.7887 33.495622999999995 8.935187999999998
35.944396 32.870936 7.499999999999998
24.726367999999997 27.808809999999998 17.040613999999998
21.896026 27.846026 15.927885999999997
21.349275 29.449064999999997 16.452985999999996
24.100049 28.831986999999998 15.183656999999997
23.623497999999998 30.420426999999997 15.799589999999998
21.741887999999996 30.501863 14.143920999999999
22.198694999999997 28.903478 13.545819999999997
24.454458999999996 29.801057 12.885085999999998
24.010627999999997 31.393938999999996 13.498392999999997
22.602127999999997 29.93797 11.186215999999998
22.145249999999997 31.524237999999997 11.810220999999999
24.876320999999997 30.820622 10.578827999999998
24.442681999999998 32.400347999999994 11.233656999999997
23.036897999999997 31.020878999999997 8.872555999999998
22.596474999999998 32.595805999999996 9.534640999999997
25.330797999999998 31.909112999999998 8.263768999999998
24.888699999999996 33.495622999999995 8.935187999999998
24.044396 32.870936 7.499999999999998
30.676367999999997 33.75881 17.040613999999998
27.846026 33.796026 15.927885999999997
27.299274999999998 35.39906499999999 16.452985999999996
30.050048999999998 34.781987 15.183656999999997
29.573497999999997 36.370427 15.799589999999998
27.691888 36.451862999999996 14.143920999999999
28.148694999999996 34.853477999999996 13.545819999999997
30.404458999999996 35.751057 12.885085999999998
29.960628 37.343939 13.498392999999997
28.552127999999996 35.887969999999996 11.186215999999998
28.09525 37.474238 11.810220999999999
30.826321 36.770621999999996 10.578827999999998
30.392681999999997 38.350348 11.233656999999997
28.986897999999997 36.970879 8.872555999999998
28.546474999999997 38.545806 9.534640999999997
31.280797999999997 37.859112999999994 8.263768999999998
30.838699999999996 39.445623 8.935187999999998
29.994396 38.820935999999996 7.499999999999998
17.040613999999998 27.808809999999998 25.015683999999997
15.927885999999997 27.846026 27.846026