3_train/181_cspbbr3_MA-OP_3_0.20\181_cspbbr3_MA-OP_3_0.20.xyz
1.0
55.692052 0 0
0 55.692052 0
0 0 55.692052
Br C Cs H N O P Pb 
96 107 43 282 11 36 12 27 
Cartesian
21.896026 18.921025999999998 21.896026
18.921025999999998 21.896026 21.896026
21.896026 21.896026 24.871025999999997
21.896026 18.921025999999998 27.846026
18.921025999999998 21.896026 27.846026
21.896026 21.896026 30.821025999999996
21.896026 18.921025999999998 33.796026
21.896026 27.846026 18.921025999999998
21.896026 24.871025999999997 21.896026
21.896026 27.846026 24.871025999999997
21.896026 24.871025999999997 27.846026
18.921025999999998 27.846026 27.846026
21.896026 27.846026 30.821025999999996
21.896026 24.871025999999997 33.796026
18.921025999999998 27.846026 33.796026
21.896026 27.846026 36.771026
21.896026 33.796026 18.921025999999998
21.896026 30.821025999999996 21.896026
18.921025999999998 33.796026 21.896026
21.896026 33.796026 24.871025999999997
21.896026 30.821025999999996 27.846026
18.921025999999998 33.796026 27.846026
21.896026 33.796026 30.821025999999996
21.896026 30.821025999999996 33.796026
18.921025999999998 33.796026 33.796026
21.896026 33.796026 36.771026
21.896026 36.771026 21.896026
21.896026 36.771026 27.846026
21.896026 36.771026 33.796026
27.846026 21.896026 18.921025999999998
24.871025999999997 21.896026 21.896026
27.846026 21.896026 24.871025999999997
24.871025999999997 21.896026 27.846026
27.846026 21.896026 30.821025999999996
27.846026 18.921025999999998 33.796026
24.871025999999997 21.896026 33.796026
27.846026 21.896026 36.771026
27.846026 27.846026 18.921025999999998
27.846026 24.871025999999997 21.896026
24.871025999999997 27.846026 21.896026
27.846026 27.846026 24.871025999999997
27.846026 24.871025999999997 27.846026
24.871025999999997 27.846026 27.846026
27.846026 27.846026 30.821025999999996
27.846026 24.871025999999997 33.796026
24.871025999999997 27.846026 33.796026
27.846026 27.846026 36.771026
27.846026 30.821025999999996 21.896026
24.871025999999997 33.796026 21.896026
27.846026 33.796026 24.871025999999997
27.846026 30.821025999999996 27.846026
24.871025999999997 33.796026 27.846026
27.846026 33.796026 30.821025999999996
27.846026 30.821025999999996 33.796026
24.871025999999997 33.796026 33.796026
27.846026 33.796026 36.771026
27.846026 36.771026 21.896026
27.846026 36.771026 27.846026
33.796026 21.896026 18.921025999999998
33.796026 18.921025999999998 21.896026
30.821025999999996 21.896026 21.896026
33.796026 21.896026 24.871025999999997
33.796026 18.921025999999998 27.846026
30.821025999999996 21.896026 27.846026
33.796026 21.896026 30.821025999999996
33.796026 18.921025999999998 33.796026
30.821025999999996 21.896026 33.796026
33.796026 21.896026 36.771026
33.796026 27.846026 18.921025999999998
33.796026 24.871025999999997 21.896026
30.821025999999996 27.846026 21.896026
33.796026 27.846026 24.871025999999997
33.796026 24.871025999999997 27.846026
30.821025999999996 27.846026 27.846026
33.796026 27.846026 30.821025999999996
33.796026 24.871025999999997 33.796026
30.821025999999996 27.846026 33.796026
33.796026 27.846026 36.771026
33.796026 33.796026 18.921025999999998
33.796026 30.821025999999996 21.896026
30.821025999999996 33.796026 21.896026
33.796026 33.796026 24.871025999999997
33.796026 30.821025999999996 27.846026
30.821025999999996 33.796026 27.846026
33.796026 33.796026 30.821025999999996
33.796026 30.821025999999996 33.796026
30.821025999999996 33.796026 33.796026
33.796026 36.771026 21.896026
33.796026 36.771026 27.846026
36.771026 21.896026 21.896026
36.771026 21.896026 27.846026
36.771026 21.896026 33.796026
36.771026 27.846026 27.846026
36.771026 27.846026 33.796026
36.771026 33.796026 21.896026
36.771026 33.796026 33.796026
21.549668999999998 22.870106 39.375969999999995
20.56292 23.544258 40.342203999999995
21.188813999999997 23.877463 41.698915
20.194625 24.531412999999997 42.659685999999994
20.786206999999997 24.895307999999996 44.022529999999996
19.768988999999998 25.556068999999997 44.954769
20.341828 25.962396 46.31398299999999
19.311448 26.633188999999998 47.225493
33.449669 34.770106 39.375969999999995
32.46292 35.444258 40.342203999999995
33.088814 35.777463 41.698915
32.09462499999999 36.431413 42.659685999999994
32.686206999999996 36.795308 44.022529999999996
31.668988999999996 37.456069 44.954769
32.241828 37.862396 46.31398299999999
31.211447999999997 38.53318899999999 47.225493
22.242382999999997 22.870106 16.316081999999998
23.229132 23.544258 15.349847999999998
22.603237999999997 23.877463 13.993136999999997
23.597426999999996 24.531412999999997 13.032365999999998
23.005844999999997 24.895307999999996 11.669521999999997
24.023062999999997 25.556068999999997 10.737282999999998
23.450224 25.962396 9.378068999999998
24.480604 26.633188999999998 8.466558999999998
28.192383 34.770106 16.316081999999998
29.179131999999996 35.444258 15.349847999999998
28.553238 35.777463 13.993136999999997
29.547427 36.431413 13.032365999999998
28.955844999999997 36.795308 11.669521999999997
29.973062999999996 37.456069 10.737282999999998
29.400223999999998 37.862396 9.378068999999998
30.430603999999995 38.53318899999999 8.466558999999998
16.316081999999998 28.820105999999996 21.549668999999998
15.349847999999998 29.494258 20.56292
13.993136999999997 29.827462999999998 21.188813999999997
13.032365999999998 30.481412999999996 20.194625
11.669521999999997 30.845307999999996 20.786206999999997
10.737282999999998 31.506068999999997 19.768988999999998
9.378068999999998 31.912395999999998 20.341828
8.466558999999998 32.583189 19.311448
16.316081999999998 22.870106 33.449669
15.349847999999998 23.544258 32.46292
13.993136999999997 23.877463 33.088814
13.032365999999998 24.531412999999997 32.09462499999999
11.669521999999997 24.895307999999996 32.686206999999996
10.737282999999998 25.556068999999997 31.668988999999996
9.378068999999998 25.962396 32.241828
8.466558999999998 26.633188999999998 31.211447999999997
39.375969999999995 28.820105999999996 22.242382999999997
40.342203999999995 29.494258 23.229132
41.698915 29.827462999999998 22.603237999999997
42.659685999999994 30.481412999999996 23.597426999999996
44.022529999999996 30.845307999999996 23.005844999999997
44.954769 31.506068999999997 24.023062999999997
46.31398299999999 31.912395999999998 23.450224
47.225493 32.583189 24.480604
39.375969999999995 34.770106 28.192383
40.342203999999995 35.444258 29.179131999999996
41.698915 35.777463 28.553238
42.659685999999994 36.431413 29.547427
44.022529999999996 36.795308 28.955844999999997
44.954769 37.456069 29.973062999999996
46.31398299999999 37.862396 29.400223999999998
47.225493 38.53318899999999 30.430603999999995
27.499668999999997 16.316081999999998 28.820105999999996
26.512919999999998 15.349847999999998 29.494258
27.138813999999996 13.993136999999997 29.827462999999998
26.144624999999998 13.032365999999998 30.481412999999996
26.736206999999997 11.669521999999997 30.845307999999996
25.718988999999997 10.737282999999998 31.506068999999997
26.291828 9.378068999999998 31.912395999999998
25.261447999999998 8.466558999999998 32.583189
27.499668999999997 16.316081999999998 22.870106
26.512919999999998 15.349847999999998 23.544258
27.138813999999996 13.993136999999997 23.877463
26.144624999999998 13.032365999999998 24.531412999999997
26.736206999999997 11.669521999999997 24.895307999999996
25.718988999999997 10.737282999999998 25.556068999999997
26.291828 9.378068999999998 25.962396
25.261447999999998 8.466558999999998 26.633188999999998
27.499668999999997 39.375969999999995 32.821946
26.512919999999998 40.342203999999995 32.147794
27.138813999999996 41.698915 31.814588999999998
26.144624999999998 42.659685999999994 31.160638999999996
26.736206999999997 44.022529999999996 30.796743999999997
25.718988999999997 44.954769 30.135982999999996
26.291828 46.31398299999999 29.729656
25.261447999999998 47.225493 29.058862999999995
33.449669 39.375969999999995 32.821946
32.46292 40.342203999999995 32.147794
33.088814 41.698915 31.814588999999998
32.09462499999999 42.659685999999994 31.160638999999996
32.686206999999996 44.022529999999996 30.796743999999997
31.668988999999996 44.954769 30.135982999999996
32.241828 46.31398299999999 29.729656
31.211447999999997 47.225493 29.058862999999995
17.445365 24.871025999999997 30.821025999999996
17.877575999999998 24.871025999999997 37.814476
24.871025999999997 17.445365 24.871025999999997
24.871025999999997 17.445365 30.821025999999996
24.871025999999997 24.871025999999997 17.445365
24.871025999999997 38.246686999999994 30.821025999999996
30.821025999999996 37.814476 17.877575999999998
30.821025999999996 38.246686999999994 30.821025999999996
30.821025999999996 37.814476 37.814476
38.246686999999994 30.821025999999996 24.871025999999997
37.814476 37.814476 30.821025999999996
18.921025999999998 18.921025999999998 24.871025999999997
18.921025999999998 18.921025999999998 30.821025999999996
18.921025999999998 24.871025999999997 18.921025999999998
18.921025999999998 24.871025999999997 24.871025999999997
18.921025999999998 30.821025999999996 24.871025999999997
18.921025999999998 30.821025999999996 30.821025999999996
18.921025999999998 30.821025999999996 36.771026
18.921025999999998 36.771026 24.871025999999997
18.921025999999998 36.771026 30.821025999999996
24.871025999999997 18.921025999999998 18.921025999999998
24.871025999999997 18.921025999999998 36.771026
24.871025999999997 24.871025999999997 24.871025999999997
24.871025999999997 24.871025999999997 30.821025999999996
24.871025999999997 24.871025999999997 36.771026
24.871025999999997 30.821025999999996 18.921025999999998
24.871025999999997 30.821025999999996 24.871025999999997
24.871025999999997 30.821025999999996 30.821025999999996
24.871025999999997 30.821025999999996 36.771026
24.871025999999997 36.771026 18.921025999999998
24.871025999999997 36.771026 24.871025999999997
24.871025999999997 36.771026 36.771026
30.821025999999996 18.921025999999998 18.921025999999998
30.821025999999996 18.921025999999998 24.871025999999997
30.821025999999996 18.921025999999998 30.821025999999996
30.821025999999996 18.921025999999998 36.771026
30.821025999999996 24.871025999999997 18.921025999999998
30.821025999999996 24.871025999999997 24.871025999999997
30.821025999999996 24.871025999999997 30.821025999999996
30.821025999999996 24.871025999999997 36.771026
30.821025999999996 30.821025999999996 18.921025999999998
30.821025999999996 30.821025999999996 24.871025999999997
30.821025999999996 30.821025999999996 30.821025999999996
30.821025999999996 30.821025999999996 36.771026
30.821025999999996 36.771026 24.871025999999997
36.771026 18.921025999999998 24.871025999999997
36.771026 18.921025999999998 30.821025999999996
36.771026 24.871025999999997 24.871025999999997
36.771026 24.871025999999997 30.821025999999996
36.771026 24.871025999999997 36.771026
36.771026 30.821025999999996 18.921025999999998
36.771026 30.821025999999996 30.821025999999996
36.771026 30.821025999999996 36.771026
36.771026 36.771026 24.871025999999997
19.065683999999997 21.85881 38.651438
21.896026 21.896026 39.764165999999996
22.442777 23.499064999999998 39.239065999999994
19.692003 22.881987 40.50839499999999
20.168553999999997 24.470426999999997 39.892461999999995
22.050164 24.551862999999997 41.548131
21.593356999999997 22.953477999999997 42.146232
19.337593 23.851056999999997 42.806966
19.781423999999998 25.443938999999997 42.193659
21.189923999999998 23.987969999999997 44.505836
21.646801999999997 25.574237999999998 43.881831
18.915730999999997 24.870621999999997 45.113224
19.349369999999997 26.450347999999998 44.458394999999996
20.755153999999997 25.070878999999998 46.819496
21.195577 26.645805999999997 46.157410999999996
18.461253999999997 25.959113 47.42828299999999
18.903351999999998 27.545623 46.75686399999999
19.747656 26.920935999999998 48.192052
30.965683999999996 33.75881 38.651438
33.796026 33.796026 39.764165999999996
34.342777 35.39906499999999 39.239065999999994
31.592003 34.781987 40.50839499999999
32.068554 36.370427 39.892461999999995
33.950164 36.451862999999996 41.548131
33.493356999999996 34.853477999999996 42.146232
31.237592999999997 35.751057 42.806966
31.681424 37.343939 42.193659
33.089923999999996 35.887969999999996 44.505836
33.546802 37.474238 43.881831
30.815731 36.770621999999996 45.113224
31.24937 38.350348 44.458394999999996
32.655153999999996 36.970879 46.819496
33.095577 38.545806 46.157410999999996
30.361253999999995 37.859112999999994 47.42828299999999
30.803351999999997 39.445623 46.75686399999999
31.647655999999998 38.820935999999996 48.192052
24.726367999999997 21.85881 17.040613999999998
21.896026 21.896026 15.927885999999997
21.349275 23.499064999999998 16.452985999999996
24.100049 22.881987 15.183656999999997
23.623497999999998 24.470426999999997 15.799589999999998
21.741887999999996 24.551862999999997 14.143920999999999
22.198694999999997 22.953477999999997 13.545819999999997
24.454458999999996 23.851056999999997 12.885085999999998
24.010627999999997 25.443938999999997 13.498392999999997
22.602127999999997 23.987969999999997 11.186215999999998
22.145249999999997 25.574237999999998 11.810220999999999
24.876320999999997 24.870621999999997 10.578827999999998
24.442681999999998 26.450347999999998 11.233656999999997
23.036897999999997 25.070878999999998 8.872555999999998
22.596474999999998 26.645805999999997 9.534640999999997
25.330797999999998 25.959113 8.263768999999998
24.888699999999996 27.545623 8.935187999999998
24.044396 26.920935999999998 7.499999999999998
30.676367999999997 33.75881 17.040613999999998
27.846026 33.796026 15.927885999999997
27.299274999999998 35.39906499999999 16.452985999999996
30.050048999999998 34.781987 15.183656999999997
29.573497999999997 36.370427 15.799589999999998
27.691888 36.451862999999996 14.143920999999999
28.148694999999996 34.853477999999996 13.545819999999997
30.404458999999996 35.751057 12.885085999999998
29.960628 37.343939 13.498392999999997
28.552127999999996 35.887969999999996 11.186215999999998
28.09525 37.474238 11.810220999999999
30.826321 36.770621999999996 10.578827999999998
30.392681999999997 38.350348 11.233656999999997
28.986897999999997 36.970879 8.872555999999998
28.546474999999997 38.545806 9.534640999999997
31.280797999999997 37.859112999999994 8.263768999999998
30.838699999999996 39.445623 8.935187999999998
29.994396 38.820935999999996 7.499999999999998
17.040613999999998 27.808809999999998 19.065683999999997
15.927885999999997 27.846026 21.896026
16.452985999999996 29.449064999999997 22.442777
15.183656999999997 28.831986999999998 19.692003
15.799589999999998 30.420426999999997 20.168553999999997
14.143920999999999 30.501863 22.050164
13.545819999999997 28.903478 21.593356999999997
12.885085999999998 29.801057 19.337593
13.498392999999997 31.393938999999996 19.781423999999998
11.186215999999998 29.93797 21.189923999999998
11.810220999999999 31.524237999999997 21.646801999999997
10.578827999999998 30.820622 18.915730999999997
11.233656999999997 32.400347999999994 19.349369999999997
8.872555999999998 31.020878999999997 20.755153999999997
9.534640999999997 32.595805999999996 21.195577
8.263768999999998 31.909112999999998 18.461253999999997
8.935187999999998 33.495622999999995 18.903351999999998
7.499999999999998 32.870936 19.747656
17.040613999999998 21.85881 30.965683999999996
15.927885999999997 21.896026 33.796026
16.452985999999996 23.499064999999998 34.342777
15.183656999999997 22.881987 31.592003
15.799589999999998 24.470426999999997 32.068554
14.143920999999999 24.551862999999997 33.950164
13.545819999999997 22.953477999999997 33.493356999999996
12.885085999999998 23.851056999999997 31.237592999999997
13.498392999999997 25.443938999999997 31.681424
11.186215999999998 23.987969999999997 33.089923999999996
11.810220999999999 25.574237999999998 33.546802
10.578827999999998 24.870621999999997 30.815731
11.233656999999997 26.450347999999998 31.24937
8.872555999999998 25.070878999999998 32.655153999999996
9.534640999999997 26.645805999999997 33.095577
8.263768999999998 25.959113 30.361253999999995
8.935187999999998 27.545623 30.803351999999997
7.499999999999998 26.920935999999998 31.647655999999998
38.651438 27.808809999999998 24.726367999999997
39.764165999999996 27.846026 21.896026
39.239065999999994 29.449064999999997 21.349275
40.50839499999999 28.831986999999998 24.100049
39.892461999999995 30.420426999999997 23.623497999999998
41.548131 30.501863 21.741887999999996
42.146232 28.903478 22.198694999999997
42.806966 29.801057 24.454458999999996
42.193659 31.393938999999996 24.010627999999997
44.505836 29.93797 22.602127999999997
43.881831 31.524237999999997 22.145249999999997
45.113224 30.820622 24.876320999999997
44.458394999999996 32.400347999999994 24.442681999999998
46.819496 31.020878999999997 23.036897999999997
46.157410999999996 32.595805999999996 22.596474999999998
47.42828299999999 31.909112999999998 25.330797999999998
46.75686399999999 33.495622999999995 24.888699999999996
48.192052 32.870936 24.044396
38.651438 33.75881 30.676367999999997
39.764165999999996 33.796026 27.846026
39.239065999999994 35.39906499999999 27.299274999999998
40.50839499999999 34.781987 30.050048999999998
39.892461999999995 36.370427 29.573497999999997
41.548131 36.451862999999996 27.691888
42.146232 34.853477999999996 28.148694999999996
42.806966 35.751057 30.404458999999996
42.193659 37.343939 29.960628
44.505836 35.887969999999996 28.552127999999996
43.881831 37.474238 28.09525
45.113224 36.770621999999996 30.826321
44.458394999999996 38.350348 30.392681999999997
46.819496 36.970879 28.986897999999997
46.157410999999996 38.545806 28.546474999999997
47.42828299999999 37.859112999999994 31.280797999999997
46.75686399999999 39.445623 30.838699999999996
48.192052 38.820935999999996 29.994396
25.015683999999997 17.040613999999998 27.808809999999998
27.846026 15.927885999999997 27.846026
28.392776999999995 16.452985999999996 29.449064999999997
25.642003 15.183656999999997 28.831986999999998
26.118553999999996 15.799589999999998 30.420426999999997
28.000163999999998 14.143920999999999 30.501863
27.543357 13.545819999999997 28.903478
25.287592999999998 12.885085999999998 29.801057
25.731423999999997 13.498392999999997 31.393938999999996
27.139923999999997 11.186215999999998 29.93797
27.596801999999997 11.810220999999999 31.524237999999997
24.865730999999997 10.578827999999998 30.820622
25.299369999999996 11.233656999999997 32.400347999999994
26.705153999999997 8.872555999999998 31.020878999999997
27.145576999999996 9.534640999999997 32.595805999999996
24.411254 8.263768999999998 31.909112999999998
24.853351999999997 8.935187999999998 33.495622999999995
25.697656 7.499999999999998 32.870936
25.015683999999997 17.040613999999998 21.85881
27.846026 15.927885999999997 21.896026
28.392776999999995 16.452985999999996 23.499064999999998
25.642003 15.183656999999997 22.881987
26.118553999999996 15.799589999999998 24.470426999999997
28.000163999999998 14.143920999999999 24.551862999999997
27.543357 13.545819999999997 22.953477999999997
25.287592999999998 12.885085999999998 23.851056999999997
25.731423999999997 13.498392999999997 25.443938999999997
27.139923999999997 11.186215999999998 23.987969999999997
27.596801999999997 11.810220999999999 25.574237999999998
24.865730999999997 10.578827999999998 24.870621999999997
25.299369999999996 11.233656999999997 26.450347999999998
26.705153999999997 8.872555999999998 25.070878999999998
27.145576999999996 9.534640999999997 26.645805999999997
24.411254 8.263768999999998 25.959113
24.853351999999997 8.935187999999998 27.545623
25.697656 7.499999999999998 26.920935999999998
25.015683999999997 38.651438 33.833242
27.846026 39.764165999999996 33.796026
28.392776999999995 39.239065999999994 32.192986999999995
25.642003 40.50839499999999 32.810064999999994
26.118553999999996 39.892461999999995 31.221624999999996
28.000163999999998 41.548131 31.140189
27.543357 42.146232 32.738574
25.287592999999998 42.806966 31.840995
25.731423999999997 42.193659 30.248112999999996
27.139923999999997 44.505836 31.704082
27.596801999999997 43.881831 30.117813999999996
24.865730999999997 45.113224 30.82143
25.299369999999996 44.458394999999996 29.241704
26.705153999999997 46.819496 30.621173
27.145576999999996 46.157410999999996 29.046245999999996
24.411254 47.42828299999999 29.732939
24.853351999999997 46.75686399999999 28.146428999999998
25.697656 48.192052 28.771116
30.965683999999996 38.651438 33.833242
33.796026 39.764165999999996 33.796026
34.342777 39.239065999999994 32.192986999999995
31.592003 40.50839499999999 32.810064999999994
32.068554 39.892461999999995 31.221624999999996
33.950164 41.548131 31.140189
33.493356999999996 42.146232 32.738574
31.237592999999997 42.806966 31.840995
31.681424 42.193659 30.248112999999996
33.089923999999996 44.505836 31.704082
33.546802 43.881831 30.117813999999996
30.815731 45.113224 30.82143
31.24937 44.458394999999996 29.241704
32.655153999999996 46.819496 30.621173
33.095577 46.157410999999996 29.046245999999996
30.361253999999995 47.42828299999999 29.732939
30.803351999999997 46.75686399999999 28.146428999999998
31.647655999999998 48.192052 28.771116
17.111444 23.852237 31.026438999999996
17.111444 25.558313 31.600615999999995
17.111444 25.202526999999996 29.836022999999997
19.295768 25.809946999999998 30.631715999999997
19.295768 24.237617999999998 30.102551999999996
19.295768 24.565512999999996 31.728809999999996
17.055657999999998 25.498561 37.464793
17.550072999999998 23.839802 37.959208
18.318644 25.274714999999997 38.727779
19.725885999999996 24.292686999999997 37.045919999999995
19.270229999999998 25.821406999999997 36.590264
18.561911 24.498983999999997 35.881946
25.768876 17.111444 25.394465999999998
23.968787999999996 17.111444 25.386867
24.875414 17.111444 23.831744999999998
24.043563 19.295768 24.388619999999996
25.702533 19.295768 24.395623999999998
24.866981999999997 19.295768 25.828832999999996
24.676097999999996 17.111444 31.841873
24.084410999999996 17.111444 30.14179
25.852568999999995 17.111444 30.479415999999997
25.050672999999996 19.295768 29.880207999999996
25.595974 19.295768 31.447013999999996
23.966430999999996 19.295768 31.135855999999997
25.782914999999996 25.369608 17.111444
24.846866999999996 23.832015999999996 17.111444
23.983296999999997 25.411454 17.111444
24.030624999999997 24.41153 19.295768
24.893292 25.828583 19.295768
25.689161999999996 24.372964999999997 19.295768
24.829763999999997 38.580608 31.859496999999998
25.790999 38.580608 30.337524
23.992313999999997 38.580608 30.266056999999996
24.909052999999997 36.396283999999994 29.863965999999998
24.023173999999997 36.396283999999994 31.266624
25.680850999999997 36.396283999999994 31.332487999999998
31.512622999999998 37.502041 17.092906
29.803390999999998 37.901354999999995 17.492219999999996
31.147064 38.748384 18.339249
30.183646999999997 37.01159199999999 19.691556999999996
31.758884 36.643581999999995 19.323548
30.520546999999997 35.862956 18.542921
31.724140999999996 38.580608 30.306721999999997
29.924068 38.580608 30.296057999999995
30.814868999999998 38.580608 31.860298
29.988711 36.396283999999994 31.295010999999995
31.647667 36.396283999999994 31.304838999999998
30.826699999999995 36.396283999999994 29.863227
29.911440999999996 38.406107 37.69508
30.840404999999997 37.315832 38.785354999999996
31.711231999999995 38.429841999999994 37.671346
31.659304 36.178399999999996 36.833686
30.803165999999997 37.183203 35.828883
30.000608 36.156526 36.85556
38.580608 29.975060999999997 25.474739
38.580608 30.721178 23.836543
38.580608 31.766838999999997 25.301796999999997
36.396283999999994 31.600671999999996 24.314642
36.396283999999994 30.913045999999998 25.824410999999998
36.396283999999994 29.94936 24.474024999999997
37.461065 38.640122 31.441539999999996
38.725342999999995 37.375844 31.232789999999998
37.965372 38.135816 29.788746999999997
37.049355 35.962731 30.249156
35.88419 37.12789599999999 30.441542
36.58458399999999 36.427502 31.772378999999997
18.921025999999998 24.871025999999997 30.821025999999996
18.921025999999998 24.871025999999997 36.771026
24.871025999999997 18.921025999999998 24.871025999999997
24.871025999999997 18.921025999999998 30.821025999999996
24.871025999999997 24.871025999999997 18.921025999999998
24.871025999999997 36.771026 30.821025999999996
30.821025999999996 36.771026 18.921025999999998
30.821025999999996 36.771026 30.821025999999996
30.821025999999996 36.771026 36.771026
36.771026 30.821025999999996 24.871025999999997
36.771026 36.771026 30.821025999999996
20.603914999999997 23.908001999999996 36.975982
19.606139999999996 21.660286999999997 37.864188999999996
21.896026 21.896026 36.771026
32.503915 35.808002 36.975982
31.50614 33.560286999999995 37.864188999999996
33.796026 33.796026 36.771026
23.188136999999998 23.908001999999996 18.71607
24.185912 21.660286999999997 17.827862999999997
21.896026 21.896026 18.921025999999998
29.138136999999997 35.808002 18.71607
30.135911999999998 33.560286999999995 17.827862999999997
27.846026 33.796026 18.921025999999998
18.71607 29.858002 20.603914999999997
17.827862999999997 27.610287 19.606139999999996
18.921025999999998 27.846026 21.896026
18.71607 23.908001999999996 32.503915
17.827862999999997 21.660286999999997 31.50614
18.921025999999998 21.896026 33.796026
36.975982 29.858002 23.188136999999998
37.864188999999996 27.610287 24.185912
36.771026 27.846026 21.896026
36.975982 35.808002 29.138136999999997
37.864188999999996 33.560286999999995 30.135911999999998
36.771026 33.796026 27.846026
26.553914999999996 18.71607 29.858002
25.55614 17.827862999999997 27.610287
27.846026 18.921025999999998 27.846026
26.553914999999996 18.71607 23.908001999999996
25.55614 17.827862999999997 21.660286999999997
27.846026 18.921025999999998 21.896026
26.553914999999996 36.975982 31.784049999999997
25.55614 37.864188999999996 34.031765
27.846026 36.771026 33.796026
32.503915 36.975982 31.784049999999997
31.50614 37.864188999999996 34.031765
33.796026 36.771026 33.796026
20.90889 22.594694999999998 37.704302
32.80889 34.494695 37.704302
22.883162 22.594694999999998 17.98775
28.833161999999998 34.494695 17.98775
17.98775 28.544694999999997 20.90889
17.98775 22.594694999999998 32.80889
37.704302 28.544694999999997 22.883162
37.704302 34.494695 28.833161999999998
26.85889 17.98775 28.544694999999997
26.85889 17.98775 22.594694999999998
26.85889 37.704302 33.097356999999995
32.80889 37.704302 33.097356999999995
21.896026 21.896026 21.896026
21.896026 21.896026 27.846026
21.896026 21.896026 33.796026
21.896026 27.846026 21.896026
21.896026 27.846026 27.846026
21.896026 27.846026 33.796026
21.896026 33.796026 21.896026
21.896026 33.796026 27.846026
21.896026 33.796026 33.796026
27.846026 21.896026 21.896026
27.846026 21.896026 27.846026
27.846026 21.896026 33.796026
27.846026 27.846026 21.896026
27.846026 27.846026 27.846026
27.846026 27.846026 33.796026
27.846026 33.796026 21.896026
27.846026 33.796026 27.846026
27.846026 33.796026 33.796026
33.796026 21.896026 21.896026
33.796026 21.896026 27.846026
33.796026 21.896026 33.796026
33.796026 27.846026 21.896026
33.796026 27.846026 27.846026
33.796026 27.846026 33.796026
33.796026 33.796026 21.896026
33.796026 33.796026 27.846026
33.796026 33.796026 33.796026
