1_train/77_cspbbr3_methylammonium_4_0.40\77_cspbbr3_methylammonium_4_0.40.xyz
1.0
47.859693 0 0
0 47.859693 0
0 0 47.859693
Br C Cs H N Pb 
240 34 78 204 34 64 
Cartesian
23.8615195 32.5850025 21.005286499999997
12.1952465 15.059799499999999 33.0505685
15.2023615 12.2424455 26.8294085
26.785534499999997 33.0156215 24.0169445
29.6697665 15.055185499999999 26.8138515
26.785402499999996 29.710410500000002 27.0991285
32.7377015 11.8667035 26.7451085
23.8116505 32.9861435 26.7740235
15.1656235 11.8898485 32.9756545
26.881730499999996 33.0264395 29.9661925
26.6881055 29.7522465 32.7364575
23.9733825 32.7492685 32.6827855
27.0924305 32.9799235 35.74247449999999
33.0173105 14.823978499999999 23.9319755
26.8037735 35.9956925 21.0429095
26.8675555 35.648780499999994 27.1263735
26.9320035 30.0683315 20.825064499999996
26.891302500000002 35.9428955 32.5839165
15.093657499999999 14.849045499999999 30.087503499999997
32.9087805 15.2005495 11.9060185
32.7861085 11.8795415 15.079682499999999
29.936237499999997 15.0824955 15.1655385
11.8727205 15.0383145 27.1330575
32.7202625 14.908951499999999 18.137736500000003
32.8798455 11.8491445 20.916652499999998
29.819064500000003 15.2063595 20.9717325
26.8956515 35.6998625 15.1742675
27.064364499999996 33.0156905 17.7937085
15.1614755 26.677288499999996 29.9585165
33.0217475 15.1221515 29.890412499999996
26.948224500000002 18.0717905 15.1677735
24.1578995 21.052598500000002 15.0227445
15.0697685 21.155139499999997 18.147979499999998
26.684191499999997 21.0649885 18.0320975
26.962894499999997 17.696858499999998 20.943357499999998
23.696324499999996 21.0381255 21.110293499999997
26.679590499999996 20.895711499999997 24.0132945
26.7390445 17.763380499999997 26.994085499999997
24.1117865 21.073991499999998 26.9021275
27.120067499999998 21.119522500000002 29.9086925
27.0888395 18.0329525 32.7799245
23.9991225 21.1435385 32.9300125
27.0394425 20.790730500000002 35.8143765
11.8502415 21.051900500000002 14.956403499999999
26.9872255 26.7429045 12.0257425
27.016082499999996 23.768227500000002 15.1647285
23.708284499999998 27.077957499999997 15.0404955
27.019167500000002 29.7875485 15.1564175
26.8589165 33.1230015 11.9482805
26.972517500000002 26.721827499999996 35.7058685
24.0734165 26.9214835 32.9919965
26.8595835 23.8875885 32.6786255
27.075180500000002 26.758112499999996 29.9317615
14.8579945 15.0709115 35.6152185
24.0786675 26.7786355 26.7699275
26.875229499999996 26.643145499999996 23.910464499999996
15.0677215 20.712394500000002 12.1782615
23.997260499999996 27.0250505 21.1443545
26.812036499999998 23.891921500000002 21.158522499999997
26.8321445 26.702968499999997 17.918712499999998
15.213115499999999 18.0132625 14.8051175
27.0260095 23.796358499999997 26.871477499999997
24.0317035 32.9374895 15.1665315
29.7766455 15.0130025 32.6960685
26.715059499999995 20.9118475 11.8762765
32.9237725 32.9691335 17.810793500000003
32.9262835 29.631628499999998 20.889934499999995
29.8265295 32.7708225 21.118877499999996
15.1069135 12.1343765 14.894280499999999
32.6397425 32.7880885 24.067997499999997
32.6992325 29.8326875 26.6830985
29.7446465 32.8635005 27.084979499999996
14.9237465 15.1378495 11.889495499999999
32.7448735 32.6741765 29.8831445
32.740255499999996 30.039970500000003 32.7179605
29.9307315 32.661100499999996 32.9369825
32.7527255 33.0154255 35.6436545
32.8555365 36.0197775 21.1224055
32.7020405 35.7209865 26.897493499999996
32.8463095 35.962338499999994 33.0014165
35.641637499999995 15.1893555 15.1405075
35.767053499999996 15.1133085 20.754186499999996
36.00961349999999 33.0355415 32.937591499999996
35.812290499999996 33.0296985 26.798733499999997
35.6968955 32.6912245 21.102031499999995
35.850801499999996 32.5728355 15.0663125
35.6790095 26.932297499999997 32.9568445
35.9374515 27.0351985 26.7955555
12.0123575 15.203258499999999 14.9224525
35.657600499999994 27.027910499999997 21.004844499999997
35.695441499999994 20.8494315 32.9918865
35.8417075 21.1728205 27.025394499999997
35.9702925 20.7420805 20.7970975
35.9647605 21.039345499999996 14.8492915
35.7349195 14.8642735 32.9221735
35.9889965 14.9845425 27.0102305
35.956062499999994 26.880531499999996 14.8177505
32.9512195 11.8102035 32.9339425
29.6300885 32.9225175 14.8841795
32.8666905 32.7061925 11.9009465
33.0119165 14.9888935 35.6730185
14.9401135 14.8252115 23.7747635
32.5960755 21.0591505 12.0588675
32.8738705 17.7479845 15.0985985
29.716694500000003 20.9406105 15.2554505
32.7017455 20.8411125 17.788914499999997
32.7975605 18.122575499999996 21.055220499999997
29.685283499999997 20.859500499999996 21.148824499999996
32.7458285 21.1280145 24.1459155
32.8628025 18.184746499999996 26.8238245
30.046575500000003 20.769307499999996 26.972292500000002
11.8840475 15.1450515 20.808488499999996
33.0821285 20.976687499999997 30.059901500000002
32.6448695 17.903729499999997 32.6869135
29.986436499999996 21.171749499999997 33.0079615
32.8197475 20.958966499999995 35.5472185
14.8579345 12.1802235 20.8490075
33.0598045 26.9600905 35.987368499999995
29.773264499999996 27.107687499999997 32.6687205
32.8399195 23.716545500000002 32.8707475
32.7050795 27.0825075 29.9109385
29.812678499999997 27.053937499999996 26.7767385
33.0484755 23.807733499999998 26.9986915
32.9800155 29.840238499999998 14.8416485
32.7127295 26.8728605 24.0961275
32.9599895 23.7755095 21.045168499999996
32.8846025 27.080436499999998 18.1235985
14.9492935 14.8392685 17.886104500000002
29.796451499999996 26.7877505 14.7431555
32.8117055 24.1575165 14.9679085
32.6755925 26.7643725 11.9409225
30.0361605 26.7315245 20.815034499999996
15.1593555 17.966421500000003 21.201311499999996
32.7815945 36.0257595 15.1722005
26.778150499999995 15.1275365 35.8994175
21.177431499999997 11.9840875 33.0147035
18.0793245 14.9019555 32.6532245
20.7936275 15.181896499999999 35.8924665
21.0109735 21.168339500000002 12.2161755
21.104460500000002 17.910048500000002 15.1325085
18.079919500000003 20.8599065 14.7496895
12.190951499999999 26.9322685 14.8747375
21.148182499999997 21.0188475 17.7797825
20.817341499999998 17.7889975 21.0263665
17.8850915 20.783784499999996 21.126067499999998
15.2290045 23.856421499999996 14.9550045
20.9684175 20.9735935 24.1644285
21.049192499999997 17.9921485 26.6394345
17.789246499999997 20.9552475 26.7094905
20.799380499999998 14.8974195 29.958110499999997
15.1664975 26.924032499999996 12.203744499999999
20.8263525 17.8942625 33.051573499999996
17.932202500000002 20.778355499999996 32.661995499999996
20.7958365 20.901033499999997 36.0144695
21.091604499999995 26.7867465 12.0399415
21.0174455 23.9806325 15.2556795
17.8652535 27.012980499999998 15.1156905
14.7129785 21.002083499999998 35.8300115
20.8499915 26.7706485 18.0861935
21.1462645 24.151104499999995 20.9357775
18.1213045 26.918536500000002 21.153642499999997
11.9359805 21.1175225 32.6334765
21.157442500000002 26.9327545 23.772394499999997
21.090877499999998 24.1788205 26.8147625
18.0785555 26.836715499999997 27.042334499999996
20.851583499999997 21.126225499999997 30.009496499999997
14.8961875 26.732127499999997 17.8485365
18.081891499999998 15.075545499999999 26.737111499999997
21.091558499999998 12.1144125 27.1168045
15.0673745 23.8314145 32.7025975
12.2160795 26.8647225 32.9362715
15.1228325 27.031690499999996 36.0054525
12.0787575 26.7720355 27.016352499999996
15.0652425 32.6220365 12.1669565
15.1755405 29.9930605 14.8175145
11.8713055 32.9029585 14.8799265
15.088789499999999 24.078354499999996 27.0270255
15.0394805 29.717073499999998 21.1510525
11.9084075 32.9988805 21.160593499999997
15.1005115 26.8495335 24.1831485
14.814344499999999 32.9018725 24.072218499999998
14.8769015 29.9083095 26.7592955
12.0588705 32.9341425 27.080907500000002
14.9284515 33.1310715 29.949113500000003
14.9011145 29.734255499999996 32.9403165
12.2282945 32.7479675 32.8699415
21.104586499999996 14.9518425 23.719109500000002
14.8365885 23.883016499999997 20.9041195
17.956950499999998 14.7768655 21.103699499999998
21.093123499999997 11.9950495 20.8049355
21.0577585 15.095321499999999 18.103255499999996
12.1994885 27.023678499999995 20.932078499999996
15.0955095 18.1189155 32.7276205
18.129808499999996 14.9172605 14.850529499999999
21.1028315 15.0060465 11.8308575
15.1722465 35.9909385 33.0308395
14.9927005 36.0363555 26.9943995
15.0679945 35.681881499999996 21.115396499999996
14.8247555 35.7856195 14.952327499999999
15.0022215 32.7024775 35.6799145
21.120326499999997 11.8823665 14.8378585
20.8195475 26.856530499999998 30.016101499999998
15.0859775 32.8042595 18.1565795
20.7987015 24.0413675 32.7066765
17.688056500000002 32.8447795 20.936114500000002
26.816101500000002 14.8748825 24.1369885
20.947646499999998 36.0112745 21.104426499999995
23.8907795 15.1885525 14.805306499999999
21.1575085 32.9256755 23.989799499999997
21.1777795 35.7521425 14.8753675
24.0864435 15.1858875 21.0246305
14.8545845 17.8234245 26.9187345
20.940641499999998 29.6360745 26.9998595
18.1046725 32.7105925 26.994637499999996
26.768316499999997 12.1530845 20.934135499999996
21.0603865 33.1070945 35.827510499999995
18.052611499999998 32.6354625 32.7303495
26.7596665 14.9003565 18.075925499999997
12.174075499999999 21.0834155 26.6919525
15.0925535 21.1079395 23.8746225
21.211782499999998 32.8302915 29.900920499999998
26.8397625 11.7764315 27.031409500000002
21.1015405 32.7112915 17.996235499999997
20.806946500000002 30.008807500000003 21.0748545
20.873645500000002 35.974394499999995 27.0115805
27.069489499999996 14.845786499999999 11.8807875
17.692764500000003 26.909605499999998 32.8386705
21.022999499999997 35.6335285 32.7838155
24.0518595 14.9246035 32.7269915
27.064350499999996 11.927372499999999 32.8555005
26.715739499999998 15.136167499999999 29.829921499999998
21.1046335 26.775727500000002 35.7305205
14.8487785 20.9133005 29.6553495
21.151883499999997 32.6671795 12.0979475
20.8689415 29.692148500000002 33.0044965
20.873521499999995 30.056155500000003 14.912181499999999
18.1618055 32.6957805 14.8293525
23.693330500000002 14.9657625 26.8078225
26.8965045 11.9667195 15.2573965
11.8273305 21.067761499999996 21.0091605
29.842011499999998 23.990714499999996 37.3329725
23.968270499999996 29.9352625 10.5071905
18.0251255 23.9239235 10.6400585
10.949308499999999 18.042314499999996 36.8982595
36.92542649999999 23.9979255 36.8346635
29.9447745 36.9420105 36.8328565
10.9250315 23.8765875 36.9189155
10.9584375 23.855588499999996 10.9270775
29.842065499999997 10.5061425 24.019220499999996
10.6282535 23.8626705 17.9386505
29.8610895 36.8660245 11.0626485
36.9251635 17.9354265 36.791904499999994
11.0535715 29.845043500000003 11.0457795
29.8295825 10.6318205 29.895193499999998
18.005585500000002 10.6388655 29.8858215
36.8968975 36.83605549999999 18.055074499999996
10.525845499999999 17.955222499999998 24.004005499999998
37.30859349999999 18.030956500000002 23.8634805
37.388124499999996 29.9413185 29.857425499999998
37.31744749999999 18.027215499999997 18.041773499999998
23.8466565 10.9554895 36.8517065
36.9039395 29.934934499999997 36.7981315
36.9649525 17.9738545 10.9654435
23.929354500000002 37.25005049999999 29.968748499999997
37.2409025 23.8759655 29.9014015
23.8791955 37.369544499999996 17.9389095
29.8515675 37.3467225 29.824062499999997
37.2652765 29.8216465 23.9000835
10.6032695 29.821513500000002 29.9154385
18.054350499999998 29.9150135 37.317744499999996
10.9182665 10.917194499999999 29.8313695
23.849044499999998 36.8427325 36.9239075
37.2749665 29.9156755 18.059417500000002
29.821935500000002 37.271421499999995 18.040169499999998
30.243872500000002 29.493078500000003 24.0885605
11.7697215 35.895914499999996 29.4093005
29.701251499999998 30.121022500000002 30.202411499999997
12.1505795 35.9984315 24.3900565
24.165138499999998 18.283148499999996 35.4891235
18.0484005 11.6887325 11.5360775
23.815512499999997 12.0461365 17.5226005
12.224717499999999 29.699526499999997 36.1944075
11.8850955 23.7802165 23.583330499999995
23.642075499999997 24.192961499999996 11.8652835
35.9166315 11.6038135 18.050520499999998
12.1638305 24.201539499999996 29.6040555
23.941793499999996 17.5876145 12.019508499999999
23.644299499999995 35.61953449999999 24.055181499999996
35.6427755 36.0628305 30.3033005
35.62444849999999 36.225244499999995 24.065236499999997
24.0281485 17.660593499999997 18.174192499999997
23.907959499999997 11.7110705 29.637936500000002
36.1985305 24.166819499999995 17.6066465
12.1349505 30.464805499999997 17.9118745
35.7214135 24.117805499999996 11.6611995
23.605065500000002 18.235527499999996 24.023745499999997
12.2860635 30.148239500000003 23.959244499999997
35.897828499999996 11.6817665 30.0239885
23.5507555 12.1549535 23.935444499999996
35.807990499999995 12.1727685 24.328818499999997
24.207415499999996 17.8399035 29.5150925
12.3898365 18.0125805 18.227715500000002
29.888568499999998 36.0766175 23.513785499999997
30.171524499999997 29.621447500000002 36.0319205
29.485218500000002 30.2402405 18.1084975
35.8300465 24.2318145 23.664046499999998
18.460395499999997 11.8841275 18.2533185
24.4210145 29.9133255 17.9025395
11.7718085 17.653651500000002 29.7668885
17.9030525 29.5576565 24.165564500000002
30.2702545 18.274016500000002 18.080307499999996
18.2209955 17.665139500000002 30.180989500000003
24.3427685 29.932739499999997 24.1477365
30.002204499999998 12.5298315 35.5094175
18.0643125 17.8590205 36.215540499999996
17.9012575 29.595597499999997 18.3062725
30.161263499999997 18.166928499999997 23.6677295
23.782461499999997 29.584827500000003 30.1478065
18.316219500000003 30.090556499999998 11.8982185
17.901785500000003 23.772369499999996 24.294442499999995
23.7256055 29.444610500000003 36.1560315
30.172211500000003 11.8223295 18.2193135
17.949934499999998 23.9800525 36.257564499999994
23.772198500000002 35.6558695 11.637074499999999
30.1787675 12.0909885 12.300651499999999
24.481342499999997 12.2668575 12.1230215
17.705532499999997 23.6333185 29.743703500000002
18.391943499999996 24.0287035 17.5760395
12.3067625 11.7323275 23.9476685
30.143406499999998 17.5973735 12.2463155
29.937296500000002 17.5750995 30.088440499999997
23.785073499999996 23.580893500000002 17.7459535
11.822293499999999 11.7724785 18.206667500000002
30.2314845 29.8118445 11.546597499999999
17.7367075 17.7525015 24.1553405
17.687436499999997 12.404446499999999 24.171414499999997
29.349247499999997 24.134187499999996 29.776968500000002
18.1068275 36.0764665 23.593109499999997
23.9839555 24.2411095 23.718045499999995
18.2653105 35.5660575 18.055746499999998
29.7664305 23.5296145 23.807601499999997
23.653684499999997 23.701789499999997 29.680614499999997
18.1647035 35.898639499999994 30.231696499999998
23.7859915 23.588080499999997 35.914579499999995
17.8197595 11.7386455 36.3000535
12.4401125 17.8005755 11.7810705
17.927718499999997 17.6609375 12.441219499999999
17.6742435 29.661162500000003 29.821701500000003
29.6236245 23.7724695 12.397045499999999
30.281749499999997 24.080920499999998 17.7001505
30.3025605 18.2390555 35.5546575
18.353455500000003 17.8854245 17.6760895
11.471313499999999 17.8052985 37.8064665
11.6032905 18.177504499999998 34.920649499999996
10.2467765 17.2211005 36.6222675
10.5095855 18.929370499999997 36.86681049999999
22.9000865 37.60421349999999 30.104890499999996
24.272270499999998 37.671530499999996 28.882473499999996
12.7635235 18.6682695 35.9975085
12.4777095 17.0592695 35.7915815
29.1088685 35.4308955 29.359561499999998
36.144727499999995 18.495351499999998 35.0096275
37.632761499999994 30.870548499999998 17.783640499999997
35.483884499999995 30.2223045 17.1086045
35.4787275 30.516298499999998 18.7035355
35.434988499999996 28.969325499999997 18.1236065
29.984005500000002 37.6630835 28.8346765
28.9703575 37.666701499999995 30.3147315
30.7666275 37.642751499999996 30.4521655
29.831675500000003 35.433497499999994 30.8290005
30.709171499999997 35.4494085 29.497071499999997
36.4910915 23.3740145 37.6907085
37.751502499999994 23.4671465 36.4852675
37.084323499999996 24.962725499999998 37.1300675
36.1502765 24.4538035 35.0369445
34.9800045 24.331216499999996 36.1485505
35.6352855 22.9460605 35.542739499999996
37.0771045 19.033534500000002 37.1017845
36.495591499999996 17.4321695 37.766097499999994
37.7275045 17.4684315 36.4929275
35.54139249999999 17.0113505 35.5800935
34.988353499999995 18.4705315 36.18003649999999
24.6002195 37.6676725 30.6634605
11.7116135 23.502799500000002 34.925504499999995
24.8633005 35.4249295 29.6715535
12.3944495 22.9578845 18.139309499999996
12.3729175 24.5511045 18.7486175
12.3982735 24.2416985 17.0772315
23.3826525 28.980743500000003 10.1954015
23.476865499999995 30.796544500000003 10.2032375
25.0050655 29.8168165 10.2242525
24.461887499999996 30.7031695 12.3809185
24.391924500000002 29.000642499999998 12.3753815
22.9958185 29.947486499999997 12.428352499999999
10.1103695 24.514531499999997 36.4620645
10.7475385 22.8779235 37.0562995
10.1995045 23.5325555 18.967397499999997
11.3858335 24.381435500000002 37.7847135
12.3209085 24.9211065 35.5802885
30.6673525 37.6459925 18.695164499999997
30.109522499999997 37.6641655 16.995383500000003
28.9176395 37.6335515 18.3002245
29.1566305 35.4499075 17.3490705
29.6595375 35.4240445 18.8808345
30.8310325 35.474039499999996 17.7280285
22.943845500000002 37.613685499999995 18.1757985
24.5900245 37.656260499999995 18.7688445
24.2734175 37.607741499999996 16.995450499999997
24.8464665 35.4435005 17.8158195
12.8234215 23.427648499999997 36.1269485
23.643134500000002 35.4845585 30.808125500000003
10.247835499999999 23.294804499999998 17.1495885
36.015691499999996 35.1148245 17.2964505
23.255179499999997 35.4443785 29.182128499999997
23.3425935 37.7422415 36.4692405
23.4852335 36.4415225 37.7463825
24.940329499999997 37.126372499999995 37.0576805
24.4380115 34.990407499999996 36.171088499999996
24.380675499999995 36.1765705 34.9824235
22.9772215 35.5605715 35.628134499999994
23.175537499999997 10.2891035 36.6091585
24.9440765 10.523989499999999 36.873183499999996
23.744899499999995 11.447191499999999 37.8495965
24.659257499999995 12.7539785 35.9711945
10.238920499999999 24.9783305 17.8453595
23.056791499999996 12.4846945 35.793801499999994
37.660859499999994 30.146061500000002 30.8581315
37.6163745 28.891347500000002 29.5817865
37.656130499999996 30.6485975 29.155168500000002
35.4274175 29.6168915 28.936240499999997
35.4639755 30.840056500000003 30.105146499999996
35.4787925 29.169886499999997 30.553932500000002
37.8561475 36.3663305 18.1622495
36.8835685 37.3086915 16.981291499999998
36.6319105 37.6118875 18.786165500000003
34.924103499999994 36.2598245 17.7941805
35.7857435 35.324944499999994 18.861230499999998
24.091984499999995 11.601231499999999 34.9269435
37.646759499999995 29.2243025 17.211585499999998
30.6898025 23.212436499999995 37.651830499999996
12.5106985 12.0715415 28.990345499999997
12.9406055 23.6796685 11.6764285
11.7978725 23.267363500000002 12.758286499999999
28.8833835 23.6305325 37.6337485
30.096891499999998 24.977048500000002 37.6557475
30.771849500000002 24.203452499999997 35.48168449999999
29.1394545 24.530536499999997 35.458797499999996
29.663481500000003 23.0199505 35.457823499999996
30.7407295 37.5658475 11.182710499999999
29.9985675 36.3738045 9.9955825
28.9174315 37.4408895 11.0366885
29.084202499999996 35.2028335 11.8892665
29.767509500000003 36.2102995 12.9859805
30.723521499999997 35.2700245 11.983938499999999
30.715213499999997 10.1893035 29.2990365
29.9966565 10.2241275 30.892042500000002
28.9704695 10.230698499999999 29.466362500000002
29.128285499999997 12.3955395 30.427902500000002
29.819328499999997 12.382462499999999 28.928934499999997
30.7132225 12.4074265 30.2798845
10.2047235 18.8727395 24.5273495
10.1888735 18.0595145 22.9071925
10.2280365 17.0129345 24.401900499999996
12.3802935 17.1844735 23.4297855
12.4020985 17.961982499999998 24.862337499999995
12.386364499999999 18.8426185 23.4649935
12.1271795 24.8281585 12.4671085
37.6517325 18.488217499999998 24.852146499999996
11.311923499999999 24.663559499999998 10.2122885
10.936263499999999 22.953289499999997 10.591032499999999
23.296589499999996 35.472863499999995 17.2966465
10.190362499999999 28.9894975 29.3896435
10.2389075 29.9121685 30.892289499999997
10.241989499999999 30.7701395 29.3179265
12.418051499999999 30.6846775 30.372795500000002
12.374404499999999 29.8571765 28.9062135
12.421293499999999 29.068496500000002 30.3970165
37.6266345 22.8691125 29.843608500000002
37.621894499999996 24.468774500000002 29.039989499999997
37.62362649999999 24.377660499999998 30.7810245
35.47410849999999 24.919227499999998 29.943431500000003
35.4384085 23.4300445 30.708482500000002
35.4462935 23.466004499999997 29.0407955
18.973229500000002 30.1075845 37.6049515
17.2717175 30.612829499999997 37.6281145
17.6935645 28.8830605 37.67012449999999
17.004574499999997 29.676323500000002 35.459642499999994
18.612092499999996 29.1630325 35.4881375
18.247792500000003 30.783978499999996 35.485057499999996
37.6529825 18.6630695 18.805806500000003
37.6100705 16.965480499999998 18.1299975
37.675189499999995 18.3499465 17.0023215
35.48497149999999 17.358655499999998 17.2578655
35.4430015 18.9624935 17.799719500000002
35.4752535 17.6661115 18.864174499999997
10.0560975 24.1916845 11.4424485
37.618165499999996 16.911944499999997 23.8750485
37.630956499999996 18.5447645 23.106958499999998
35.4671655 17.5394595 23.1121645
34.898099499999994 18.018707499999998 11.653653499999999
35.9136465 18.7892425 12.646542499999999
18.4349925 10.1888825 30.831238499999998
16.9182045 10.2231595 29.7485485
18.603883500000002 10.243743499999999 29.050571499999997
17.568433499999998 12.3772655 28.976698499999998
18.960879499999997 12.433415499999999 29.986670500000002
17.4092865 12.4293455 30.684645500000002
30.3704885 10.2620935 22.9918945
30.460254499999998 10.2286865 24.841156499999997
28.863023499999997 10.2294225 24.0024035
29.394895499999997 12.4031355 24.760918499999995
29.382543499999997 12.4169305 23.090306499999997
30.8614515 12.3872775 23.8820665
28.880714499999996 37.1599165 37.0595065
30.313112500000003 36.4582875 37.7337805
30.5039875 37.7217955 36.5102975
30.8636605 35.5321655 35.580837499999994
29.4425325 36.1536625 34.9301685
29.323784500000002 34.9803565 36.097222499999994
10.260562499999999 11.2773905 29.089746499999997
11.4987965 10.0242905 29.671530500000003
10.5476125 10.9506075 30.914108499999998
12.7494365 11.809063499999999 30.6088965
11.6638665 12.922912499999999 30.1012755
35.897687499999996 17.1102585 12.565203499999999
36.7185225 17.1422885 10.3185495
37.8545775 17.9264935 11.4541355
36.7629665 18.9162945 10.4478355
35.48339549999999 18.933808499999998 23.9537725
35.4253995 17.4309375 24.707989499999996
11.2774515 29.099053499999997 10.2133155
10.0192525 29.5983735 11.4741625
10.944326499999999 30.8634675 10.5855415
11.8271555 30.598682500000002 12.7811995
12.9710605 30.0836495 11.6460215
12.1329695 28.963730499999997 12.5040695
36.3448435 29.915892499999998 37.8552755
37.4681955 28.9883775 36.7957455
37.5043625 30.785430499999997 36.68965549999999
36.2575605 29.876799499999997 34.90069449999999
37.6400575 29.5459205 18.9688395
35.2101345 30.7503205 35.875601499999995
37.6591155 29.8545255 22.8641845
37.6099505 30.794819500000003 24.420789499999998
37.6200095 28.9700475 24.4330725
35.4555235 29.8749725 24.920857499999997
35.476741499999996 29.044920499999996 23.4847435
35.4246705 30.7000885 23.418487499999998
17.1660545 23.3154125 10.2178535
17.9049915 24.9441335 10.2102635
18.9073985 23.4700535 10.2362065
18.783564499999997 24.463508499999996 12.398538499999999
18.052674500000002 22.947134499999997 12.432919499999999
17.1350135 24.3157595 12.4238895
35.2296285 29.037231499999997 35.914123499999995
23.601609500000002 35.4910845 18.881226499999997
35.7901665 18.046223499999996 23.939935499999997
11.9686115 23.8883455 17.9399365
23.8676315 35.8692535 18.032827499999996
35.8940555 17.9966225 35.9119815
12.0621315 29.943448500000002 11.9880885
35.802536499999995 29.9125855 23.8659545
17.9072955 12.0211235 29.820074499999997
35.73875949999999 29.845471500000002 17.9604395
35.7756905 35.904932499999994 17.930290499999998
35.7892605 29.9343785 35.8953505
12.0104355 29.8256315 29.9650065
35.808874499999995 29.8232505 29.9231475
12.0114565 17.9674915 24.0100605
11.9822785 18.0395855 35.875916499999995
29.913326499999997 11.998768499999999 29.9480195
29.901954500000002 35.8950605 12.1022985
35.879333499999994 23.964549499999997 29.836456499999997
24.024626499999997 35.829323499999994 29.856047500000003
35.7633065 17.9086425 17.942409499999997
12.1087045 23.917128499999997 35.8244585
17.916202499999997 29.832989499999996 35.8178985
29.922988500000002 35.8817175 35.7692065
29.949174499999998 35.891580499999996 17.952174499999998
35.775192499999996 17.9035245 12.000268499999999
12.0997595 23.8713045 12.025755499999999
23.976938499999996 12.0093085 35.8901095
35.7736265 23.9901225 35.816771499999994
23.9088445 35.8871415 35.869184499999996
23.9820255 29.8498905 11.9654365
12.0158345 11.976789499999999 29.9314405
29.837528499999998 35.8660395 29.814418500000002
29.9414995 23.886281499999996 35.8235915
29.9462745 12.0225045 23.848595500000002
17.948207500000002 23.915771499999998 12.1171315
14.9370785 14.7912775 15.2778645
26.9137215 14.8827725 32.5670295
26.955355499999996 15.2877785 27.0650555
26.8544045 14.9954755 21.1886225
26.7633705 15.129042499999999 15.1400035
20.787442499999997 32.5962695 32.9840825
20.690814500000002 32.8256235 26.927612500000002
21.1616955 32.9324575 20.754867499999996
21.1210155 33.0117955 15.1157905
20.7622425 26.6925495 32.7710955
20.9518385 26.6312555 26.9510475
20.7697655 27.123023500000002 20.8040375
20.7139945 26.785424499999998 15.2148835
20.762556500000002 20.968320499999997 32.6185885
20.942476499999998 20.768114499999996 26.7211425
20.703331499999997 20.972700500000002 21.0183795
20.646885499999996 21.0115415 15.0799525
20.841604499999995 14.8310965 33.0440005
20.893671499999996 15.134337499999999 26.7282505
20.7307615 14.8170225 20.806068500000002
20.7762995 15.2238635 14.9674455
15.1899825 32.7036215 32.9069585
14.8364665 32.9801985 26.820552499999998
14.7442345 32.8755825 20.966640499999997
26.9636905 20.7609225 15.110953499999999
15.0526085 33.162600499999996 14.8998245
26.750657499999996 20.9954885 21.118247499999995
26.7462345 20.8782815 33.0751575
32.7591575 32.9821825 33.0755385
33.0570375 32.9508855 26.815031499999996
32.6645915 33.084990499999996 20.943451500000002
32.9797535 32.7366405 14.7791845
32.9204755 27.1192255 26.899454499999997
32.8015915 26.709452499999998 20.682812499999997
32.6889155 27.0766475 15.104749499999999
32.6606395 21.067409499999997 32.7600355
32.7567215 21.1816355 27.097086499999996
32.6750345 21.100610500000002 20.993640499999998
32.6319655 21.014506499999996 15.1461795
32.6723055 15.0780835 33.0474915
32.6378545 14.9119115 26.7468505
33.0821395 14.8107385 20.7512525
32.7561065 14.7240065 15.1364675
27.060790499999996 32.6851795 32.9848485
26.691948500000002 32.7750465 27.1704595
27.1688445 32.6535455 20.9850165
26.839746499999997 32.9071175 14.7615185
26.7515785 27.1149305 32.9013985
26.7122455 26.8845405 27.0430085
26.6373435 26.978272499999996 20.9123295
27.1572795 26.9987425 15.2379635
26.8001985 20.7347185 26.7827945
15.0135835 26.636328499999998 32.9421095
32.6934745 26.835801500000002 32.5486975
15.0384275 26.857170500000002 14.6523325
15.162924499999999 21.1508995 32.8078225
14.7482565 15.0378825 21.1475935
14.8771905 21.0285815 14.8331575
14.853989499999999 27.0878715 20.981463499999997
15.2719475 14.986150499999999 32.7359895
14.9889125 20.7879175 26.6500755
14.8385085 27.0366595 27.066402499999995
15.207727499999999 15.122320499999999 26.9568845
15.2444635 21.0091385 21.028924500000002
