3_train/268_cspbbr3_MA-PDC_3_0.20\268_cspbbr3_MA-PDC_3_0.20.xyz
1.0
47.099758 0 0
0 47.099758 0
0 0 47.099758
Br C Cs H N O Pb 
96 82 44 108 34 48 27 
Cartesian
17.599879 17.599879 14.624879
14.624879 17.599879 17.599879
17.599879 17.599879 20.574879
17.599879 14.624879 23.549879
14.624879 17.599879 23.549879
17.599879 17.599879 26.524879
17.599879 14.624879 29.499879
14.624879 17.599879 29.499879
17.599879 17.599879 32.474879
17.599879 23.549879 14.624879
17.599879 20.574879 17.599879
14.624879 23.549879 17.599879
17.599879 23.549879 20.574879
17.599879 20.574879 23.549879
14.624879 23.549879 23.549879
17.599879 23.549879 26.524879
17.599879 20.574879 29.499879
17.599879 23.549879 32.474879
17.599879 29.499879 14.624879
17.599879 26.524879 17.599879
17.599879 29.499879 20.574879
17.599879 26.524879 23.549879
14.624879 29.499879 23.549879
17.599879 29.499879 26.524879
17.599879 26.524879 29.499879
14.624879 29.499879 29.499879
17.599879 29.499879 32.474879
17.599879 32.474879 17.599879
17.599879 32.474879 23.549879
17.599879 32.474879 29.499879
23.549879 14.624879 17.599879
20.574879 17.599879 17.599879
23.549879 17.599879 20.574879
23.549879 14.624879 23.549879
20.574879 17.599879 23.549879
23.549879 17.599879 26.524879
23.549879 14.624879 29.499879
20.574879 17.599879 29.499879
23.549879 23.549879 14.624879
23.549879 20.574879 17.599879
20.574879 23.549879 17.599879
23.549879 23.549879 20.574879
23.549879 20.574879 23.549879
20.574879 23.549879 23.549879
23.549879 23.549879 26.524879
23.549879 20.574879 29.499879
20.574879 23.549879 29.499879
23.549879 23.549879 32.474879
23.549879 29.499879 14.624879
23.549879 26.524879 17.599879
20.574879 29.499879 17.599879
23.549879 29.499879 20.574879
23.549879 26.524879 23.549879
20.574879 29.499879 23.549879
23.549879 29.499879 26.524879
23.549879 26.524879 29.499879
20.574879 29.499879 29.499879
23.549879 32.474879 23.549879
23.549879 32.474879 29.499879
29.499879 14.624879 17.599879
26.524879 17.599879 17.599879
29.499879 17.599879 20.574879
26.524879 17.599879 23.549879
29.499879 17.599879 26.524879
29.499879 14.624879 29.499879
26.524879 17.599879 29.499879
29.499879 17.599879 32.474879
29.499879 23.549879 14.624879
29.499879 20.574879 17.599879
26.524879 23.549879 17.599879
29.499879 23.549879 20.574879
29.499879 20.574879 23.549879
26.524879 23.549879 23.549879
29.499879 23.549879 26.524879
29.499879 20.574879 29.499879
26.524879 23.549879 29.499879
29.499879 23.549879 32.474879
29.499879 29.499879 14.624879
29.499879 26.524879 17.599879
26.524879 29.499879 17.599879
29.499879 29.499879 20.574879
29.499879 26.524879 23.549879
26.524879 29.499879 23.549879
29.499879 29.499879 26.524879
29.499879 26.524879 29.499879
26.524879 29.499879 29.499879
29.499879 29.499879 32.474879
29.499879 32.474879 23.549879
29.499879 32.474879 29.499879
32.474879 17.599879 17.599879
32.474879 17.599879 23.549879
32.474879 17.599879 29.499879
32.474879 23.549879 17.599879
32.474879 23.549879 23.549879
32.474879 23.549879 29.499879
32.474879 29.499879 17.599879
23.542301000000002 19.003809 34.933063000000004
23.549879 17.599879 34.869439
23.55114 17.488422 37.140242
23.545918999999998 18.892515 37.20385
23.556019 16.955144 33.514284
23.547722999999998 19.540897 38.557437
23.542301000000002 30.903809 34.933063000000004
23.549879 29.499879 34.869439
23.55114 29.388422 37.140242
23.545918999999998 30.792515 37.20385
23.556019 28.855144 33.514284
23.547722999999998 31.440897 38.557437
29.507457000000002 19.003809 12.166695
29.499879 17.599879 12.230319
29.498618 17.488422 9.959516
29.503839 18.892515 9.895908
29.493738999999998 16.955144 13.585474
29.502035 19.540897 8.542321000000001
23.557457 19.003809 12.166695
23.549879 17.599879 12.230319
23.548617999999998 17.488422 9.959516
23.553839 18.892515 9.895908
23.543739000000002 16.955144 13.585474
23.552035 19.540897 8.542321000000001
12.166695 30.903809 17.592301
12.230319 29.499879 17.599879
9.959516 29.388422 17.60114
9.895908 30.792515 17.595919000000002
13.585474 28.855144 17.606019
8.542321000000001 31.440897 17.597723000000002
12.166695 24.953809 29.492300999999998
12.230319 23.549879 29.499879
9.959516 23.438422 29.50114
9.895908 24.842515 29.495919
13.585474 22.905144 29.506019000000002
8.542321000000001 25.490897 29.497723
34.933063000000004 30.903809 23.557457
34.869439 29.499879 23.549879
37.140242 29.388422 23.548617999999998
37.20385 30.792515 23.553839
33.514284 28.855144 23.543739000000002
38.557437 31.440897 23.552035
34.933063000000004 30.903809 29.507457000000002
34.869439 29.499879 29.499879
37.140242 29.388422 29.498618
37.20385 30.792515 29.503839
33.514284 28.855144 29.493738999999998
38.557437 31.440897 29.502035
29.492300999999998 12.166695 24.953809
29.499879 12.230319 23.549879
29.50114 9.959516 23.438422
29.495919 9.895908 24.842515
29.506019000000002 13.585474 22.905144
29.497723 8.542321000000001 25.490897
17.592301 12.166695 19.003809
17.599879 12.230319 17.599879
17.60114 9.959516 17.488422
17.595919000000002 9.895908 18.892515
17.606019 13.585474 16.955144
17.597723000000002 8.542321000000001 19.540897
29.492300999999998 34.933063000000004 16.195949
29.499879 34.869439 17.599879
29.50114 37.140242 17.711336
29.495919 37.20385 16.307243
29.506019000000002 33.514284 18.244614
29.497723 38.557437 15.658861
23.542301000000002 34.933063000000004 16.195949
23.549879 34.869439 17.599879
23.55114 37.140242 17.711336
23.545918999999998 37.20385 16.307243
23.556019 33.514284 18.244614
23.547722999999998 38.557437 15.658861
33.518329 20.574879 13.581429
20.574879 13.149218000000001 20.574879
26.524879 33.518329 13.581429
20.574879 26.524879 13.149218000000001
26.524879 33.950540000000004 20.574879
20.574879 33.950540000000004 20.574879
20.574879 20.574879 13.149218000000001
33.518329 20.574879 33.518329
33.950540000000004 26.524879 20.574879
33.518329 33.518329 26.524879
14.624879 14.624879 20.574879
14.624879 14.624879 26.524879
14.624879 20.574879 14.624879
14.624879 20.574879 20.574879
14.624879 20.574879 26.524879
14.624879 20.574879 32.474879
14.624879 26.524879 14.624879
14.624879 26.524879 20.574879
14.624879 26.524879 26.524879
14.624879 26.524879 32.474879
14.624879 32.474879 20.574879
14.624879 32.474879 26.524879
20.574879 14.624879 14.624879
20.574879 14.624879 26.524879
20.574879 14.624879 32.474879
20.574879 20.574879 20.574879
20.574879 20.574879 26.524879
20.574879 20.574879 32.474879
20.574879 26.524879 20.574879
20.574879 26.524879 26.524879
20.574879 26.524879 32.474879
20.574879 32.474879 14.624879
20.574879 32.474879 26.524879
20.574879 32.474879 32.474879
26.524879 14.624879 14.624879
26.524879 14.624879 20.574879
26.524879 14.624879 26.524879
26.524879 14.624879 32.474879
26.524879 20.574879 14.624879
26.524879 20.574879 20.574879
26.524879 20.574879 26.524879
26.524879 20.574879 32.474879
26.524879 26.524879 20.574879
26.524879 26.524879 26.524879
26.524879 26.524879 32.474879
26.524879 32.474879 26.524879
26.524879 32.474879 32.474879
32.474879 14.624879 20.574879
32.474879 14.624879 26.524879
32.474879 20.574879 20.574879
32.474879 20.574879 26.524879
32.474879 26.524879 26.524879
32.474879 26.524879 32.474879
32.474879 32.474879 20.574879
23.554090000000002 16.896323 38.058302
23.538443 19.595633 34.014795
23.582499 15.300843 32.626537
23.548702 21.200337 39.437011
23.554090000000002 28.796323 38.058302
23.538443 31.495633 34.014795
23.582499 27.200843 32.626537
23.548702 33.100336999999996 39.437011
29.495668000000002 16.896323 9.041456
29.511315 19.595633 13.084963
29.467259 15.300843 14.473220999999999
29.501056 21.200337 7.6627469999999995
23.545668 16.896323 9.041456
23.561315 19.595633 13.084963
23.517259 15.300843 14.473220999999999
23.551056 21.200337 7.6627469999999995
9.041456 28.796323 17.60409
13.084963 31.495633 17.588442999999998
14.473220999999999 27.200843 17.632499
7.6627469999999995 33.100336999999996 17.598702
9.041456 22.846322999999998 29.504089999999998
13.084963 25.545633000000002 29.488443
14.473220999999999 21.250843 29.532499
7.6627469999999995 27.150337 29.498702
38.058302 28.796323 23.545668
34.014795 31.495633 23.561315
32.626537 27.200843 23.517259
39.437011 33.100336999999996 23.551056
38.058302 28.796323 29.495668000000002
34.014795 31.495633 29.511315
32.626537 27.200843 29.467259
39.437011 33.100336999999996 29.501056
29.504089999999998 9.041456 22.846322999999998
29.488443 13.084963 25.545633000000002
29.532499 14.473220999999999 21.250843
29.498702 7.6627469999999995 27.150337
17.60409 9.041456 16.896323
17.588442999999998 13.084963 19.595633
17.632499 14.473220999999999 15.300843
17.598702 7.6627469999999995 21.200337
29.504089999999998 38.058302 18.303435
29.488443 34.014795 15.604125
29.532499 32.626537 19.898915
29.498702 39.437011 13.999421
23.554090000000002 38.058302 18.303435
23.538443 34.014795 15.604125
23.582499 32.626537 19.898915
23.548702 39.437011 13.999421
34.114878000000004 19.669173 13.705743
33.019601 20.586295 12.610466
34.12886 21.469168 13.719725
31.877721 21.409582 14.557686
32.887133 20.564357 15.567099
31.864835 19.750697 14.5448
20.065152 12.815297000000001 19.669173
21.614107 12.815297000000001 20.586295
20.045378 12.815297000000001 21.469168
21.044646 14.999621000000001 21.409582
19.617121 14.999621000000001 20.564357
21.06287 14.999621000000001 19.750697
26.015152 34.394877 13.985742
27.564107 33.746374 13.337239
25.995378000000002 33.122089 12.712952999999999
26.994646 31.619672 14.299637
25.567121 32.217336 14.897302
27.01287 32.792681 15.472646
21.084606 25.619173 12.815297000000001
19.535651 26.536295 12.815297000000001
21.10438 27.419168 12.815297000000001
20.105112 27.359582 14.999621000000001
21.532637 26.514357 14.999621000000001
20.086888000000002 25.700696999999998 14.999621000000001
26.015152 34.284461 21.480584999999998
27.564107 34.284461 20.563463
25.995378000000002 34.284461 19.68059
26.994646 32.100137000000004 19.740175999999998
25.567121 32.100137000000004 20.585401
27.01287 32.100137000000004 21.399061
20.065152 34.284461 21.480584999999998
21.614107 34.284461 20.563463
20.045378 34.284461 19.68059
21.044646 32.100137000000004 19.740175999999998
19.617121 32.100137000000004 20.585401
21.06287 32.100137000000004 21.399061
21.084606 19.669173 12.815297000000001
19.535651 20.586295 12.815297000000001
21.10438 21.469168 12.815297000000001
20.105112 21.409582 14.999621000000001
21.532637 20.564357 14.999621000000001
20.086888000000002 19.750697 14.999621000000001
33.394014999999996 19.669173 34.114878000000004
34.489292 20.586295 33.019601
33.380033 21.469168 34.12886
32.542072000000005 21.409582 31.877721
31.532659 20.564357 32.887133
32.554958 19.750697 31.864835
34.284461 25.619173 21.084606
34.284461 26.536295 19.535651
34.284461 27.419168 21.10438
32.100137000000004 27.359582 20.105112
32.100137000000004 26.514357 21.532637
32.100137000000004 25.700696999999998 20.086888000000002
33.952436 33.556456999999995 27.525741
34.268352 33.240541 25.781961000000003
33.042551 34.466342 26.266935
32.027428 32.392365 25.602479000000002
31.736278 32.683514 27.209556
32.865983 31.55381 26.762602
23.540348 19.656067 36.099109999999996
23.553299 16.836033 35.974098
23.540348 31.556067 36.099109999999996
23.553299 28.736033 35.974098
29.509410000000003 19.656067 11.000648
29.496459 16.836033 11.12566
23.55941 19.656067 11.000648
23.546459 16.836033 11.12566
11.000648 31.556067 17.590348
11.12566 28.736033 17.603299
11.000648 25.606067 29.490347999999997
11.12566 22.786033 29.503299
36.099109999999996 31.556067 23.55941
35.974098 28.736033 23.546459
36.099109999999996 31.556067 29.509410000000003
35.974098 28.736033 29.496459
29.490347999999997 11.000648 25.606067
29.503299 11.12566 22.786033
17.590348 11.000648 19.656067
17.603299 11.12566 16.836033
29.490347999999997 36.099109999999996 15.543690999999999
29.503299 35.974098 18.363725000000002
23.540348 36.099109999999996 15.543690999999999
23.553299 35.974098 18.363725000000002
32.474879 20.574879 14.624879
20.574879 14.624879 20.574879
26.524879 32.474879 14.624879
20.574879 26.524879 14.624879
26.524879 32.474879 20.574879
20.574879 32.474879 20.574879
20.574879 20.574879 14.624879
32.474879 20.574879 32.474879
32.474879 26.524879 20.574879
32.474879 32.474879 26.524879
23.549879 17.599879 32.474879
23.569886 15.602413 33.560401
23.542685 20.893704 38.504804
23.55369 18.900851 39.599758
23.549879 29.499879 32.474879
23.569886 27.502413 33.560401
23.542685 32.793704 38.504804
23.55369 30.800851 39.599758
29.499879 17.599879 14.624879
29.479872 15.602413 13.539356999999999
29.507073 20.893704 8.594954
29.496068 18.900851 7.5
23.549879 17.599879 14.624879
23.529871999999997 15.602413 13.539356999999999
23.557073000000003 20.893704 8.594954
23.546067999999998 18.900851 7.5
14.624879 29.499879 17.599879
13.539356999999999 27.502413 17.619886
8.594954 32.793704 17.592685
7.5 30.800851 17.60369
14.624879 23.549879 29.499879
13.539356999999999 21.552413 29.519886
8.594954 26.843704000000002 29.492685
7.5 24.850851 29.50369
32.474879 29.499879 23.549879
33.560401 27.502413 23.529871999999997
38.504804 32.793704 23.557073000000003
39.599758 30.800851 23.546067999999998
32.474879 29.499879 29.499879
33.560401 27.502413 29.479872
38.504804 32.793704 29.507073
39.599758 30.800851 29.496068
29.499879 14.624879 23.549879
29.519886 13.539356999999999 21.552413
29.492685 8.594954 26.843704000000002
29.50369 7.5 24.850851
17.599879 14.624879 17.599879
17.619886 13.539356999999999 15.602413
17.592685 8.594954 20.893704
17.60369 7.5 18.900851
29.499879 32.474879 17.599879
29.519886 33.560401 19.597345
29.492685 38.504804 14.306054
29.50369 39.599758 16.298907
23.549879 32.474879 17.599879
23.569886 33.560401 19.597345
23.542685 38.504804 14.306054
23.55369 39.599758 16.298907
17.599879 17.599879 17.599879
17.599879 17.599879 23.549879
17.599879 17.599879 29.499879
17.599879 23.549879 17.599879
17.599879 23.549879 23.549879
17.599879 23.549879 29.499879
17.599879 29.499879 17.599879
17.599879 29.499879 23.549879
17.599879 29.499879 29.499879
23.549879 17.599879 17.599879
23.549879 17.599879 23.549879
23.549879 17.599879 29.499879
23.549879 23.549879 17.599879
23.549879 23.549879 23.549879
23.549879 23.549879 29.499879
23.549879 29.499879 17.599879
23.549879 29.499879 23.549879
23.549879 29.499879 29.499879
29.499879 17.599879 17.599879
29.499879 17.599879 23.549879
29.499879 17.599879 29.499879
29.499879 23.549879 17.599879
29.499879 23.549879 23.549879
29.499879 23.549879 29.499879
29.499879 29.499879 17.599879
29.499879 29.499879 23.549879
29.499879 29.499879 29.499879
