1_train/91_cspbbr3_methylammonium_4_0.60\91_cspbbr3_methylammonium_4_0.60.xyz
1.0
47.895837 0 0
0 47.895837 0
0 0 47.895837
Br C Cs H N Pb 
240 51 61 306 51 64 
Cartesian
26.903816499999998 20.7951355 29.9634255
27.1710055 17.9805865 32.7424455
23.787153500000002 21.1038615 33.0748835
24.0589145 27.051993500000002 27.0905695
27.027922500000003 21.194097499999998 35.8434425
32.7262305 35.7796315 21.170776500000002
26.912104499999998 23.810021499999998 27.0779415
26.797948500000004 26.782109499999997 11.9749245
27.099838500000004 23.8369305 20.862306500000003
26.9531985 26.656724500000003 17.9176335
29.732384500000002 26.7776475 20.916576499999998
27.0336285 24.0952945 14.8156055
24.1243325 27.0105115 14.8980915
32.8559265 26.925183500000003 24.1920345
33.0491365 23.961878499999997 20.7897855
32.9610445 26.988704499999997 18.1718265
24.123268500000002 27.1275555 21.0938735
27.056098499999997 26.710510499999998 24.056669499999998
32.6306395 35.82616650000001 14.9984945
29.826995500000002 20.8513745 14.9033705
33.0633395 23.9851065 26.8865385
23.935047500000003 15.0147305 21.195029500000004
32.7318855 27.054373500000004 36.0672415
26.7825255 15.0846055 24.1010425
32.8144285 30.0441255 14.8685065
27.0209665 12.1731435 26.7728205
23.893887499999998 15.2256635 26.989188499999997
29.748883499999998 26.8274105 32.6708835
27.064024500000002 15.1639485 30.103655500000002
26.741009500000004 11.9550415 32.8846105
23.7680935 14.993228499999999 33.0928935
26.9965755 15.1497025 35.586957500000004
35.7252025 15.2659995 15.147826499999999
32.8430475 35.735687500000004 27.0668395
33.0001795 23.8087295 32.8962245
27.030440499999997 21.1221685 12.1596875
26.9965215 18.101988499999997 15.2733735
23.760312499999998 20.7881675 15.1172355
32.8822885 36.0332445 33.1036665
27.016912500000004 20.7881485 17.986718500000002
27.1196955 17.909136500000002 20.804852500000003
24.089121499999997 21.101054500000004 20.8365055
29.754512499999997 32.7148315 14.9531785
29.720192500000003 26.995231500000003 27.074611500000003
26.824926500000004 21.0611235 24.071636500000004
26.9616635 17.8968815 27.0990045
32.7407855 33.0832255 35.71272750000001
32.9049145 26.767641500000003 30.0817445
23.830034500000004 20.853109500000002 27.041146500000004
32.7738005 23.8992425 15.1908555
26.798125499999998 27.0872205 29.7853865
32.8607945 30.0887515 26.7628525
32.9792825 32.8884925 24.199799499999997
32.8413785 29.7726235 20.8200475
32.9270025 15.2908095 11.9284175
32.7590335 11.8372185 15.0114195
29.8676935 14.8925205 15.1531335
30.0710635 20.856545500000003 26.801340500000002
32.7656075 15.2035605 17.847817499999998
32.7753505 12.1976235 20.8220035
30.0046495 15.071014499999999 20.793415500000002
32.9012915 17.7259355 26.8513715
32.9788315 20.7690335 24.134612500000003
33.0956105 14.9794185 24.0890645
33.0910895 12.1694135 27.0850235
29.899373500000003 15.2307155 26.9245455
30.102278499999997 33.0615665 20.920309500000002
33.1013455 15.1406735 29.898163500000003
33.0741665 12.1312625 32.7073315
29.802501499999998 15.0060565 32.6949495
32.9334495 15.294703499999999 35.818394500000004
30.080651500000002 21.029726500000002 20.8430435
32.6854745 17.8080425 20.881811499999998
32.6685325 20.8382845 18.128108500000003
32.972373499999996 20.853663500000003 12.1579035
32.6865025 17.7899655 15.1243515
27.0080175 35.959503500000004 32.6419935
29.765817499999997 33.0250745 26.785604499999998
26.7955045 36.003225500000006 26.881209499999997
26.7452495 36.0280305 21.052580499999998
27.1523805 24.0942565 32.9604545
23.9668225 27.067763499999998 32.7479785
30.007805499999996 32.6887545 32.6802025
26.7504165 26.7565065 35.985527499999996
26.9543795 32.8969885 11.835758499999999
33.0727635 27.109390500000003 12.0511555
27.0352635 29.8318065 14.8885085
23.9100635 32.7352385 15.1417615
32.6774195 29.8391205 32.8968085
32.9016815 32.6483755 17.8387315
26.857983500000003 32.6944185 17.9305935
27.081728500000004 30.1076605 20.861028500000003
29.8076035 26.841210500000003 14.863334499999999
23.799690500000004 33.002379499999996 20.8151195
33.0476255 20.854150500000003 36.0122445
26.938112500000003 33.0444645 24.076963499999998
26.7526855 29.950210499999997 27.1464735
29.779542499999998 20.997012500000004 32.6657055
24.1242345 32.9510875 26.9292315
32.6338405 17.9363545 32.9766795
32.6856565 20.7827245 29.9920885
27.081132500000002 11.9350865 21.0387725
26.880140500000003 30.164731500000002 32.7575955
24.2293765 32.8847405 32.7990755
26.8362615 32.7226135 35.982287500000005
27.073257500000004 35.8025615 15.1426575
33.0148915 33.0403975 30.0551525
26.8940555 32.8009875 29.710423499999997
18.2039615 33.0032935 32.7602365
20.9444985 12.1963495 15.1506925
11.8223155 26.727732500000002 26.926207500000004
35.9592115 32.729116499999996 26.7838675
14.9143935 26.9006695 30.058268499999997
14.7819675 23.9944395 33.0063085
11.8623385 27.1063895 32.9734235
15.025736499999999 26.6483275 35.8895575
15.0160085 33.0173435 12.2099505
14.9751065 29.8994085 14.8362985
12.2601345 32.9796195 14.8882025
15.1878195 32.8030465 18.0298095
14.9611225 30.0237105 21.2229455
12.2369895 32.7863505 20.838840500000003
35.8121555 32.6847135 21.1466565
14.9398965 32.9038975 24.1267195
15.1083765 23.9990405 27.165453499999998
14.9877185 29.7243005 26.748791500000003
14.9158065 32.8813325 29.7386465
14.842252499999999 30.085114500000003 32.7394245
12.0031535 32.8319095 33.1252105
15.0042755 32.6767905 36.0059595
15.2123355 35.9921965 15.0753205
36.084604500000005 32.9197705 14.9406575
14.8872875 36.0465245 21.1028905
14.9105955 35.721778500000006 26.7939235
35.8156295 27.0392955 32.7195205
15.1731845 35.7482905 32.8185705
35.9763205 27.0275855 27.049448500000004
20.838803499999997 14.8800225 12.1769905
26.828253500000002 14.9028625 17.8376795
17.9138255 15.1014465 15.2163325
12.130810499999999 32.6512065 26.7529835
15.1867045 26.708980500000003 23.9259975
12.0366835 26.7594555 20.8722305
15.178516499999999 24.0797805 21.031724500000003
14.8853285 14.8800715 12.2127715
14.9907045 11.8410835 15.192465499999999
11.8797915 15.189987499999999 15.1863875
14.9110975 14.9971075 18.1991115
14.9894795 11.8320565 20.831624500000004
12.1128395 14.8308295 21.011300499999997
15.1194925 14.8947665 24.1580905
15.0200405 12.0190115 27.189370500000003
12.1150295 15.2891325 26.8052445
14.8799875 15.098511499999999 30.0082605
15.1208305 12.2380585 32.7265095
11.9063245 15.2256585 32.9762285
15.0851905 15.1804805 35.9917115
15.2262025 20.923578499999998 12.1501065
14.8643225 17.9898715 15.1090915
12.1865205 20.7811605 15.0655155
15.1874675 21.0497485 18.1544065
14.8732965 27.032405500000003 18.113575500000003
35.7260895 33.0470075 33.0375085
11.8778735 26.791484500000003 15.1431485
15.1839075 23.742748499999998 14.9302835
14.8811635 26.8150465 12.0797925
15.147691499999999 21.0208285 35.6995185
21.059461499999998 15.1639705 17.8539835
12.200649499999999 21.1261335 32.7236475
14.8383565 20.8031455 29.8078085
11.8910795 20.8348655 27.0293565
14.8432185 18.0599665 26.7378275
14.9699055 21.1849975 23.860398500000002
11.891446499999999 20.995230499999998 20.784982499999998
15.1796245 18.0504495 21.113603500000004
14.9049575 18.158575499999998 32.9054245
21.179770500000004 11.8358625 20.9563785
33.0710125 32.8608325 12.0103015
20.9100975 15.059319499999999 23.717701500000004
18.1705725 15.1330555 21.0383695
18.115838500000002 26.713378499999997 26.835969499999997
21.1335075 27.0470435 29.834593499999997
20.8601575 23.8408705 32.7456625
18.0119305 26.922577500000003 33.0642965
20.8912215 26.977734500000004 36.0072755
35.9808375 21.1296155 26.8812815
20.864507500000002 33.0788315 12.071353499999999
21.0937555 30.018811499999998 14.9558635
17.9127115 33.1251025 14.9547235
35.9792555 20.7711275 20.9444535
21.1139625 33.0859195 18.0842185
20.865587500000004 30.016799499999998 21.1966295
17.849756499999998 32.8892295 21.201162500000002
35.8366315 20.813232499999998 14.8762715
20.772662500000003 32.9192495 24.0715315
21.002925500000003 30.043097500000002 26.7695115
24.0642445 14.8900325 15.254277499999999
27.1659165 12.012622499999999 14.9296825
27.0798335 15.0168765 11.9084795
35.993859500000006 15.1726225 21.066373499999997
21.1213605 35.6535445 32.8150705
20.800647500000004 35.7586115 27.0942235
20.860031499999998 26.835159500000003 23.8379975
20.974768500000003 35.96062250000001 21.147571499999998
21.1853215 32.8736735 35.8072275
35.6281605 14.9377405 27.0114405
21.1483305 29.992596499999998 32.9222355
21.026726500000002 33.0851595 29.778678499999998
36.0299525 14.840942499999999 32.8874075
17.834649499999998 32.6740935 27.068898500000003
21.1273605 35.826470500000006 14.8793645
36.0168765 20.8160715 32.7187895
20.7829015 24.1074615 26.7681895
20.827209500000002 11.8780605 32.9256755
20.884716500000003 14.8212825 35.979839500000004
18.1454125 21.0894245 14.9046025
17.8609115 15.1092515 32.6584925
21.0545385 21.248008499999997 18.0727185
20.8151095 17.9048935 21.049173500000002
18.192260500000003 20.992118500000004 20.7869805
35.8001765 26.894070499999998 20.680504499999998
18.134210500000002 26.796420500000004 21.0903755
21.156780500000004 20.774665499999998 23.976018500000002
21.080715500000004 18.153369500000004 27.003476499999998
17.7645075 20.992081499999998 27.017602500000002
20.921141499999997 17.8039105 15.1875735
21.1224115 21.026368500000004 11.9484235
21.039392499999998 20.803113500000002 29.7242825
20.8640445 18.125753500000002 32.9952345
18.0948475 20.7291035 32.8561495
20.9114335 20.798553500000004 36.0209575
20.931627499999998 26.997657500000003 12.2100715
17.8572385 14.8647295 27.0822085
20.865272500000003 23.754375500000002 15.1746755
18.0723635 26.7676985 14.9428335
21.2326755 12.0590525 26.938815500000004
35.9513655 26.708437500000002 15.049977499999999
20.873233499999998 26.842065500000004 17.7799785
20.870751499999997 24.035335500000002 20.7193265
20.8791935 15.0494985 30.0860585
18.0761185 10.5491705 29.8997465
11.0564805 23.9815555 36.8519955
29.918929499999997 10.5031325 17.944165499999997
11.0533555 10.9663915 24.0107005
10.9405775 23.8944295 11.0079015
36.872518500000005 18.069925500000004 11.0179075
17.9368475 36.8229115 10.9765865
10.6208795 29.8320345 17.9603655
10.6148305 17.934504500000003 29.879104499999997
23.997302500000004 11.0020375 11.0712185
10.5224085 23.991803500000003 24.0046965
37.284329500000005 18.010695499999997 17.9100385
37.2501095 29.8681645 29.925213499999998
36.8302325 10.9983475 29.9418115
18.0344215 10.5224545 18.0387245
23.885765499999998 17.9546255 37.3805605
18.0699235 11.001640499999999 36.9529015
11.090028499999999 11.0221465 18.0565145
17.9879325 23.9282075 10.4895535
10.9633695 29.8188835 36.867846500000006
11.0141705 17.935610500000003 10.9633525
23.9129425 10.6084145 24.0020655
23.9214805 37.405249500000004 23.905989500000004
29.922431500000002 10.647439499999999 29.954055500000003
17.991890499999997 37.2979525 17.929038499999997
18.048095500000002 18.0399435 37.3832785
36.8237905 36.9404345 29.829558499999997
29.8450955 17.9504095 37.2720385
29.8290985 37.3789045 23.8833025
29.9407165 29.9691745 37.3388095
18.0209895 37.3894185 24.029585500000003
10.9796625 17.9944695 36.8129635
37.2618575 18.0389515 23.9919535
36.8008235 29.906910500000002 36.833276500000004
17.913411500000002 23.8979565 37.3473125
37.248903500000004 23.9420365 29.9049555
24.0014545 11.0734075 36.9228175
29.8894345 29.895528499999998 10.6787425
23.9838175 10.6415565 29.895529500000002
23.935601500000004 29.9446485 37.385627500000005
36.9495025 23.931132500000004 11.0643195
36.8776265 18.076649500000002 36.9301075
29.894160499999998 37.254233500000005 17.925113500000002
29.951148500000002 10.6338445 24.0054535
18.045454499999998 37.2941715 29.8375725
37.3368525 29.915104499999998 24.037256499999998
24.008939500000004 29.9429715 10.5174855
17.9696015 18.039620499999998 10.5105645
23.9722535 37.3692045 18.0862325
36.9822715 29.943417500000002 11.0221385
11.031964499999999 29.854040499999996 11.0770105
30.165797499999996 29.602709500000003 29.990896499999998
30.169197500000003 29.819343500000002 24.2190545
35.5298845 35.7849755 18.2213165
36.0969555 36.0746915 24.176734500000002
29.7299645 29.4538315 18.0367325
36.2111885 23.8258315 23.842912500000004
36.30393350000001 29.9622805 17.7762995
29.680918499999997 35.5024705 29.635355500000003
36.0548445 24.100190500000004 18.317279499999998
30.2171825 35.678770500000006 11.9081355
35.5941575 18.3318265 29.709675500000003
35.4075575 23.787175500000004 36.131820499999996
35.4551955 12.4346505 18.100491499999997
29.864138500000003 24.232488500000002 18.3982945
29.4859065 23.8120025 30.313120499999997
18.275422499999998 29.587146500000003 35.4985615
18.237607500000003 30.0938985 29.455991500000003
18.057717500000003 30.244260500000003 24.1288925
17.8094875 29.5870915 18.273253500000003
18.2973935 30.1836975 12.0087605
18.268001499999997 23.6852825 29.990036500000002
18.572038499999998 24.012846500000002 23.8971315
18.0129725 24.3323125 17.6356835
18.176140500000002 18.1131665 29.582451499999998
17.6838345 17.873569500000002 24.377458500000003
18.0122775 18.252213500000003 17.7350265
17.7717235 11.8217495 12.534333499999999
11.8936125 35.2666065 29.959537500000003
12.1242305 35.566885500000005 23.5343575
11.6442765 35.5751775 17.9869135
11.6686635 30.0010335 29.8320055
11.6270145 29.631342500000002 23.787080500000002
12.3157625 23.7123165 18.4012965
11.6545905 18.246334500000003 17.6312905
12.3872015 12.2671155 30.294154499999998
29.6469205 24.0664345 35.6049695
18.076040499999998 35.4627495 35.9263345
23.615857500000004 11.8360065 18.314055500000002
11.9384155 23.538028500000003 30.004934499999997
23.778062499999997 18.014678500000002 18.478846500000003
24.3914435 17.6150995 11.929159499999999
29.741462499999997 24.3031965 23.5160385
29.857803500000003 23.7123445 12.355952499999999
29.6784855 18.0743675 23.563112500000003
30.151067499999996 18.2647775 18.217220500000003
29.6406955 17.7032265 12.2943885
30.3140055 12.372638499999999 11.8217875
23.649663500000003 36.2268295 35.7688245
24.1443265 35.4626755 29.9329775
24.3252995 36.3103105 12.1070555
29.971715500000002 18.462632499999998 29.7582875
23.781847499999998 30.2393625 23.5622465
24.1203165 29.804747499999998 29.327862500000002
23.630526500000002 18.2850855 23.874382500000003
24.3616545 24.2963005 18.2336965
23.543260500000002 23.5966375 11.8629145
24.249666500000004 23.7441715 30.1172155
24.1709575 23.926291499999998 35.5147035
24.2267735 30.0835475 17.704404500000003
23.7040055 24.3031645 23.860730500000003
23.6481535 18.421384500000002 30.182657499999998
18.269642500000003 37.6325455 24.967504500000004
30.111380500000003 18.957553500000003 35.4507745
29.019788499999997 17.731916499999997 35.462750500000006
37.2531655 10.9074375 30.9291675
37.6723685 30.114199499999998 25.003339500000003
35.488721500000004 17.7893295 18.9390085
24.9101475 35.4568865 18.232476499999997
23.6752575 35.4726485 17.0435575
22.882675499999998 10.2607995 29.8660535
24.536618500000003 10.2638665 29.040293499999997
35.4499055 17.256966499999997 17.3847335
37.728285500000005 11.3233105 29.229049500000002
24.4536875 10.2318295 30.8565495
18.9377005 35.501194500000004 24.1892755
17.3826655 35.469668500000004 24.643485500000004
24.921183499999998 12.4584785 29.9392895
23.4034385 12.4196335 30.7232275
36.2268495 12.9407295 30.294304500000003
23.4815775 12.3964965 29.0763235
36.4194505 10.060252499999999 29.486825500000002
17.7357275 35.4469085 23.0466585
16.9549755 37.6686755 23.7222655
37.6301855 28.9068125 23.630042500000002
23.245931499999998 35.5006975 18.6540745
18.7455315 37.6508265 23.2065305
35.046268500000004 11.8122115 30.5191085
29.654376499999998 16.959655499999997 37.6343345
30.903729499999997 18.2798065 37.6397945
37.506400500000005 23.056852499999998 11.1345855
36.3932355 23.921271500000003 9.9976535
37.484308500000004 24.8486385 11.076437499999999
35.21475950000001 24.7884995 11.9192195
12.1289765 17.0927195 12.4967035
12.9809615 18.2252735 11.6467945
36.2251855 23.970161500000003 13.0035215
35.285342500000006 23.1236745 11.9802235
11.8360865 18.6488455 12.7722935
10.9281975 19.034093499999997 10.5722265
24.1412725 37.688894499999996 24.958000499999997
24.7229015 37.6815245 23.2351655
10.0256645 17.6966155 11.4542605
11.2714625 17.2888905 10.226905499999999
22.936373500000002 37.6422155 23.6334345
23.7673975 35.439752500000004 23.017022500000003
23.236715500000003 35.4525505 24.5943235
37.4431395 28.9910255 36.808476500000005
29.1163405 18.7139065 37.6880195
35.466527500000005 12.2021375 28.9774215
10.0121855 29.876676500000002 11.5190395
11.1136515 30.834565499999997 10.3972245
17.0789445 35.4973735 18.1787395
30.574425499999997 17.3485065 35.4930085
18.360563499999998 35.471035500000006 17.089769500000003
18.9978585 37.6261685 17.7988915
17.673537500000002 37.6657005 18.967611499999997
17.328180500000002 37.6915785 17.2089365
11.117485499999999 29.0016125 10.4323625
12.988367499999999 29.928886499999997 11.6356865
24.892950499999998 35.4657975 24.251676500000002
18.6281045 35.5024625 18.714929499999997
37.5050695 30.754580500000003 36.7000395
17.823539500000003 11.4634195 37.8583815
35.258539500000005 30.7812895 35.8976345
18.6254075 10.261687499999999 29.049755499999996
23.5248105 10.1015755 11.4059085
29.6674025 35.502297500000005 17.0714745
18.363567500000002 10.2207405 30.8514305
18.9797285 12.4090655 30.0295525
17.4032645 12.4440615 30.690456499999996
17.6647205 12.4187165 29.030922500000003
28.890387500000003 37.631406500000004 17.6943345
25.004870500000003 10.8705875 10.7115795
23.371492500000002 11.3334805 10.1731195
30.0377995 10.2005275 16.9468955
30.735527499999996 10.2275225 18.5885855
28.9231335 10.2566015 18.4408885
29.8065415 12.4276555 18.9687385
16.961859500000003 10.2758445 29.760709499999997
29.1110465 12.3935395 17.4452505
35.511212500000006 30.780201499999997 24.2503485
30.6560865 37.6601785 17.2275985
18.729170500000002 12.7493255 35.9793185
36.4506615 17.6742115 10.049946499999999
37.269819500000004 18.998042499999997 10.9486905
37.6917325 17.313126500000003 11.2981095
36.224069500000006 18.235066500000002 12.9630485
18.1099045 11.6561905 34.9388145
30.138844499999998 37.63983150000001 19.0163485
35.4657015 17.0492275 12.1490355
35.1034245 18.657880499999997 11.8514325
17.071901500000003 12.5724925 35.8146255
17.2249355 10.3056065 36.647414500000004
18.998639500000003 10.5283865 36.8623435
30.742529499999996 12.423007499999999 17.627483499999997
24.544351499999998 11.7834155 12.8504465
29.1970605 35.4834605 18.647650499999997
12.9653855 11.6290935 17.725578499999997
37.664637500000005 30.638523499999998 23.270196499999997
35.4976945 29.1840265 24.5541105
35.1919505 29.0984975 35.9668185
36.2320205 29.8373835 34.9274155
24.2166255 37.6636685 18.9625165
37.6776215 24.9885995 29.617579499999998
37.6802135 23.691598499999998 30.923790500000003
35.4442955 18.881181499999997 17.6927575
22.9796835 37.6716745 17.7559235
37.6772605 23.219742500000002 29.188114499999998
35.4462095 23.048303500000003 30.1193495
35.5082905 24.2249605 28.960618500000002
35.4616405 24.655047500000002 30.5612755
37.6740495 18.809836500000003 18.6829245
37.690303500000006 18.208616499999998 16.996353499999998
37.6862355 17.0217065 18.366628499999997
29.5729885 30.8802095 10.2040825
11.8682235 12.819022499999999 17.3191845
30.793685500000002 35.4837375 18.264396500000004
22.9509945 12.2483415 12.3750895
12.1120585 12.5223965 18.9119435
10.0784215 11.4874985 18.2860085
11.3062395 10.274592499999999 18.7556405
36.3845835 29.910816500000003 37.893490500000006
10.9931345 10.5779275 16.9756645
35.5105105 29.729457500000002 23.0188975
30.558871500000002 30.631829500000002 12.3958605
28.9355555 30.085187499999996 12.3981985
30.175866499999998 28.9922745 12.4059735
29.1977575 29.086189500000003 10.2387185
30.936865500000003 29.713663500000003 10.2484305
24.3527365 12.9090595 11.6819535
24.7102115 37.6460045 17.2297055
36.290515500000005 18.081723500000003 34.9194935
24.515226499999997 12.4021125 24.7546555
10.226962499999999 29.036292500000002 18.652133499999998
10.2458305 29.755891499999997 16.9377745
12.4059495 23.014137500000004 24.181351499999998
12.3939705 24.181856500000002 22.991544500000003
12.4016615 24.6119805 24.5998765
10.2094295 24.9572505 23.665946500000004
10.268378499999999 23.7320145 24.9517765
10.2213255 23.1879615 23.254551499999998
10.2794195 30.8430555 18.4141495
35.4863585 28.987658500000002 30.236732500000002
35.500462500000005 30.1173135 28.9573495
37.6276025 30.8561385 29.592611499999997
37.6309765 29.097373499999996 29.213410500000002
37.6300825 29.694146500000002 30.894054500000003
23.001104500000004 18.2059275 35.4778655
24.5914275 18.750260500000003 35.4677955
24.266087499999998 17.0675165 35.4948375
24.9345925 17.7974745 37.6673775
35.4284805 30.6099345 30.5289115
23.266302500000002 17.246140500000003 37.6663495
12.449391499999999 29.9755125 18.9635325
12.4563435 29.0356775 17.618449499999997
12.6489025 24.7266305 11.9387715
11.6196705 24.029343500000003 12.9869725
12.5789005 23.0757555 12.0009885
10.3450545 23.094178499999998 11.153717499999999
11.4739385 23.9107585 10.0326135
10.4215335 24.850288499999998 11.0854465
18.445640500000003 36.2158135 12.931345499999999
17.0515615 35.5293895 12.2473565
12.381076499999999 30.6808105 17.428372500000002
18.5548755 34.997783500000004 11.767030499999999
19.058974499999998 37.152153500000004 10.7747995
17.3973685 37.7431135 11.362669499999999
12.440400499999999 17.2383965 30.465731499999997
12.4535875 17.885129499999998 28.935747499999998
12.4093775 18.8405055 30.283246499999997
10.269114499999999 18.8475525 29.314792500000003
10.2679145 18.064747500000003 30.957392499999997
10.2138095 17.068222499999997 29.4839645
17.5137255 36.4402185 10.1107925
10.1248605 11.4502905 24.3491595
23.583146499999998 18.959686500000004 37.6841875
24.5752485 29.178906499999997 35.4404325
35.3089795 17.1194275 35.838533500000004
35.172157500000004 18.7652315 35.9614495
12.0108895 29.0876345 12.671400499999999
37.4701545 18.939463500000002 36.8236575
37.5732205 17.143198499999997 36.6892695
36.4339415 17.898987499999997 37.871781500000004
35.3499445 30.7759315 12.0589775
35.1620465 29.105230499999998 11.909174499999999
24.9600995 29.9995885 10.2065495
36.2342615 29.7792825 13.0092325
37.5899785 30.758325499999998 11.2339685
36.3989215 30.0386065 10.0729905
30.246303499999996 12.4061645 24.8184665
30.450007499999998 12.426902499999999 23.2047125
28.9201745 12.4073435 23.862019500000002
29.4894825 10.2732365 23.007690500000002
29.306636499999996 10.2365315 24.7564505
30.903172499999997 10.216255499999999 24.078266499999998
37.4391285 28.923879499999998 11.0461265
24.2405015 30.843999500000002 35.4984375
23.5071905 28.9901475 10.219305499999999
22.9648805 29.792139499999998 12.4436505
23.0128415 29.728477499999997 35.4578915
23.587548500000004 28.8950495 37.6566655
23.224551500000004 30.691466499999997 37.6610755
24.9426075 30.136492500000003 37.650616500000005
18.1961235 35.509811500000005 30.834995499999998
17.1337745 35.4616335 29.578784499999998
18.7468625 35.4619165 29.296783499999997
17.7913875 37.6808235 28.908804500000002
23.3668275 30.723426500000002 10.2540085
18.976096499999997 37.6875755 30.2157025
17.7452905 17.0457975 12.4370715
18.9488415 18.277607500000002 12.4108305
17.277232499999997 18.6951105 12.417213499999999
18.2556955 19.032723500000003 10.2594885
16.9891285 17.676761499999998 10.2650235
18.7267335 17.2644725 10.2536255
24.478472500000002 29.0888785 12.445591499999999
24.377168500000003 30.7396795 12.4260105
17.236334499999998 37.6583995 30.558629500000002
22.971034500000002 12.4395565 24.0146655
10.8562285 10.730069499999999 22.907357500000003
12.9355175 11.6639275 23.5764585
29.512766499999998 29.0225675 35.4902445
29.3889895 30.6730205 35.4928925
30.878778500000003 29.9440325 35.4508865
30.314538499999998 30.8235095 37.6529235
30.449552500000003 29.0134835 37.6702125
28.8793425 29.8547535 37.6773055
18.143500500000002 24.8843745 12.3936815
17.1028905 23.649516499999997 12.3961285
36.4493175 37.809951500000004 29.616625499999998
18.7050785 23.342391499999998 12.442337499999999
18.996570499999997 24.2741435 10.2181505
17.2107295 24.633922500000004 10.2086865
12.8374125 18.5956385 36.1186655
12.415243499999999 17.0329355 35.7162695
11.6767755 18.3511325 34.9447425
10.2080625 17.356019500000002 36.5804185
10.6092645 19.0497095 36.9804565
11.4438275 17.6441765 37.8616125
17.776847500000002 22.9035255 10.2213355
35.4953875 18.401317499999998 24.8237735
37.309168500000006 36.991799500000006 30.9244945
36.2008145 34.9482925 30.1926555
24.3422495 12.4446275 23.0443645
24.9820505 10.2759475 23.835927500000004
23.338646500000003 10.1947555 23.087605500000002
23.492659500000002 10.212213499999999 24.881764500000003
30.2365135 12.417042499999999 30.752694499999997
30.4634425 12.4602155 29.1536745
28.9195055 12.3917035 29.7933485
29.511171500000003 10.2085905 28.923131499999997
37.6351165 36.5954405 29.1468075
29.2544435 10.2722625 30.7182775
18.911303500000002 18.1869735 35.4941345
17.6950935 17.1322905 35.4763525
17.3521725 18.7410725 35.444379500000004
17.019214499999997 17.7739805 37.6614675
18.2977755 19.0062455 37.6284885
18.694441500000003 17.1936635 37.6866195
35.1086425 36.040993500000006 30.530182500000002
35.4099535 35.7159055 28.948573500000002
30.954659499999998 10.2097625 30.0446605
11.3528675 10.1904275 24.577237500000003
35.4507945 18.5473085 23.1952145
37.6218755 17.5740555 22.989991500000002
30.442795500000003 35.454093500000006 23.1196525
29.4394395 37.6403575 23.000226500000004
30.9221205 37.6281545 23.995095499999998
29.3577685 37.633882500000006 24.8191955
18.465756499999998 12.4205285 18.8147065
18.536240499999998 12.3947545 17.192815500000002
17.0717645 12.3898415 17.9538735
17.506848499999997 10.2253365 17.041205499999997
28.9206315 35.4596695 23.919976500000004
17.424456499999998 10.2458385 18.8456665
12.6901455 23.104611499999997 35.9559335
11.6108385 23.873586500000002 34.9133735
12.591692499999999 24.7989995 35.9216635
10.4010385 24.8063505 36.7572865
11.4796105 23.985795500000002 37.886860500000004
10.4135595 23.005720500000002 36.8095445
11.7670545 12.850863499999999 23.4215345
12.2775185 12.3797975 24.9355265
19.0302485 10.2267235 18.075233500000003
35.4594445 17.0398575 23.8680405
30.3464655 35.477934499999996 24.8292795
11.1889445 30.6883585 37.562484500000004
37.6263545 17.371733499999998 24.765209499999997
37.629154500000006 19.009224500000002 24.075109500000003
17.4408045 24.762767500000002 35.4803025
18.9407415 24.0340675 35.4395805
17.5967475 23.107018500000002 35.4494475
18.6007295 23.0672925 37.6495985
16.918595500000002 23.870555500000002 37.652096500000006
18.456821499999997 24.898284500000003 37.6306225
11.0203785 28.908725500000003 37.4001445
24.5009405 12.840721499999999 36.1100955
23.0204485 12.3577395 35.6242495
23.3282685 10.1536545 36.5053275
23.4748885 11.4254815 37.8225615
24.955830499999998 10.732210499999999 37.0780645
13.0051045 29.732577499999998 36.2452125
11.9230365 29.1181015 35.175258500000005
12.076919499999999 30.795373499999997 35.3509475
10.0334875 30.043263500000002 36.4388445
24.392039500000003 11.6824105 34.96929050000001
11.9959005 30.693233499999998 12.6578605
12.0019825 29.977076500000003 35.8050735
35.8876215 17.9117485 35.8811535
29.9615285 35.8380185 24.025426500000002
12.0442965 12.1148545 18.031378500000002
17.9683115 12.0869575 18.0785445
17.9253055 35.8360125 29.8912385
29.9663915 29.9092725 12.0664245
29.864489499999998 12.010009499999999 18.0729945
12.0007395 12.1132705 23.925127500000002
12.0810995 23.891890500000002 11.9938285
23.867627499999998 29.905474499999997 12.0790665
35.825221500000005 18.054109500000003 11.9887725
17.938464500000002 35.7972315 12.0875085
29.825295500000003 35.8201405 17.929232499999998
17.9215145 12.0617015 29.833482500000002
12.1091215 23.9112785 35.9257885
18.067662499999997 23.991415500000002 35.912037500000004
35.7873905 23.866172499999998 29.9111695
23.932193500000004 12.1228975 24.0088025
35.7860285 23.8731455 12.029180499999999
23.899424500000002 35.7957395 23.872003499999998
29.852335500000002 12.040345499999999 29.832510499999998
29.8578465 12.0066165 23.883343500000002
17.9063535 35.8905515 18.0297695
18.020208500000003 18.049474500000002 35.8933405
35.8937075 35.797843500000006 29.836465500000003
23.8720705 12.0971465 35.801389500000006
29.982769499999996 18.048626499999997 35.8211705
11.9979785 29.894180499999997 12.1021135
24.004464499999997 12.1105775 29.8825485
17.940738500000002 23.868494500000004 12.0301525
35.8795955 29.9394415 12.0996645
17.962883499999997 35.8706885 23.859894500000003
12.0968035 17.928396499999998 35.8293045
35.8499435 18.0662875 23.997288500000003
35.877437500000006 29.844545500000002 35.78036650000001
29.849922499999998 29.897633499999998 35.9374095
11.9638305 18.049490499999997 29.859928500000002
23.945189499999998 35.8614885 18.077135499999997
18.0319655 12.0021415 35.79391450000001
35.8668985 29.949527500000002 23.9995075
12.0579625 23.904056500000003 24.002978499999998
17.9516705 17.9517765 11.9996855
23.8725875 18.0465305 35.89746950000001
12.0810415 17.934571499999997 12.0769565
11.9768965 29.961738500000003 17.959725499999998
23.9108115 29.825405500000002 35.8617635
24.000556500000002 12.026664499999999 11.9939645