1_train/22_cspbbr3_methylammonium_3_0.40\22_cspbbr3_methylammonium_3_0.40.xyz
1.0
41.894957000000005 0 0
0 41.894957000000005 0
0 0 41.894957000000005
Br C Cs H N Pb 
108 19 35 114 19 27 
Cartesian
26.774738499999998 14.9047875 17.855186500000002
29.9726535 15.1760385 20.7409795
24.123450499999997 14.9220885 14.7898055
29.6739525 15.1641925 26.8648295
26.735867499999998 14.9701995 11.8011325
29.9187455 20.802417499999997 15.0998735
20.8379045 30.000997499999997 27.007071500000002
21.1978055 30.0032085 20.985769499999996
21.1066485 30.074383500000003 15.0779225
26.839870499999996 11.8093335 20.850950499999996
26.9167445 11.836738500000001 15.0550175
21.0995835 26.7633565 29.9972725
21.1551325 23.957967500000002 27.016358500000003
21.005599500000002 26.7508055 23.772977499999996
30.0491355 20.9920725 26.8627465
29.696062500000004 27.0079105 14.8938025
18.041509499999997 26.7824265 20.8108315
21.065504499999996 23.829918499999998 20.838460499999997
20.811051499999998 26.8881845 18.1961735
29.9927255 26.684828500000002 21.0881545
29.9215745 27.047531499999998 26.782987499999997
17.8525075 27.0196585 15.091789499999999
20.820994499999998 24.0440665 14.8384915
18.108230499999998 26.838505499999997 26.7575135
24.072177500000002 15.0409895 20.7223995
23.752630500000002 27.0157885 20.8021935
26.746694499999997 15.1570465 23.8437785
27.1229265 23.7308995 20.981851499999998
26.9298705 26.9273205 17.711088500000002
26.919430499999997 26.720048499999997 24.0253125
23.893842499999998 26.8206675 15.1800145
27.119102499999997 23.8279225 14.955092500000001
27.005233499999996 27.074326499999998 12.0893205
26.680713499999996 23.8426715 27.071797500000002
24.046654500000002 27.041746500000002 26.896891500000002
26.761641499999996 21.106736499999997 29.8126995
24.0590495 20.918046500000003 27.049268499999997
27.0899255 18.115050500000002 27.018623499999997
26.944750499999998 21.1903205 24.0523685
26.6834215 26.874672500000003 30.034366499999997
23.727101499999996 20.955907500000002 20.8997265
27.088133499999998 18.0512685 21.141231499999996
26.9382915 20.784212500000002 18.038182499999998
20.764953499999997 26.949450499999998 11.905535500000001
27.0942485 29.7396125 15.1715085
23.867866499999998 21.115202500000002 14.7635065
26.8470035 18.096909500000002 14.8734925
26.8121565 20.8755965 11.7867885
26.8982515 30.047931499999997 21.0428365
26.918662499999996 14.9941125 29.625231499999998
23.9192435 15.0490735 27.1000405
26.885903499999998 11.8669055 27.020934499999996
30.093230499999997 15.0694275 15.0599075
26.7099415 29.8701685 27.0606785
29.778780500000003 20.828399499999996 20.766031499999997
21.1177025 20.9744965 29.7040595
11.8955255 27.0247315 27.022318499999997
15.230439500000001 23.976805499999998 26.740027499999997
14.7990945 26.8927495 23.853095500000002
11.9774685 26.7940355 20.687444499999998
15.0237085 23.7596115 21.1435315
14.8064315 26.7289795 17.904441499999997
12.0196625 26.967304499999997 14.8276395
15.222763500000001 23.9283425 15.1248755
14.8388215 26.7872105 11.7930875
14.8592595 21.0734875 29.7208385
11.7882525 21.090751499999996 26.996610500000003
14.8830245 18.061221500000002 26.715089499999998
14.8524635 21.0906595 23.931819499999996
14.8702475 27.023751499999996 30.0829515
12.2032775 20.844252499999996 20.7648825
14.9858115 21.0595285 17.8232785
11.7533185 20.949923499999997 14.9419625
15.0581765 18.0002115 14.7731905
14.721574500000001 20.9261015 12.077486500000001
14.819278500000001 15.0131265 29.7385095
12.0782805 15.1750655 26.9816455
15.1529135 12.2579895 26.8599625
15.149805500000001 14.9909455 23.7214265
12.2221515 14.882756500000001 21.106444500000002
14.8880385 11.9226025 20.839307499999997
14.9867375 15.1761835 17.777753500000003
11.763315500000001 14.9410845 14.9391775
15.1783615 12.1537335 14.9548695
15.0036015 18.128361499999997 20.817254499999997
15.019631500000001 29.8789995 14.7985435
15.0436125 14.8543395 12.2666145
18.1300495 14.8687985 27.071498499999997
20.800171499999998 20.8308375 11.8062455
18.0530575 20.8194995 20.7988455
21.1307555 20.7654285 17.946209500000002
20.7750195 17.8433385 21.034063500000002
21.046764500000002 11.8191425 26.812363499999996
20.8277315 15.1054385 24.1107175
21.1135515 17.895909500000002 15.0190455
18.135923499999997 15.140031500000001 21.1318975
21.057638499999996 14.9571775 30.0609685
21.068040500000002 17.8686675 27.0833565
21.084908499999997 11.9807515 21.0574455
18.1086155 20.824979499999998 14.9657005
20.791923499999996 14.7849915 17.8463285
17.911913499999997 14.9225835 15.1789535
20.946186499999996 12.0420135 14.7312165
15.1030245 29.7281125 21.0885325
20.9517885 14.7291845 12.0230675
15.0828825 30.092670499999997 27.001670499999996
18.115539499999997 20.799634499999996 26.6916655
20.940748499999998 21.140651499999997 23.7581645
17.9558215 17.908559500000003 31.282354499999997
18.0132585 30.949391499999997 30.989653500000003
18.036897500000002 10.4970755 18.037805499999997
23.8725685 10.6082595 23.884291499999996
17.9223115 10.5854885 23.9753915
10.580320500000001 17.8914265 23.8570305
23.875350499999996 30.959163500000003 30.9955755
10.9395875 11.0210445 23.874025500000002
31.3117705 23.848656499999997 17.953180500000002
10.9740455 30.9492075 23.854310499999997
30.9331185 30.823373500000002 23.888121499999997
17.9075115 11.0200405 11.0083615
23.988336500000003 10.9665185 11.0325945
23.8538565 17.9874515 10.4799865
23.855264499999997 10.9579775 30.8401395
30.865429499999998 24.0015985 30.883399500000003
30.878037499999998 10.9400325 17.9035225
23.904444499999997 31.301168500000003 18.060446499999998
17.9074905 31.3402405 23.8649275
17.8189535 23.648919499999998 23.7169095
17.7225105 18.222975499999997 24.096149499999996
18.069641500000003 23.7052745 12.5189785
11.9142935 29.4145995 17.898709500000002
18.382521500000003 23.613437499999996 17.981531500000003
29.498292499999998 18.108033499999998 18.389903500000003
29.8071925 17.555992500000002 23.6764855
11.6041785 12.2734855 18.258179499999997
30.0468885 17.5781535 29.574026500000002
30.171870499999997 24.1926815 12.2788755
29.4818165 23.7804675 23.8504485
30.249235499999998 29.5717365 17.668243500000003
29.756451499999997 18.3565385 12.3047175
23.8021775 30.1344105 11.7864925
30.2562985 12.0259395 23.797318499999996
24.231506500000002 23.4831345 29.6339605
11.6630895 24.0162135 29.8236875
12.4002385 18.252505499999998 12.1239755
24.2420265 18.059918500000002 18.169096500000002
12.1135765 24.177862499999996 23.5050945
24.067122499999996 11.7028415 17.5677655
23.847455500000002 17.748735500000002 24.218635499999998
24.398788500000002 17.6419115 29.738729499999998
23.7219725 24.245799499999997 11.7445765
12.0655055 23.3382845 11.879127500000001
12.3292425 24.218514499999998 18.1395055
17.8101215 12.3678045 29.538425500000002
11.822943500000001 17.6701185 29.634206499999998
24.0877725 24.1762285 17.6966045
17.871066499999998 29.4125735 18.110791499999998
18.1375295 18.080954499999997 12.5990555
17.8215025 30.2069445 12.3472405
18.2812955 18.2975395 17.9957835
24.1003155 24.1846695 24.185618499999997
17.9380025 24.226747500000002 29.6532225
24.927409499999996 10.207850500000001 24.0427125
11.2362045 31.671291500000002 23.183904499999997
24.347182500000002 31.684746500000003 16.993475500000002
22.9225555 31.6877105 18.1412955
10.9523675 31.352258499999998 24.952298499999998
10.0322075 30.4665095 23.7153085
24.898337499999997 29.4806295 17.8356365
23.533840499999997 29.4857545 18.8373895
23.354355499999997 29.4714175 17.2408155
24.5439395 12.4093465 23.1562925
23.0075135 12.3689345 23.780967500000003
23.551987499999996 10.2394355 22.942221500000002
24.300126499999998 12.3681525 24.8124965
23.2821395 10.2427025 24.7161435
24.5381645 31.700776500000003 18.7780705
12.9231425 30.275898499999997 24.1034175
31.679021499999998 23.165690499999997 18.699467499999997
11.8486515 29.1388065 24.596594500000002
24.8465445 12.4660865 12.1035245
28.919695500000003 30.250719500000002 23.8316885
24.725055499999996 10.2712425 11.2512305
24.1689785 11.4543255 9.9960025
22.9236985 10.4971885 10.945052500000001
29.532044499999998 22.988991499999997 17.6705865
29.485054499999997 24.139160500000003 18.933572499999997
29.4610275 24.6611385 17.3252595
31.684897499999998 24.946808499999996 18.313871499999998
31.697134499999997 23.6807745 16.948282499999998
17.0112855 29.4687185 24.074962499999998
18.3524795 29.4722255 23.051801499999996
18.569573499999997 29.498225499999997 24.7161095
12.0823385 29.384843500000002 22.967757499999998
19.0207815 31.6536045 23.8054335
17.3604725 31.7002175 23.071886499999998
17.4603605 17.1601025 29.4712635
17.540560499999998 18.868016500000003 29.4846335
18.899350499999997 17.9099085 29.4804465
18.576215499999996 18.8149235 31.708408499999997
18.416987499999998 17.016437500000002 31.698111500000003
16.957677500000003 18.046139500000002 31.7138425
29.8890965 12.5866895 18.857440500000003
29.939384500000003 12.6498185 17.1887355
28.924856499999997 11.5827825 17.9555505
30.784771499999998 10.4316155 17.0458875
30.783784500000003 10.3408765 18.855658499999997
31.927164500000003 11.4739975 18.0221415
17.621142499999998 31.6873565 24.8755155
30.0246585 29.218652499999997 23.1855135
12.4067215 17.061192499999997 24.007861499999997
31.8498905 30.442966499999997 24.0618805
24.0847015 30.293552499999997 28.9688845
24.6209365 29.149860500000003 30.0288095
24.907528499999998 31.3521085 30.9147555
23.720133499999996 30.3929445 31.877852500000003
23.1068865 31.613522500000002 30.661457499999997
12.3739555 18.3475575 23.0663325
12.3981305 18.524862499999998 24.6632605
10.2527975 19.008309500000003 23.8140705
10.2395065 17.5196045 24.846255499999998
10.1867015 17.3547525 23.076302499999997
17.0238245 29.4064215 29.7681445
18.2145005 30.279864500000002 28.922968500000003
18.677234499999997 29.151627500000004 30.0616925
18.9907585 31.318099500000002 30.992717499999998
17.696009500000002 30.467825500000004 31.8468735
17.209452499999998 31.652769499999998 30.643713499999997
17.0265925 12.4667595 12.0902565
18.2122795 11.6142585 12.9748225
18.640088499999997 12.7587095 11.8342395
18.991155499999998 10.5191755 10.9724925
17.7221555 11.4912395 10.049305500000001
17.1865765 10.2631305 11.2355555
30.306479500000002 24.040184500000002 28.949313500000002
29.365674499999997 23.0378525 29.870993499999997
29.2406305 24.689251499999997 30.0137705
30.384297500000002 23.803959499999998 31.8744345
31.4995275 24.875023499999998 30.855110500000002
31.5514845 23.0806605 30.689949499999997
23.6787675 11.6300195 12.9321545
23.0367635 29.405272500000002 29.850235499999997
29.8842505 29.332041500000003 24.847603499999998
10.1519855 11.3390275 23.3489735
10.7385745 10.786635500000001 24.970614499999996
30.719984500000002 31.571684500000003 24.762953500000002
30.8648125 31.405541499999998 22.9390005
17.4621135 12.3773405 24.7399785
18.9141185 12.3874215 23.8965045
17.4588915 12.3975115 23.1148715
18.491749499999997 10.1821675 23.0120565
16.949174499999998 10.1908735 23.943234500000003
18.520691499999998 10.1939345 24.811226499999997
17.554005500000002 12.4191015 18.812462500000002
18.8883375 12.3955715 17.9316885
17.491850499999998 12.3920235 17.192297500000002
18.4711255 10.2528845 17.0628485
16.9287555 10.2358815 17.9768745
18.4828435 10.2105125 18.8593865
24.9012945 17.9352535 12.4243695
23.4639945 18.822002499999996 12.3633305
23.4364845 17.1452015 12.3539305
22.884446499999996 17.9527635 10.2347395
24.4559865 17.0747145 10.2300405
24.4335965 18.884933500000002 10.2016475
24.857698499999998 12.2380605 29.567944500000003
23.4393015 11.7107125 29.005686500000003
23.505669499999996 12.8575225 30.1949545
22.8498705 10.7943535 31.1612655
24.4460245 11.3860385 31.767090500000002
24.4176585 10.1216045 30.486025499999997
12.3577955 12.2380635 22.952662500000002
11.7150015 12.8936235 24.3506875
12.8788835 11.6951365 24.4490725
11.364252500000001 10.1066095 23.4288745
23.2160365 12.7082305 11.8320345
12.0628995 12.0808035 23.9849685
23.966063499999997 17.9104145 12.0067115
18.0367045 17.8987105 29.8980205
23.9357245 12.1177975 29.9017665
18.0114255 11.9443085 17.967380499999997
29.913059500000003 12.0535505 18.032700499999997
23.9019165 29.831008500000003 29.926596500000002
12.0815635 29.8051355 23.9120725
23.8682065 29.9349805 17.9395745
29.8366605 23.9563495 29.819101500000002
11.9561065 17.9225845 23.884738499999997
29.947522499999998 29.8993605 23.852881500000002
23.905291499999997 11.9249055 23.911606499999998
17.9016395 12.0319505 23.8646185
18.030938499999998 29.8544105 29.950317499999997
23.8819535 11.9546605 12.0814695
29.9422335 23.877376499999997 17.9980385
17.9388935 29.7946295 23.915972500000002
17.9441815 11.941544500000001 12.0594645
14.9253055 14.9164425 14.7728855
26.6685905 27.069967499999997 15.037067500000001
15.2184145 26.734472500000003 15.0543975
14.6601195 26.960424500000002 20.976907499999996
26.937464499999997 20.912392499999996 27.1355985
26.708220499999996 21.1377405 20.955236499999998
27.1417395 21.027359499999996 15.0253455
21.007417500000003 14.7433645 14.8126435
26.822610499999996 14.8907655 26.6827745
21.0448035 14.8665805 20.6519615
26.7405945 14.8751175 20.852338500000002
20.7066575 15.0796255 27.0581625
26.663070499999996 15.0680005 15.2302685
21.0761235 20.756294499999996 14.7643655
20.824799499999997 20.8573715 20.753449500000002
21.0307765 26.8996815 26.6939815
20.618447500000002 20.9336925 26.9372975
21.1182085 27.207044500000002 20.885923499999997
26.908477499999996 27.2175485 20.9194485
14.969229499999999 21.1946505 26.8138955
15.213912500000001 26.719061500000002 27.073457499999996
20.6945275 26.9656915 15.1803175
15.2104235 20.884998500000002 15.160778500000001
26.801556499999997 27.1538215 26.754450499999997
15.0628025 14.9346595 21.2139095
15.2114875 21.1615665 20.916354499999997
14.725590500000001 14.9575535 27.0645095
