114_cspbbr3_methylammonium_5_0.20\114_cspbbr3_methylammonium_5_0.20.xyz
1.0
53.782947 0 0
0 53.782947 0
0 0 53.782947
Br C Cs H N Pb 
450 28 172 168 28 125 
Cartesian
30.0375625 26.9295635 32.7760825
33.0283885 24.041766499999998 32.8813425
24.0110195 32.902460500000004 33.093551500000004
30.0452945 14.9722095 20.7368725
29.8728845 26.7425335 26.735891499999997
26.9479805 32.794576500000005 35.639486500000004
26.9855165 29.8066565 33.0298235
26.800618500000002 29.9609145 38.92574450000001
26.9891905 41.9890015 26.878701500000002
32.8245385 23.7050575 27.088852499999998
32.6581835 27.068851499999997 24.0335935
24.1274455 32.6816995 38.8570845
27.0918455 32.7194985 41.7343135
29.8208265 27.0891585 20.8430785
33.0027215 24.009349500000003 21.028826499999997
27.065209499999998 41.799366500000005 32.993703499999995
26.7187575 32.792013499999996 29.7111505
32.999084499999995 11.9895535 38.6211715
32.7449645 26.6290215 17.9913485
23.8322425 32.8309895 14.8120925
29.7382015 14.8863585 14.9116735
26.9199065 32.8145185 18.164461499999998
32.8585425 29.9211935 21.1513485
32.946402500000005 32.698263499999996 18.0949875
26.7446965 29.7794355 21.0862715
32.7937635 14.8655305 12.2007695
24.0675425 32.9354275 20.7902865
29.6680915 32.7044545 14.8727515
32.853812500000004 11.8372615 20.7523855
32.9059245 30.0201865 15.1719765
26.944622499999998 41.7999865 38.54603850000001
26.837414499999998 33.0223145 24.0022165
33.067122499999996 26.9868345 41.623444500000005
26.7593615 29.9472615 26.7060865
23.6962035 32.870731500000005 26.9011845
32.8744195 14.8557485 18.149296500000002
30.0308795 26.9003585 38.96442950000001
32.6709285 23.974206499999998 38.985504500000005
32.9314615 27.021355500000002 35.6887145
32.7333415 32.7535935 11.8594425
32.9586115 15.2001715 23.8709595
30.0174175 26.6684205 14.963967499999999
27.0304845 38.9387215 12.1585415
29.6460005 32.7883015 21.066059499999998
32.858920499999996 18.1231955 26.7559785
33.043777500000004 20.7950515 23.7591115
30.0817945 15.0612605 32.7987515
26.7530775 38.927173499999995 29.9792125
30.0799465 20.9502085 21.0983935
32.6913675 17.7837395 20.855009499999998
32.8780115 20.9269845 17.6903395
26.6613295 35.7667295 32.6691045
24.1016175 38.949346500000004 38.905341500000006
30.0168975 21.122380500000002 14.8874645
32.7772345 17.7794405 15.1438085
26.7892465 36.01364050000001 38.604447500000006
32.620521499999995 20.7905625 12.1115765
23.7100715 38.8575065 32.811488499999996
33.054657500000005 15.1830175 41.771245500000006
26.7773215 38.7188245 35.6955325
29.7058885 14.9062125 38.7788285
32.9170235 14.9082205 35.994986499999996
29.5992245 20.9921525 26.9332915
23.9164195 38.6423985 26.7494335
26.6962405 35.8938665 26.8721765
33.0508995 11.9736485 33.001313499999995
32.977138499999995 24.0601435 14.8456555
26.6575295 35.948997500000004 15.0204295
23.7306235 38.966896500000004 14.9172975
32.805443499999996 12.0642595 26.6630305
32.979879499999996 26.871329499999998 11.799642500000001
29.6867235 14.9719685 27.0844845
32.9290655 21.1203635 41.895058500000005
26.8014875 39.0183505 17.9552935
29.8566105 21.0718305 38.951389500000005
26.7486745 41.692933499999995 21.0896765
26.6193585 35.754664500000004 20.845021499999998
32.9677705 17.8596355 38.7195675
24.128469499999998 38.7981805 20.9134715
32.8822925 21.1342265 35.7752435
26.8777075 38.988042500000006 41.969620500000005
29.9990995 20.783917499999998 32.7922035
32.676914499999995 14.8806355 29.9209515
26.7994575 39.007718499999996 24.019371500000002
32.9783105 17.9969675 32.5971775
32.8031905 20.9517555 30.1619665
26.7216215 41.753780500000005 14.8507505
33.017906499999995 12.1071155 15.0359225
32.807139500000005 38.72845050000001 35.607575499999996
32.8208895 30.0574405 26.9752975
38.9702935 38.795300499999996 29.7346465
35.9469335 38.81809750000001 26.7401105
38.9874415 35.831511500000005 27.0291465
38.62564950000001 38.885876499999995 23.739862499999997
36.0408575 38.746907500000006 20.8852205
38.95880150000001 35.840674500000006 20.8378585
38.691319500000006 38.6484535 18.0268655
35.968826500000006 38.852588499999996 14.8346485
38.597992500000004 35.683766500000004 15.0598055
38.569151500000004 38.82903950000001 12.0881865
38.6852375 33.0665435 41.860543500000006
35.9708425 32.6439605 38.8166645
38.9266935 29.7475985 38.9564805
38.7967065 32.6565685 35.79272950000001
35.961132500000005 33.056132500000004 32.9550865
38.8699455 29.6996995 32.9762075
38.8964165 32.5681055 29.9220275
35.918214500000005 26.6936195 32.6767185
38.8414825 26.7802875 35.6222035
38.97573750000001 24.1212105 38.6998595
35.7455655 26.7016475 38.8800425
38.7359555 27.0528855 41.857035499999995
38.83400350000001 32.8563495 11.7310865
38.795458499999995 35.610549500000005 33.0314785
38.5680205 29.9009455 15.0377565
38.93577450000001 32.9628875 17.8483395
38.6428195 29.9134125 21.123012499999998
35.81468050000001 32.6270045 21.1485455
38.6432245 32.7329215 23.7810555
38.6807115 29.9654465 26.7750695
35.6711595 32.7385935 26.9832945
35.8646885 33.005598500000005 14.8502785
35.5739605 38.93185750000001 32.892028499999995
38.975080500000004 38.689197500000006 35.935706499999995
38.6141885 35.715545500000005 38.817428500000005
41.95826650000001 26.9863345 20.9254685
41.9153575 26.8221495 27.0474265
42.0069675 26.910780499999998 32.909679499999996
41.8377005 26.9688755 38.98176050000001
41.843021500000006 32.6238635 14.8568135
41.6717185 32.9771545 21.039582499999998
41.655347500000005 26.8287485 15.1732515
41.7394065 32.5978825 26.8862805
42.0072105 32.6856005 38.7425525
41.655842500000006 38.5928375 15.1277835
41.678683500000005 38.6870485 20.8006305
41.619992499999995 38.93720450000001 26.739151500000002
41.85116550000001 38.76762050000001 33.0474105
41.7894065 38.6191915 38.8838205
41.9555725 32.7301815 33.0011315
38.8089025 23.977932499999998 33.1031785
41.7205015 21.1850835 38.8224235
41.729245500000005 20.805483499999998 26.7090425
35.774480499999996 38.9303175 38.5520805
38.9467245 38.9026645 41.902251500000006
38.949169499999996 41.645401500000006 15.1618595
38.9493045 41.517013500000004 20.9657885
38.961907499999995 41.9853605 26.989555499999998
38.720537500000006 41.7401665 32.6625815
41.963592500000004 21.1307375 32.8034315
38.7205105 41.6967925 39.0200495
41.8385435 14.9767335 21.2302735
41.673689499999995 14.9689535 26.6786895
41.5797285 15.0513665 32.6453215
41.550886500000004 15.0523685 38.754493499999995
41.9220895 20.803182500000002 14.8187745
41.9052145 21.045710500000002 21.0193915
41.8996705 15.1272445 15.014077499999999
32.6645725 33.0219155 23.767944500000002
38.5794825 26.7400065 29.9132875
38.6274595 24.0236765 27.038403499999998
35.9796645 14.8965255 14.9826285
38.9138995 11.8985305 14.9258795
38.8101305 14.7869495 11.9882905
32.7570165 41.58309250000001 38.6912095
32.775718499999996 41.5903505 32.664345499999996
32.700522500000005 41.64588450000001 26.857553499999998
32.7905825 41.598592499999995 21.112783500000003
32.6580655 41.9365985 15.0288075
32.8058515 38.52367650000001 41.894495500000005
29.6530715 38.988571500000006 38.7903075
33.0359555 35.7656655 38.6297175
29.7417315 38.9540715 33.0539115
32.932387500000004 35.920246500000005 32.6888925
32.9018215 38.780060500000005 30.1141115
29.7364085 38.684042500000004 27.0847415
32.7371015 35.7101775 27.096884499999998
32.7074245 38.667790499999995 23.9319195
30.0533935 32.7661925 26.772993500000002
32.997448500000004 33.0081585 29.9784965
32.7824665 30.0358585 32.7559235
29.9796695 32.9674225 32.9393955
32.709053499999996 32.6180025 35.677544499999996
32.6743335 29.6788575 38.771043500000005
38.647060499999995 15.1729425 17.9862855
29.9180765 32.6847905 38.941323499999996
32.7256195 38.9647095 12.1287185
32.6449975 35.945021499999996 15.0930475
29.9948145 38.8639345 15.136599499999999
33.014700500000004 38.94565850000001 18.0122185
32.6657315 35.954890500000005 20.7896805
29.6630935 38.72326150000001 21.1213825
32.8426275 33.0019935 41.58189350000001
38.9948735 11.9579995 21.1035945
35.59747850000001 15.0198565 20.8043565
38.8776175 15.1333875 24.0004575
38.5623805 20.8774005 29.8948625
38.97782550000001 18.0842345 32.8705895
35.736307499999995 21.1898885 32.794017499999995
38.7729925 20.8839775 36.0074905
38.6152465 17.9102125 38.768487500000006
35.8323015 20.9203905 38.530165499999995
35.752930500000005 21.2245815 26.9415535
38.6306855 21.0934425 41.59902650000001
38.790664500000005 23.803345500000002 14.7725305
35.9649725 26.7305935 14.842430499999999
38.8044565 26.8551565 18.1561135
38.8632125 23.7149115 20.7708315
35.9864855 26.9944995 20.7567635
38.9770125 26.7145895 23.9656845
38.7537645 26.652068500000002 11.9217375
35.7061935 27.0059025 26.7910005
38.857699499999995 17.9864715 26.7000115
35.7867605 20.8195225 21.092616500000002
38.708783499999996 11.8717175 26.7502685
35.9561975 15.2139385 26.960870500000002
38.5257515 15.0083555 29.9571445
38.620887499999995 11.9285695 32.9556565
35.70386450000001 14.8401835 32.9254875
38.7250135 14.9007465 35.603958500000005
38.802111499999995 20.744908499999998 24.135759500000002
38.81859850000001 11.8059355 38.6550675
38.7170395 14.8062305 41.7984215
38.86362750000001 20.7653145 11.8902495
38.8558625 17.8381405 15.1294875
35.5845525 21.0647185 15.0566175
38.5499255 20.8798595 17.9650905
38.56421950000001 18.0677435 20.8138845
35.6774255 14.9487715 38.592960500000004
26.8627605 29.8070365 14.7640765
32.7270945 26.7407355 29.8829315
15.0142425 23.7740875 27.050241500000002
15.1613365 21.117607500000002 41.7451315
17.8198115 26.8675035 20.8286455
20.9628045 23.717294499999998 20.8304795
21.0220755 27.0521725 18.0235465
14.9266735 27.0382775 12.1818875
17.9113045 26.6557005 14.9612665
21.1212995 24.0243165 15.1042675
21.0464175 26.7626935 12.0911575
15.1627315 24.1020125 15.0721915
11.9140125 26.7310825 15.1604235
20.8077185 21.0176055 41.9024445
18.079310500000002 20.7688645 38.9807095
21.0765335 18.0097055 38.535317500000005
20.8644325 20.7549505 35.623320500000005
15.0647175 27.0941945 18.0651895
18.0344375 21.1195555 32.7890315
14.8051975 23.7755135 20.8192655
21.0515775 18.0655875 32.6835305
20.815986499999998 21.0564225 29.6717875
12.0512155 26.6959345 20.8691565
17.9425735 21.047538499999998 26.6201145
20.880515499999998 18.1416565 26.6561095
20.801222499999998 20.9423995 23.7148605
14.9585545 27.1640825 23.940741499999998
26.9476665 33.067963500000005 11.9894445
17.710272500000002 21.0044795 21.043163500000002
12.1747175 26.7656095 26.6958585
20.7932715 26.8612735 23.8117515
20.9840695 17.743291499999998 21.0619505
20.902945499999998 24.1488795 26.7213025
11.9790315 21.0886775 38.6013545
14.8961855 21.013322499999997 23.7616595
17.9305775 32.6795355 32.687456499999996
21.1967915 29.8457785 32.7725055
21.0193755 32.9583995 30.0659275
15.0960315 18.1016775 26.7086055
17.8833275 32.6448285 26.9407845
20.970962500000002 29.7165485 26.709080500000002
21.0021035 32.6471475 23.9969445
15.1730955 30.0339865 38.80693550000001
18.1496195 33.0388905 20.8379705
21.1286195 29.8212295 21.0763875
20.9904565 33.1137585 18.0289885
17.8937745 32.660968499999996 14.8031135
20.9885795 29.8275945 14.7297375
21.1000605 32.9784775 12.0031765
15.1572255 21.1010045 30.0105055
14.8446915 17.7731855 32.728592500000005
20.851809499999998 26.846873499999997 41.6004755
12.0762245 20.7915745 32.7079425
18.1442805 26.9337665 38.9993695
21.0616795 24.1248435 38.7555895
14.7567845 20.8488075 35.6992015
21.1361175 26.694470499999998 35.783201500000004
15.1384835 18.109737499999998 38.685190500000004
18.1271525 26.9791655 32.9139435
21.0363675 24.0433535 32.9753665
20.8203955 26.7566545 29.6818495
18.1504155 27.0634315 26.8451625
20.7431455 20.954608500000003 17.7750365
14.9760685 26.8898355 30.0498115
17.7583365 20.9313675 15.0614735
15.1295745 29.9941805 21.0664665
15.1573135 41.664908499999996 14.9096115
14.7555005 38.729369500000004 41.8798855
11.7627235 32.9956215 20.9230835
14.8029255 32.8160585 23.848294499999998
11.9515455 38.914037500000006 38.9778285
14.8965035 36.07327050000001 38.88497650000001
15.2547655 38.84928550000001 35.78402150000001
14.9940535 29.9780245 26.664264499999998
11.9328995 38.62476050000001 32.944860500000004
15.0185245 35.6323175 32.7798235
14.9846415 38.7836295 30.0865435
12.1115495 38.587667499999995 26.7931715
15.0891485 35.6385705 26.7069855
14.8955545 39.053704499999995 23.9933115
12.1509375 32.974048499999995 26.9954435
12.0726765 38.6173685 20.8256195
14.9635035 35.549668499999996 20.9824395
15.1405875 38.812822499999996 18.0980165
14.8092855 32.6545275 29.9053215
11.8976745 38.6703785 14.9052165
15.0402305 36.09998350000001 14.9861685
14.867853499999999 29.7661615 33.0358705
14.9325005 39.0075885 12.0430965
12.1127155 32.7941835 32.6885125
15.0662035 32.891915499999996 41.5116525
11.9608005 32.7523185 38.63183050000001
15.1578605 41.843802499999995 21.1158425
15.1869575 32.9941295 18.133909499999998
14.908832499999999 41.92260350000001 26.8527445
12.0804415 32.9216735 14.7621645
21.0578975 18.2187835 14.9041305
20.820560500000003 21.0761705 12.1764585
15.1299895 23.8629265 33.0002635
20.9848645 15.1805485 41.634904500000005
17.9134545 14.9063955 38.9426725
11.9315895 26.7854375 32.5835315
20.933511499999998 12.0356495 39.081723499999995
21.027883499999998 14.9086585 35.984973499999995
17.8829475 14.8045545 32.737958500000005
15.0994965 26.890185499999998 36.084489500000004
21.112661499999998 11.8013735 32.9286415
21.0464295 15.108577499999999 30.0414685
15.1956795 23.7089525 38.8008775
20.9848435 32.987185499999995 35.9744225
17.7818255 15.1414165 26.7681775
20.951821499999998 15.0770015 24.176724500000002
12.1963565 26.9152125 38.9516665
17.7371285 15.1193575 20.943061500000002
20.7168915 11.8868605 20.815243499999998
20.812849500000002 14.8280735 18.0611235
14.8982225 26.7661185 41.9196735
17.8969815 14.9101435 15.1993085
20.9466125 11.8641595 15.185121500000001
20.7961855 14.9648825 11.8541805
14.7498525 41.666790500000005 38.6513575
14.9748365 32.6838325 11.9276735
14.8128315 29.8405925 14.941774500000001
15.0809165 41.606907500000005 32.865528499999996
20.7644865 11.7996205 26.9116965
20.976460499999998 29.8992025 39.0125395
12.1016545 20.8616195 27.1277145
27.057077500000002 12.0704795 38.86887350000001
26.8015145 18.2085325 26.8782925
26.7666625 21.0608585 23.7771045
14.8274215 15.0331825 24.0307305
24.013323500000002 21.0876315 21.0448945
27.0028425 18.1252115 21.0850115
26.9473145 20.7693595 17.7509345
14.8633915 11.9899785 26.7124885
11.8923215 14.8087675 27.091794500000002
23.7522195 20.8306675 14.8188795
26.9301955 17.9647785 14.7862735
26.9225395 20.7220765 12.1310395
14.7794745 14.9664615 30.0430025
14.9122225 11.9745395 32.600207499999996
27.078263500000002 14.950117500000001 41.7079275
24.0525675 15.0920145 38.6477965
17.8277645 32.8888285 38.9450185
27.0570925 15.0529645 35.7260665
11.8280095 15.1852395 32.9577145
23.9511815 15.2176775 32.7922315
26.7295695 11.8440375 33.0048475
27.1423425 14.8617005 29.8823315
14.8148555 14.9866835 35.626450500000004
23.9488275 14.7916165 26.7663975
26.8249475 12.1601375 27.0767755
27.0360635 14.8814735 23.7835795
23.6897345 21.027676500000002 26.9900235
12.0585915 14.829883500000001 21.0115895
26.6999955 20.801029500000002 29.7701945
27.028035499999998 18.1517515 32.7484555
27.0051785 26.7286805 41.829783500000005
24.0164215 27.0034475 38.6322825
26.8718635 24.1464035 38.72080750000001
26.7758535 26.9595615 36.006035499999996
15.0024965 14.8163345 11.8802855
24.0839685 26.8069095 32.7369055
26.8107465 23.7274825 32.7069625
26.815337500000002 26.7416975 29.9774165
14.8111545 12.1831315 14.9777445
23.9758705 26.921374500000002 26.6911065
26.712232500000002 23.7606185 27.0119935
26.816270499999998 26.6317035 23.9160335
23.7799875 15.1919165 20.868695499999998
12.1588845 14.8034005 14.9810595
26.9709425 23.9106755 20.7429785
26.9672345 26.8531185 17.7942165
24.0346505 27.0195835 15.1529745
27.0070225 24.0834985 14.9901345
26.960489499999998 26.6548485 11.9410455
14.9083495 15.1685615 17.7836475
26.847189500000002 21.1087265 41.8489625
24.0033845 21.0677945 38.954905499999995
26.7512295 17.9435385 38.61386350000001
26.9512325 20.8054795 35.930023500000004
15.0913425 11.8614095 20.8031105
23.9638305 20.770622499999998 32.6438695
23.9900225 26.7892845 21.1945355
27.1194325 11.9642815 20.7831935
15.1510435 33.0209465 35.958738499999995
14.7502075 12.0037355 38.89645850000001
11.7443015 20.888972499999998 20.9282185
20.8246455 38.6301845 35.7433365
17.7961745 38.9599305 14.845297500000001
21.0504625 41.5777075 20.8011435
20.8125835 35.6177965 38.7345545
15.2725405 20.9746855 17.9949585
21.0861935 41.7631835 27.0508405
20.7616075 38.923662500000006 17.7692965
20.835825500000002 35.64205750000001 20.7982025
14.9385875 21.0545535 12.1654385
21.006501500000002 41.6576295 14.7407975
20.7878085 38.715522500000006 41.8669455
18.1857735 38.9207495 20.8866065
14.9187545 18.1076855 20.8566545
17.8159585 38.623630500000004 38.9329985
20.8227345 41.5274105 32.7979245
26.7781385 14.8465095 17.8130955
20.7579205 38.7619605 12.2439605
18.0297125 39.0571425 26.8180135
20.9394205 35.6734445 26.7363055
20.8356035 38.553816499999996 29.7281305
20.8223445 35.8236895 32.6949985
18.104401499999998 38.627022499999995 33.0029215
24.0772955 14.8685755 15.1200145
21.1121695 38.835760500000006 24.1074915
20.7983075 35.9631995 14.9537875
27.1284005 12.0764005 14.8787685
26.9276305 15.1586005 11.8378865
21.0402765 41.5754165 38.5991545
11.7576675 20.8466305 14.9492505
12.1768015 14.9532415 38.962115499999996
14.7628275 14.8108785 41.741785500000006
21.0646305 32.8015885 41.60171750000001
14.8162745 17.8536175 14.9905635
10.9605395 11.0589215 23.918888499999998
10.9001635 10.9428345 29.912626500000002
18.0376275 35.8286155 10.5227925
35.843999499999995 10.4527015 17.9509845
42.85837050000001 23.9507505 42.868281499999995
10.5599365 29.9406885 18.0005155
23.8626115 10.9241605 10.9803835
17.958236499999998 42.8871195 11.0269505
29.9417945 42.83045250000001 42.778743500000004
42.7192615 42.82441250000001 29.8830325
29.9163715 35.80313050000001 43.3067595
10.4845275 35.827096499999996 35.869707500000004
18.011664500000002 42.844303499999995 42.757225500000004
10.5849175 18.0231965 35.8769875
29.8868455 43.189833500000006 35.874406500000006
10.4621375 17.9448055 17.9515765
35.8273865 29.9114795 10.480413500000001
43.204989499999996 23.865997500000002 17.9137855
23.9672545 10.9670605 42.7497905
43.27500450000001 23.9517525 23.9825815
23.8319515 10.5973845 29.8990885
23.9249595 43.3211975 29.8709435
43.2792345 35.9176645 17.9671775
10.5399285 29.9324385 23.8356315
35.8434695 23.9929205 10.5946455
10.5089835 35.7360355 29.9110455
29.8106555 23.8765825 10.4733045
29.8290245 29.8002525 10.4789565
12.2904545 17.7354475 29.9872115
12.3245535 11.8088175 18.1352395
35.350843499999996 41.8317495 11.8932555
42.0493675 11.7368565 24.2087595
41.6482415 12.4678275 17.7924285
36.06541250000001 41.443974499999996 18.1546125
42.0812825 35.97950350000001 30.0476295
35.3508035 29.4826175 18.0374295
36.124472499999996 41.983909499999996 24.2238245
42.12496350000001 35.473963499999996 35.77853350000001
11.6828705 29.5394685 29.9484065
35.8816985 41.9759325 29.5578925
41.8905135 35.501422500000004 42.1705915
36.2519655 41.883557499999995 41.7066255
42.1885525 41.75233850000001 17.6997985
36.07113150000001 41.5002535 36.1554465
36.1313315 23.9682005 42.0531855
12.1907945 29.6443745 35.509819500000006
41.77229750000001 41.2728855 36.0048305
41.613464500000006 35.61255750000001 23.4194755
35.4480475 30.1929435 24.224324499999998
42.00137050000001 29.6220385 35.427360500000006
42.1818485 11.7859355 30.0890465
41.53833350000001 17.6428775 41.802150499999996
41.395688500000006 23.6461325 12.3991395
36.1860825 35.5773365 23.6569235
41.547632500000006 18.257019500000002 35.711335500000004
12.3934205 23.8153465 18.2376875
12.3403735 23.7187905 24.1690035
36.2827145 35.861937499999996 18.1314335
12.4433435 11.6956495 35.766647500000005
41.7850105 18.2367575 24.181859499999998
35.41967150000001 36.07578050000001 30.2298105
36.1035595 35.931154500000005 12.3299775
41.472795500000004 24.1615565 29.7285765
42.1761015 23.5521565 36.0803695
12.2113795 18.1124325 11.5067105
35.808192500000004 30.1690605 42.27399750000001
11.858539500000001 24.2784355 11.6500425
41.5505335 29.4954265 11.8115355
41.349487499999995 29.6677885 41.6487975
36.119879499999996 29.8424955 29.5539185
11.9808785 29.5070225 11.8573125
41.991791500000005 12.4033265 35.7248955
12.1356855 24.195774500000002 41.4741145
41.9644895 29.7090595 29.5871125
42.1265415 35.7981365 11.7669055
36.2448505 35.6394715 35.63060350000001
35.7411115 29.9353465 35.4010255
42.2407965 29.6580865 24.0367555
41.530021500000004 29.4780805 17.8267465
12.2859275 18.2974645 41.388065499999996
11.6906575 23.9804365 36.2448005
41.972479500000006 18.1306325 18.3384345
41.279722500000005 18.3091345 12.0763425
12.1078965 18.2163775 24.1999485
24.3171585 30.1016675 12.0422455
12.3952195 29.7630095 41.4522255
23.5954805 12.2603775 35.6850975
29.6156595 12.3027205 23.966579499999998
23.5232395 11.7838455 23.6846395
30.0491005 11.7317205 30.2479715
23.922694500000002 12.2726965 18.2880945
29.7539385 12.2265785 35.507116499999995
17.8596695 42.0606865 36.1388475
29.5235985 17.870866499999998 12.4327085
18.2472665 41.53554750000001 23.6124905
29.9966835 18.2361425 17.6904875
17.5883145 42.0490485 18.1922495
18.0244075 35.530612500000004 41.5024985
29.7012165 18.4443825 23.8758575
18.3324195 35.762893500000004 36.016354500000006
30.0739465 18.2517605 30.0448195
18.3273315 35.5774595 30.2780695
29.4219025 17.850959500000002 35.5300965
18.0374985 35.4244075 23.8488735
29.8578665 18.2785825 41.4318595
18.1676075 35.4260625 17.7422695
29.4915055 24.0268165 18.2686475
18.522927499999998 30.0381025 41.63086750000001
30.0023015 23.6640285 23.655475499999998
17.7309675 30.1510815 35.58730250000001
30.1399425 24.0836915 29.6082135
29.5748745 11.9052615 18.2964275
29.9498955 23.7059925 35.4635825
30.1486905 12.0625125 12.2593835
24.2353095 17.7400255 12.1798345
35.722911499999995 24.3175375 35.6643035
24.0742035 30.2505635 18.1930465
23.5543985 23.7605365 41.6496425
23.6483905 29.4694075 24.1944765
24.2083315 23.5623995 35.9008115
23.7658135 29.3602525 29.9604375
24.2954355 23.6467125 29.6623895
23.566242499999998 29.7262555 35.938475499999996
23.9609485 23.542602499999997 23.8263785
24.0122695 29.5633135 41.347046500000005
23.8987405 23.8871895 18.423893500000002
23.6940725 35.655780500000006 18.246678499999998
23.8083575 18.425832500000002 41.7612915
23.7656235 36.3816475 24.0178105
24.1426625 17.7799485 35.55637850000001
23.7489015 36.128221499999995 29.9861585
24.2928245 17.9805075 29.4537755
24.2095705 36.1545625 35.89647550000001
23.5543945 18.4353145 24.039022499999998
23.871727500000002 35.6161755 41.2082755
24.256746500000002 41.950599499999996 12.3015855
23.498012499999998 18.3779225 17.8460555
24.050818500000002 42.045998499999996 18.2112475
24.5084315 41.8726365 23.890030499999998
24.3980085 41.435441499999996 35.7598435
23.361966499999998 41.9592325 41.6971815
18.288870499999998 29.5611075 29.7209085
29.5543135 11.9651665 42.177462500000004
18.2199735 29.4972955 23.5724155
18.3643265 11.8737265 41.52568550000001
35.4023935 11.7628225 23.7254985
17.8295025 12.2483275 36.1566895
36.27403150000001 11.6633395 29.8037125
18.2946665 11.5180435 29.7967155
35.700931499999996 11.6868875 35.405814500000005
18.0463885 12.4231735 24.0737195
35.4920645 12.2865885 42.0473025
17.6908635 12.2280565 17.5634255
35.5160575 17.9242085 18.3905025
18.1776895 11.5456275 12.0090645
11.7613645 41.5739495 36.1819675
17.8930975 17.6264725 12.2479905
35.3838325 18.0850005 24.2910285
11.8028905 41.53665050000001 24.168567499999998
35.708397500000004 17.4569275 29.7631465
12.2647305 41.728590499999996 17.6938675
35.58224250000001 18.138475500000002 35.5936595
12.3599605 35.4870545 42.1415425
29.6454555 23.5574035 41.717132500000005
36.2265465 24.268126499999997 18.0246185
11.7193725 35.621095499999996 23.6842945
35.8639635 24.3546715 24.197125500000002
12.0910815 35.9629345 18.2941845
35.97165150000001 23.8702315 29.3672915
11.7941945 36.12556550000001 12.0738065
12.0631935 41.9107875 29.4421235
17.8599475 18.4726615 18.1022445
36.147467500000005 17.7357595 41.5975205
30.1857495 41.9137295 30.1001625
35.671178499999996 11.6771295 11.9828965
18.1245395 29.5657385 17.6143735
30.2644625 29.4548995 17.7910545
17.6008775 29.7233495 11.5830865
29.9700015 29.8500535 24.3181635
17.8490065 23.726508499999998 41.3661525
17.9752815 24.180011500000003 36.1968435
29.9716475 29.4976505 35.8907095
18.4112015 24.091188499999998 29.541286500000002
29.9432195 30.1469675 42.2333395
30.0254995 36.179477500000004 12.3020735
17.6188485 23.9096035 23.7631905
29.5870205 36.0251265 17.7574785
29.9802125 29.5260475 29.4521125
29.5354725 35.9785615 23.9845965
30.2522195 42.0098795 24.2595075
18.3022965 24.0335035 17.6111395
18.3480015 18.0775445 23.4762745
30.3128245 41.566488500000006 17.8055695
29.7169075 41.990159500000004 11.6823445
17.7592175 18.2829725 29.5791385
29.9194455 35.3414585 35.742264500000005
17.7081025 17.6559275 35.6045175
29.7580825 36.0988265 29.5645695
18.415705499999998 18.039921500000002 41.962494500000005
18.2077605 24.3770895 12.0036455
18.9760685 43.180473500000005 42.965607500000004
10.2420535 17.5656605 34.84850350000001
10.2364465 18.9641585 35.9448115
10.1646305 35.2153455 30.7163925
10.2027715 36.8815635 29.9317175
10.1842165 17.3382315 36.62241350000001
12.4009935 36.3940815 29.0738045
12.3704555 18.5573025 35.0297685
12.4145115 34.882020499999996 29.7899285
12.4014375 36.20607150000001 30.7594265
12.9289875 11.6898295 30.2652275
10.1901575 18.3452795 17.0286445
10.1662095 35.3931015 28.9140865
12.3751635 17.0284985 35.6666975
24.7652125 12.4242085 29.4508785
23.8624035 12.3903845 30.7885545
41.4153675 22.9522285 24.039658499999998
43.5784395 36.6839365 18.5583705
43.6056765 34.8433685 18.3983435
43.585609500000004 23.3023785 23.1083875
43.59824450000001 35.950477500000005 16.9116185
41.3749935 35.022015499999995 17.3597705
41.392834500000006 36.667747500000004 17.5622665
41.36435850000001 35.6832625 18.9357615
43.5917855 23.5421485 24.8506515
43.5561175 24.9747255 23.7627305
12.3839565 18.3380145 36.7292585
22.9592615 10.1861085 30.3237245
24.0356655 10.2239155 28.8513305
24.751769499999998 10.1839375 30.4477095
10.2307405 16.9526275 18.1206405
23.1131445 12.3814375 29.3508565
12.2245005 12.3138825 28.9256295
12.3567355 17.6503365 18.8764435
10.1998675 18.6516415 18.7948815
30.7134055 35.193974499999996 43.548876500000006
28.9787245 41.375313500000004 36.2770055
30.6558655 41.4046805 36.3634095
28.9262615 35.4547635 43.5979645
30.0158005 36.828764500000005 43.54939950000001
43.2564215 42.798199499999996 30.8385485
43.524683499999995 42.5697335 29.0241245
18.5995135 40.942000500000006 42.0317505
42.30610850000001 43.7318185 29.6775085
41.2951585 41.7463685 28.9855345
41.0903675 41.91147550000001 30.6134715
42.1967375 40.828218500000006 30.0008005
17.0402945 41.389236499999996 41.6296055
18.3142085 42.12110750000001 40.899048500000006
17.3447405 43.59310550000001 42.4621425
29.9139445 41.404435500000005 34.8215845
11.7038175 12.8191485 30.4432715
29.0021635 43.5528515 35.2771635
29.8368885 43.6005325 36.869823499999995
17.6067085 42.387167500000004 43.7632505
12.3781265 18.9349595 17.7891975
12.3790835 17.3620885 17.260098499999998
10.0617955 11.4338565 29.4595975
10.8171495 10.6932665 30.8852625
11.3594845 10.1184605 29.2911415
11.2492585 10.2315085 24.708201499999998
9.9878085 11.4691425 24.120469500000002
10.9683895 10.5368845 22.9556635
11.8020275 12.7537475 23.1755485
12.9626535 11.5908855 23.7316045
12.0595025 12.5237305 24.8539565
29.1366595 36.3989505 41.42562650000001
30.7596065 36.138797499999995 41.374345500000004
29.6981305 34.8693325 41.4218985
30.7861395 43.543963500000004 35.3202165
35.095650500000005 24.5417115 12.3861565
30.5523805 29.2366185 12.3748245
36.71127250000001 24.294832500000002 12.4239865
17.964982499999998 34.84348850000001 12.3967535
17.8501685 43.7650235 11.4864895
18.880256499999998 42.7260455 10.4079125
17.1354985 42.60685050000001 10.3329675
18.0775835 40.831685500000006 11.5767445
17.0673425 41.765116500000005 12.5869285
18.7638545 41.8648675 12.6553825
10.2216525 35.170075499999996 34.96809450000001
10.2310535 35.4106975 36.7880385
18.7547655 36.3102385 12.367848500000001
10.2234175 36.868153500000005 35.66752150000001
12.3610075 36.1664545 34.9387675
12.3829305 34.8920435 35.9449795
29.6411445 28.8123015 10.2047845
29.0768975 30.5505225 10.1915935
30.8589345 30.1455095 10.1987985
30.0533725 30.8043785 12.4271555
28.9324075 29.6065035 12.3798115
24.1200835 9.9820765 11.4854405
22.978416499999998 10.9724585 10.495777499999999
12.4166025 36.4092615 36.6022995
24.7232125 11.184364500000001 10.2415415
17.1490045 36.277060500000005 12.4072345
17.0661845 35.23277950000001 10.2309705
41.42690350000001 24.2821525 23.0066755
30.5775155 24.6501365 10.1886215
30.1480385 22.9066775 10.1923095
28.8555805 24.1760865 10.2410535
29.1453855 23.2372435 12.4098905
29.6609105 24.8139455 12.3798405
30.7797325 23.6627525 12.3515685
24.6944805 43.5748425 29.2399925
22.9834675 43.5925615 29.5028275
17.9188365 36.8874845 10.1907475
24.0843265 43.59908850000001 30.8986525