3_train/212_cspbbr3_MA-TPC_3_0.40\212_cspbbr3_MA-TPC_3_0.40.xyz
1.0
42.374594 0 0
0 42.374594 0
0 0 42.374594
Br C Cs H N O Pb S 
84 139 35 186 19 48 27 24 
Cartesian
15.237297 12.262297 15.237297
12.262297 15.237297 15.237297
15.237297 15.237297 18.212297
12.262297 15.237297 21.187297
15.237297 15.237297 24.162297
15.237297 21.187297 12.262297
15.237297 18.212297 15.237297
12.262297 21.187297 15.237297
15.237297 21.187297 18.212297
15.237297 18.212297 21.187297
15.237297 21.187297 24.162297
15.237297 18.212297 27.137297
15.237297 21.187297 30.112297
15.237297 27.137297 12.262297
15.237297 24.162297 15.237297
12.262297 27.137297 15.237297
15.237297 27.137297 18.212297
15.237297 24.162297 21.187297
15.237297 27.137297 24.162297
15.237297 24.162297 27.137297
12.262297 27.137297 27.137297
15.237297 27.137297 30.112297
15.237297 30.112297 15.237297
21.187297 12.262297 15.237297
18.212297 15.237297 15.237297
21.187297 15.237297 18.212297
18.212297 15.237297 21.187297
21.187297 15.237297 24.162297
21.187297 12.262297 27.137297
18.212297 15.237297 27.137297
21.187297 18.212297 15.237297
18.212297 21.187297 15.237297
21.187297 21.187297 18.212297
21.187297 18.212297 21.187297
18.212297 21.187297 21.187297
21.187297 21.187297 24.162297
21.187297 18.212297 27.137297
18.212297 21.187297 27.137297
21.187297 21.187297 30.112297
21.187297 27.137297 12.262297
21.187297 24.162297 15.237297
18.212297 27.137297 15.237297
21.187297 27.137297 18.212297
21.187297 24.162297 21.187297
18.212297 27.137297 21.187297
21.187297 27.137297 24.162297
21.187297 24.162297 27.137297
18.212297 27.137297 27.137297
21.187297 27.137297 30.112297
21.187297 30.112297 15.237297
21.187297 30.112297 27.137297
27.137297 15.237297 12.262297
27.137297 12.262297 15.237297
24.162297 15.237297 15.237297
27.137297 15.237297 18.212297
27.137297 12.262297 21.187297
24.162297 15.237297 21.187297
27.137297 15.237297 24.162297
24.162297 15.237297 27.137297
27.137297 21.187297 12.262297
27.137297 18.212297 15.237297
24.162297 21.187297 15.237297
27.137297 21.187297 18.212297
27.137297 18.212297 21.187297
24.162297 21.187297 21.187297
27.137297 21.187297 24.162297
27.137297 18.212297 27.137297
24.162297 21.187297 27.137297
27.137297 24.162297 15.237297
24.162297 27.137297 15.237297
27.137297 27.137297 18.212297
27.137297 24.162297 21.187297
24.162297 27.137297 21.187297
27.137297 27.137297 24.162297
27.137297 24.162297 27.137297
24.162297 27.137297 27.137297
27.137297 27.137297 30.112297
27.137297 30.112297 15.237297
27.137297 30.112297 21.187297
30.112297 15.237297 15.237297
30.112297 15.237297 21.187297
30.112297 21.187297 27.137297
30.112297 27.137297 15.237297
30.112297 27.137297 21.187297
15.245456 15.970712 33.768584000000004
15.244476 16.339799 32.404883999999996
15.237297 15.237297 31.5629
15.238375 14.600323 33.939758999999995
15.237297 15.237297 30.112297
20.625925000000002 15.709340000000001 33.768584000000004
20.340187999999998 15.942965000000001 32.404883999999996
21.187297 15.237297 31.5629
21.680035 14.833632 33.939758999999995
21.187297 15.237297 30.112297
27.175968 21.919737 33.768584000000004
27.190346 22.288545000000003 32.404883999999996
27.137297 21.187297 31.5629
27.111867999999998 20.550829999999998 33.939758999999995
27.137297 21.187297 30.112297
27.859696 15.110396 33.768584000000004
28.224063 15.051553 32.404883999999996
27.137297 15.237297 31.5629
26.508568 15.339455000000001 33.939758999999995
27.137297 15.237297 30.112297
20.679794 15.766829000000001 8.606010000000001
20.428107 16.036792 9.96971
21.187297 15.237297 10.811694
21.622109 14.771813 8.434835
21.187297 15.237297 12.262297
20.598876 20.749434 8.606010000000001
20.299765 20.533196 9.96971
21.187297 21.187297 10.811694
21.703143999999998 21.56098 8.434835
21.187297 21.187297 12.262297
14.583888 15.570493 8.606010000000001
14.257424 15.742677 9.96971
15.237297 15.237297 10.811694
15.800997 14.940684000000001 8.434835
15.237297 15.237297 12.262297
26.705067 27.729869 8.606010000000001
26.491693 28.031029 9.96971
27.137297 27.137297 10.811694
27.506042 26.617909 8.434835
27.137297 27.137297 12.262297
8.606010000000001 21.802487000000003 27.536678
9.96971 22.1148 27.733366999999998
10.811694 21.187297 27.137297
8.434835 20.648633 26.79733
12.262297 21.187297 27.137297
8.606010000000001 21.748585000000002 21.65944
9.96971 22.034281 21.893114999999998
10.811694 21.187297 21.187297
8.434835 20.694631 20.783544000000003
12.262297 21.187297 21.187297
8.606010000000001 26.437799000000002 20.966692
9.96971 26.084305 20.860542
10.811694 27.137297 21.187297
8.434835 27.747182 21.371081
12.262297 27.137297 21.187297
8.606010000000001 15.501221000000001 27.821627
9.96971 15.638765 28.16413
10.811694 15.237297 27.137297
8.434835 15.000494 26.545976
12.262297 15.237297 27.137297
33.768584000000004 15.918303 27.409685
32.404883999999996 16.259074 27.551463000000002
31.5629 15.237297 27.137297
33.939758999999995 14.648957 26.893182
30.112297 15.237297 27.137297
33.768584000000004 26.610571 26.626883
32.404883999999996 26.349078000000002 26.366406
31.5629 27.137297 27.137297
33.939758999999995 27.589015 27.586393
30.112297 27.137297 27.137297
33.768584000000004 21.721641 21.689731
32.404883999999996 21.987021000000002 21.946245
31.5629 21.187297 21.187297
33.939758999999995 20.728875000000002 20.745046000000002
30.112297 21.187297 21.187297
33.768584000000004 20.730648000000002 15.811262
32.404883999999996 20.496897 16.096895
31.5629 21.187297 15.237297
33.939758999999995 21.590230000000002 14.743960000000001
30.112297 21.187297 15.237297
14.950021 8.606010000000001 21.862157
14.800794 9.96971 22.199733
15.237297 10.811694 21.187297
15.494273 8.434835 20.604459
15.237297 12.262297 21.187297
21.639742000000002 8.606010000000001 21.764581
21.863395 9.96971 22.058189000000002
21.187297 10.811694 21.187297
20.800828 8.434835 20.680959
21.187297 12.262297 21.187297
27.774712 8.606010000000001 26.774439
28.097955000000002 9.96971 26.596281
27.137297 10.811694 27.137297
26.57974 8.434835 27.445301
27.137297 12.262297 27.137297
14.775541 8.606010000000001 26.567432999999998
14.547152 9.96971 26.277494
15.237297 10.811694 27.137297
15.631934000000001 8.434835 27.637294999999998
15.237297 12.262297 27.137297
20.54464 33.768584000000004 20.833806
20.218825 32.404883999999996 20.660397
21.187297 31.5629 21.187297
21.749302 33.939758999999995 21.487109
21.187297 30.112297 21.187297
27.401126 33.768584000000004 27.821664000000002
27.538622 32.404883999999996 28.164185
27.137297 31.5629 27.137297
26.900576 33.939758999999995 26.545942999999998
27.137297 30.112297 27.137297
15.865636 33.768584000000004 21.565653
16.18442 32.404883999999996 21.751673
15.237297 31.5629 21.187297
14.687449 33.939758999999995 20.865733000000002
15.237297 30.112297 21.187297
14.710723 33.768584000000004 27.647868
14.449308 32.404883999999996 27.908423000000003
15.237297 31.5629 27.137297
15.688881 33.939758999999995 26.688066000000003
15.237297 30.112297 27.137297
18.212297 24.162297 31.587958
10.786636000000001 24.162297 24.162297
10.786636000000001 18.212297 24.162297
11.218847 31.155747 24.162297
18.212297 31.587958 24.162297
18.212297 31.587958 18.212297
24.162297 24.162297 10.786636000000001
31.155747 18.212297 11.218847
31.155747 24.162297 11.218847
31.587958 24.162297 24.162297
24.162297 31.587958 18.212297
31.155747 31.155747 24.162297
11.218847 18.212297 11.218847
10.786636000000001 24.162297 18.212297
18.212297 11.218847 31.155747
24.162297 11.218847 11.218847
31.155747 24.162297 31.155747
31.587958 24.162297 18.212297
24.162297 18.212297 31.587958
12.262297 12.262297 18.212297
12.262297 12.262297 24.162297
12.262297 18.212297 18.212297
12.262297 18.212297 30.112297
12.262297 24.162297 12.262297
12.262297 24.162297 30.112297
12.262297 30.112297 18.212297
18.212297 12.262297 18.212297
18.212297 12.262297 24.162297
18.212297 18.212297 12.262297
18.212297 18.212297 18.212297
18.212297 18.212297 24.162297
18.212297 18.212297 30.112297
18.212297 24.162297 12.262297
18.212297 24.162297 18.212297
18.212297 24.162297 24.162297
18.212297 30.112297 12.262297
18.212297 30.112297 30.112297
24.162297 12.262297 18.212297
24.162297 12.262297 24.162297
24.162297 12.262297 30.112297
24.162297 18.212297 12.262297
24.162297 18.212297 18.212297
24.162297 18.212297 24.162297
24.162297 24.162297 18.212297
24.162297 24.162297 24.162297
24.162297 24.162297 30.112297
24.162297 30.112297 12.262297
24.162297 30.112297 24.162297
24.162297 30.112297 30.112297
30.112297 12.262297 18.212297
30.112297 12.262297 24.162297
30.112297 18.212297 18.212297
30.112297 18.212297 24.162297
30.112297 18.212297 30.112297
15.236296 14.04397 34.874594
15.252199000000001 16.678587 34.596312
15.249724 17.364667 32.034476
22.108491 14.478725 34.874594
20.083382 16.164071 34.596312
19.551823 16.597842 32.034476
27.086641 19.995045 34.874594
27.21216 22.626718 34.596312
27.238236 23.312307 32.034476
25.959905000000003 15.431663 34.874594
28.557122 14.989031 34.596312
29.234535 14.880294 32.034476
22.004091 14.36731 7.5
20.19079 16.278696 7.778282
19.723415 16.780964 10.340118
22.151926 21.889809 7.5
20.030279 20.327735 7.778282
19.473891000000002 19.926306 10.340118
16.294752 14.684287000000001 7.5
13.953757 15.893089 7.778282
13.34721 16.213734000000002 10.340118
27.830574000000002 26.16601 7.5
26.288812 28.302462 7.778282
25.89271 28.862655 10.340118
7.5 20.179763 26.49784
7.778282 22.39686 27.921194
10.340118 22.977755 28.286261
7.5 20.266238 20.428561000000002
7.778282 22.291047000000002 22.114267
10.340118 22.82253 22.548132
7.5 28.279 21.534493
7.778282 25.762331 20.754854
10.340118 25.105045999999998 20.558159
7.5 14.796467 26.028379
7.778282 15.757007 28.481707
10.340118 16.013287 29.118129
34.874594 14.133929 26.682754
34.596312 16.575161 27.673633
32.034476 17.208357 27.937783
34.874594 27.985685999999998 27.976503
34.596312 26.102983 26.133438
32.034476 25.617366 25.648785
34.874594 20.326382000000002 20.360946
34.596312 22.236591999999998 22.175486
32.034476 22.729445000000002 22.652779
34.874594 21.939823 14.311157
34.596312 20.289023 16.364524
32.034476 19.854007 16.895065000000002
15.715959 7.5 20.094176
14.671712 7.778282 22.513062
14.393722 10.340118 23.140305
20.460876 7.5 20.240543000000002
22.075532 7.778282 22.322451
22.490753 10.340118 22.868624
26.094216 7.5 27.716963
28.39048 7.778282 26.425208
28.991659 10.340118 26.094608
15.978991 7.5 28.072135
14.330752 7.778282 26.01671
13.906721000000001 10.340118 25.477349
22.238749000000002 34.874594 21.751636
19.923828 34.596312 20.493623
19.317875 32.034476 20.171856
26.696621 34.874594 26.028316999999998
27.65682 34.596312 28.48178
27.913012 32.034476 29.118237
14.208722 34.874594 20.582265
16.472668 34.596312 21.929857000000002
17.065572 32.034476 22.275078
16.085436 34.874594 26.297838000000002
14.203282 34.596312 28.141464000000003
13.717809 32.034476 28.626261
17.674644 23.272885 31.921879
19.251377 24.141382 31.921879
17.71087 25.072624 31.921879
18.707801 24.981984 29.737555
17.254675 24.181572 29.737555
18.674415 23.323335 29.737555
10.452715000000001 23.182163 24.507929999999998
10.452715000000001 24.951691 24.838300999999998
10.452715000000001 24.353037 23.14066
12.637039000000001 25.065593 23.843759000000002
12.637039000000001 23.434787 23.539288000000003
12.637039000000001 23.986511 25.103843
10.452715000000001 17.346028 23.5881
10.452715000000001 18.148162 25.199607
10.452715000000001 19.142701000000002 23.699184
12.637039000000001 19.010655 24.691480000000002
12.637039000000001 18.271404 23.206307
12.637039000000001 17.354832000000002 24.589104000000003
10.924803 31.333938 23.12624
10.37724 30.786375 24.751271
11.646145 32.055281 24.609379999999998
12.580666 29.9007 25.117132
13.085302 30.405336000000002 23.619495
11.915872 29.235906 23.750263
19.026744 31.921879 23.516695000000002
17.245966 31.921879 23.779766
18.364181000000002 31.921879 25.190428999999998
17.461699 29.737555 24.757287
19.102873000000002 29.737555 24.514839
18.072319 29.737555 23.214765
18.71013 31.921879 19.124595
18.753453 31.921879 17.325012
17.173308 31.921879 18.187284
17.753491 29.737555 17.371519
17.713565 29.737555 19.030024
19.169835 29.737555 18.235348000000002
23.834291 25.14847 10.452715000000001
25.180350999999998 23.953272000000002 10.452715000000001
23.472249 23.385149000000002 10.452715000000001
24.464589 23.253435 12.637039000000001
23.224053 24.354936 12.637039000000001
24.798249000000002 24.878519999999998 12.637039000000001
32.024305999999996 17.682995 11.615171
30.751514 17.702369 10.342379000000001
31.399774 19.251527 10.990639
29.264453 18.700105 11.944418
30.437465 18.682249 13.11743
29.840025 17.254537 12.51999
31.822822 23.320467 11.413687
30.660873 24.055398999999998 10.251738
31.691899 25.111024 11.282764
29.450142 24.938132 12.130108
30.521 24.260814 13.200966000000001
29.570800000000002 23.287945 12.250766
31.921879 23.150934 23.922985
31.921879 24.875229 23.406087
31.921879 24.460728 25.157819
29.737555 25.094374 24.382849
29.737555 23.505255000000002 24.859224
29.737555 23.887262 23.244819
23.460401 31.921879 17.445833
23.849467 31.921879 19.203389
25.177022 31.921879 17.98767
24.809168 29.737555 18.918674
24.450602 29.737555 17.298902
23.227121 29.737555 18.419315
31.100498 31.683231 23.208182
30.953274 31.830455 24.996205
32.121822 30.661907 24.282504
30.11584 29.578789 25.041614
30.251521 29.443107 23.393763
29.174582 30.520047 24.051513
11.617258 18.736579 10.348201
10.986521 17.17302 10.978938
10.344409 18.727292 11.621049
11.942495000000001 17.729116 13.112065
12.523786000000001 19.1701 12.530774000000001
13.115559000000001 17.737675 11.939001000000001
10.452715000000001 24.866147 18.976967000000002
10.452715000000001 24.472595000000002 17.22041
10.452715000000001 23.148149 18.439514
12.637039000000001 23.513625 17.507573999999998
12.637039000000001 23.876324999999998 19.126425
12.637039000000001 25.096941 18.002892
18.153301 10.249025 30.65816
19.140396 11.313454 31.722589
17.343194 11.385709 31.794845
18.266668 13.203465 30.5235
17.356956 12.222482 29.542517
19.013267 12.155892000000001 29.475926
23.864919 10.278566000000001 11.686893000000001
23.448566 11.516917 10.448542
25.173406 11.152705000000001 10.812754
24.436362 13.17624 11.878319000000001
24.820075 12.034970000000001 13.01959
23.230453999999998 12.37063 12.68393
32.009456 23.599014 30.774274000000002
31.428008000000002 25.20033 31.355721
30.73813 23.687547 32.045598999999996
29.278139 24.681421 30.41649
29.814004 23.205641 29.880624
30.449799 24.599829 29.244829
31.921879 24.858197 18.984209
31.921879 23.145852 18.429008
31.921879 24.482843 17.223674
29.737555 23.520951999999998 17.500898
29.737555 25.099058 18.012576
29.737555 23.86688 19.123417
23.245071 17.723604 31.921879
25.044131 17.662302 31.921879
24.197689999999998 19.250985 31.921879
25.007617 18.662679 29.737555
23.349594 18.719175 29.737555
24.129679 17.255037 29.737555
18.212297 24.162297 30.112297
12.262297 24.162297 24.162297
12.262297 18.212297 24.162297
12.262297 30.112297 24.162297
18.212297 30.112297 24.162297
18.212297 30.112297 18.212297
24.162297 24.162297 12.262297
30.112297 18.212297 12.262297
30.112297 24.162297 12.262297
30.112297 24.162297 24.162297
24.162297 30.112297 18.212297
30.112297 30.112297 24.162297
12.262297 18.212297 12.262297
12.262297 24.162297 18.212297
18.212297 12.262297 30.112297
24.162297 12.262297 12.262297
30.112297 24.162297 30.112297
30.112297 24.162297 18.212297
24.162297 18.212297 30.112297
15.257552 16.296146 29.396882
15.218869 14.187504 29.383643
20.382212000000003 15.925346000000001 29.396882
21.986546999999998 14.556411 29.383643
27.201595 22.244386000000002 29.396882
27.075202 20.13918 29.383643
28.178869000000002 15.045723 29.396882
26.104366000000002 15.4256 29.383643
20.448418 15.996 12.977712
21.91865 14.483952 12.990951
20.342762 20.548287000000002 12.977712
22.025581 21.819503 12.990951
14.290019000000001 15.710833000000001 12.977712
16.175705 14.766345000000001 12.990951
26.506373 27.98789 12.977712
27.761477000000003 26.293019 12.990951
12.977712 22.070927 27.721053
12.990951 20.31034 26.559931000000002
12.977712 21.992259999999998 21.875488999999998
12.990951 20.388168 20.506269
12.977712 26.129873 20.860693
12.990951 28.136584000000003 21.509524000000003
12.977712 15.610458000000001 28.128419
12.990951 14.865791 26.155264
29.396882 16.223717 27.522716
29.383643 14.259945 26.753646
29.396882 26.370883000000003 26.406419
29.383643 27.895992 27.863099000000002
29.396882 21.964617 21.906564
29.383643 20.417772 20.472989
29.396882 20.534595 16.071295
29.383643 21.8357 14.411477
14.830311 12.977712 22.165015999999998
15.642317 12.990951 20.218605
21.847232 12.977712 22.015583
20.53432 12.990951 20.365089
28.053438 12.977712 26.606018000000002
26.228189 12.990951 27.662585
14.564004 12.977712 26.319832
15.903535 12.990951 27.948797000000003
20.263479 29.396882 20.669482000000002
22.103995 29.383643 21.699225000000002
27.51032 29.396882 28.128471
26.765928 29.383643 26.155212000000002
16.140155 29.396882 21.740849
14.341323 29.383643 20.639906
14.471101 29.396882 27.868403
15.995775 29.383643 26.411269
15.237297 15.237297 15.237297
15.237297 15.237297 21.187297
15.237297 15.237297 27.137297
15.237297 21.187297 15.237297
15.237297 21.187297 21.187297
15.237297 21.187297 27.137297
15.237297 27.137297 15.237297
15.237297 27.137297 21.187297
15.237297 27.137297 27.137297
21.187297 15.237297 15.237297
21.187297 15.237297 21.187297
21.187297 15.237297 27.137297
21.187297 21.187297 15.237297
21.187297 21.187297 21.187297
21.187297 21.187297 27.137297
21.187297 27.137297 15.237297
21.187297 27.137297 21.187297
21.187297 27.137297 27.137297
27.137297 15.237297 15.237297
27.137297 15.237297 21.187297
27.137297 15.237297 27.137297
27.137297 21.187297 15.237297
27.137297 21.187297 21.187297
27.137297 21.187297 27.137297
27.137297 27.137297 15.237297
27.137297 27.137297 21.187297
27.137297 27.137297 27.137297
15.231054 13.758572000000001 32.456112000000005
22.325629000000003 14.293439 32.456112000000005
27.069527 19.710112000000002 32.456112000000005
25.679128000000002 15.483085 32.456112000000005
22.203087 14.162663 9.918482000000001
22.379686 22.061868999999998 9.918482000000001
16.549976 14.556459 9.918482000000001
28.000454 25.936619 9.918482000000001
9.918482000000001 19.941476 26.340680000000003
9.918482000000001 20.049133 20.243237
9.918482000000001 28.5506 21.622316
9.918482000000001 14.695685000000001 25.761316
32.456112000000005 13.868136 26.578669
32.456112000000005 28.192109 28.173655999999998
32.456112000000005 20.117017 20.16692
32.456112000000005 22.115919 14.086502
15.825855 9.918482000000001 19.830733000000002
20.283172 9.918482000000001 20.017158000000002
25.847177 9.918482000000001 27.859970999999998
16.160297 9.918482000000001 28.292606
22.487855 32.456112000000005 21.891014000000002
26.595876 32.456112000000005 25.761241000000002
13.965259 32.456112000000005 20.43325
16.291800000000002 32.456112000000005 26.100624
