1_train/34_cspbbr3_methylammonium_3_0.50\34_cspbbr3_methylammonium_3_0.50.xyz
1.0
41.883618 0 0
0 41.883618 0
0 0 41.883618
Br C Cs H N Pb 
108 23 31 138 23 27 
Cartesian
26.881229000000005 14.846338000000001 12.15194
26.979467 15.204355000000001 29.82721
24.018434 15.136747 26.996098000000003
26.970404000000002 12.194852000000001 26.841712
20.93571 27.062229000000002 17.795416000000003
20.883271 24.134168000000003 21.120085000000003
17.892747 26.612286000000005 20.972964000000005
27.071502000000002 14.878892 23.733674999999998
23.880569 15.036990000000001 21.174673
26.786789 12.128941000000001 21.174120000000002
20.997989000000004 24.105401999999998 26.675905999999998
26.863319000000004 15.212478 18.129063000000002
17.746309 26.818186000000004 26.928797000000003
20.916920000000005 29.879103 14.771226
23.990120000000005 14.892272 15.140062
20.762918 29.674208 20.801061000000004
21.113004000000004 29.772515 26.859326000000003
21.090702999999998 26.782491999999998 23.809925
26.721330000000002 11.866095 15.125462
23.986364000000002 21.023637 20.707527
26.753414 17.949607 14.839077000000001
29.752096 27.135310000000004 26.829788
29.741092000000002 26.75202 20.790303
29.839436 26.850541 15.174661
30.031598000000002 20.905533 26.965437
29.796993999999998 21.176873 20.978471
29.711762 20.900281 14.875945
30.046208 15.017265 26.995864000000005
29.985761000000004 14.898474 20.83692
29.660762 14.851062 15.060119
26.702861 29.844544 26.682939000000005
26.757218 29.889532000000003 20.790241
26.765208 29.628245999999997 14.930949
26.79555 27.038626999999998 29.936951
23.958862000000003 26.658297000000005 26.794825000000003
26.759307 24.106641000000003 26.734839
27.053687000000004 26.937965 23.783082999999998
23.982930000000003 26.675572000000003 21.013069
26.734686000000004 23.791824 20.935101000000003
26.731944 26.701926 18.125027000000003
24.04898 26.775280000000002 14.935671000000001
27.119595000000004 24.018033000000003 14.859574
26.977254000000002 26.712201 11.818697
27.133637 20.880161 30.024763
23.981307 20.79658 26.997640000000004
26.717099000000005 17.79353 26.728016000000004
26.892233000000004 20.910238 24.107669
26.925139 17.827913000000002 21.059902
27.13266 21.000149999999998 18.072400000000002
24.116337 21.088409 15.130609
26.650824 20.926913 12.181555
17.793958 27.059131999999998 15.078137
21.086225 26.841976000000003 30.024789
20.757486 27.037995000000002 12.040907
21.037990999999998 14.870989 12.245869
15.073595 30.033653 26.665086000000002
14.901917 14.813547 23.914397
14.742685 29.899206999999997 20.980881000000004
15.114958 29.799089000000002 15.108702
15.038416 11.911844 26.741141
14.812404 26.705338000000005 29.751691
12.097662 26.633618 27.013268000000004
14.865013 24.133725 26.752999000000003
14.830559000000001 26.791145 24.084257
12.154106 26.802646000000003 21.068268000000003
15.092851000000001 24.048115000000003 20.768362000000003
14.967132000000001 27.186991 17.981222000000002
11.874073000000001 26.882013999999998 14.848485
11.841732 14.811485 27.000750000000004
15.06525 24.103345000000004 14.836438
15.199474 26.845049000000003 12.148561
20.847958 23.982127 14.786277
15.089036 21.066793000000004 29.723913000000003
14.769608 15.151002 29.813051
15.201966 21.055352 11.849674
11.895932 20.76256 26.821428000000004
14.789326 18.081041 26.721195
14.980375 20.855647000000005 23.675094
14.940163 17.879547000000002 14.833105
11.798655 20.844839 15.016049
11.926332 21.114362 20.752283
15.135808 17.791135 20.783607000000003
18.142920000000004 14.976476 15.150787
20.720029000000004 12.109506 15.146924
20.773358 12.174514 21.13268
14.766548 15.121084 11.882732
21.026771000000004 21.099526000000004 29.723115
17.789305 21.152098000000002 26.995232
20.837088 17.877174 26.720997000000004
20.899227000000003 20.849512000000004 24.154232
15.22119 12.027561 15.036073
18.177185 20.976287 20.792068
21.130595 18.015929999999997 20.788596
11.884751 15.075463000000001 15.087941
21.042019000000003 14.858857 17.723317
14.981181000000001 15.176701 18.001991
17.859424 21.082544 14.863463000000001
20.87905 21.109074 17.992266
14.834855 12.026912000000001 21.065801
11.985779 14.924284 21.120570999999998
18.123356 15.096534 20.957216000000003
20.842067 14.845735 23.850405000000002
18.114302000000002 15.16985 26.842868000000003
21.129143 14.973432 29.786324999999998
21.091431 11.903833 26.794529000000004
20.964616 20.856167 11.859698
21.088427000000003 17.872120000000002 14.902524
14.87388 20.801560000000002 17.882899000000002
23.905558 11.034497 30.958463000000002
30.833444999999998 23.942305000000005 10.904139
31.366872 17.94039 18.053172000000004
10.995777 10.910103000000001 23.880434
11.01077 23.862917000000003 30.996237
31.362499 17.888823000000002 23.918757
30.857207000000002 30.836292999999998 23.905743
10.973656 17.90175 11.01951
17.945245999999997 17.88754 31.298614
17.953595 11.037562 30.957986
30.850783 23.850187 30.847689000000003
17.954208 10.455513 17.978365
10.969978 30.930439999999997 17.896048
23.998277 10.520940000000001 17.984894
10.474918 23.981686000000003 23.881003
23.901884000000003 23.986673000000003 31.382022
23.984173 11.003134000000001 10.997565
23.880990000000004 30.935715000000002 10.889660000000001
23.998486 31.326557 17.929537000000003
18.005914 10.901994 10.950893
17.879787999999998 17.956114 10.531642
10.601722 17.957432 18.032397000000003
10.480397 23.844882 17.931791
23.789603 29.935783 24.284086000000002
23.631550000000004 29.351675999999998 29.83354
29.442799 18.108113000000003 29.555534
29.494010000000003 23.775332 24.049913000000004
30.166646 17.805163 11.874231
29.824364000000003 11.738265 24.20744
12.263716 11.925133 17.70827
29.581685999999998 29.950364 18.434366000000004
29.786046 23.774203 18.307639
11.603340000000001 24.007841 12.371362
11.551297 17.643448 23.836796
23.729936000000002 23.717548999999998 23.661568000000003
17.683125 24.447111 11.961839
18.272085000000004 24.386225000000003 24.020887000000002
18.236734 17.575599 23.920929
17.631162000000003 23.752776000000004 29.393678
17.699208 29.530425 11.970014
18.485674000000003 29.760043000000003 17.772446000000002
17.46827 17.857770000000002 17.634708000000003
17.687886 30.122177999999998 29.707459
17.729094 23.655810000000002 18.279922
24.243791 11.619654 23.984296999999998
18.300809 12.425306 23.900779
11.985393 17.458317 30.106194000000002
24.038209000000002 24.358269 11.911133
23.849051000000003 17.986176999999998 29.499747999999997
23.813495000000003 24.285204999999998 18.261045000000003
23.765871000000004 17.866999999999997 17.471919999999997
11.684927 29.929757000000002 23.653311000000002
23.792991 18.303345 11.936352000000001
23.648053000000004 17.777526 24.107953000000002
12.398849 23.011964 18.196310000000004
17.831796 12.393788 18.881573000000003
16.971583000000003 10.204053 18.370482000000003
18.817742000000003 10.207761 18.639387
17.19303 12.400261 17.345985
18.836413999999998 12.411474 17.650744000000003
10.030233 30.40612 18.117401
18.085713 10.202023 16.961803000000003
12.380156 17.504654000000002 17.171976
29.497742000000002 23.002663 29.693016
18.710628 17.366039999999998 29.466878
23.160319 12.704383 11.831570000000001
24.097214 31.709823 19.007772000000003
24.704064000000002 31.640858 17.300353
22.934858 31.640535 17.600478000000003
23.747 29.462809 16.993064
12.382157000000001 24.628685000000004 18.607622
23.167851 29.524127 18.604695
12.357991 24.171348000000002 17.049101
30.441401 23.532355000000003 31.808676
31.694465 23.266208 30.621332000000002
31.296149 24.952641 31.038978
30.214138 24.217468000000004 28.940378000000003
29.109285 24.556297999999998 30.122003999999997
24.815446 29.465612 18.342259
11.186486 31.572803999999998 18.766565999999997
18.703303 11.219777 31.664198
12.92489 30.299126 17.818069
10.231931000000001 22.893994 24.172445000000003
12.354684 23.293338 23.226156000000003
12.353473000000001 23.609766999999998 24.836234000000005
12.426901 24.854406000000004 23.688874
24.539773000000004 23.053552000000003 31.648386000000002
24.359789 24.835670999999998 31.707497000000004
10.199344 24.247051 22.965004999999998
22.861327000000003 23.848439 31.694634999999998
23.504806000000002 23.038743000000004 29.455209000000004
24.864924000000002 23.97012 29.519419
24.146030000000003 11.484119 9.997184
24.717213 10.243855 11.192727
22.899057 10.513085 10.967193
23.765725000000003 11.588215 12.952124
23.361144000000003 24.663527000000002 29.472788
10.233048 24.604209000000004 24.651498000000004
10.216829 24.914210000000004 17.653795000000002
23.786323000000003 12.414094 16.98581
11.877562000000001 29.151640999999998 17.246889000000003
12.022883 29.346145999999997 18.845509999999997
10.225827 23.686374 18.988424000000002
17.100886000000003 17.632162 29.473984
16.984811 10.916274 31.370558000000003
18.199267 9.99311 30.400432000000002
17.247923 11.799376 29.161721999999997
18.904305 12.09273 29.418312999999998
17.727954 12.937777 30.281024000000002
10.223455 23.202356 17.25309
22.934876000000003 10.184276 17.552229
24.728354000000003 10.185745 17.356057
24.016409000000003 10.175184 19.006657000000004
24.825042000000003 12.379765 18.342734999999998
23.122898 12.3808 18.495834000000002
10.959249 31.40137 16.985165000000002
18.118814999999998 18.886805000000003 29.470404000000002
29.006179000000003 23.41534 11.683089
18.945901 18.330401000000002 31.661107
24.065021 11.596752 28.910229
24.672263 12.699143000000001 30.057699
23.006771999999998 12.532434 29.803263
31.705748999999997 18.001418 16.958421
31.685433000000003 18.829023 18.4854
31.705103 17.03156 18.430177999999998
24.907217000000003 10.496532 30.86058
29.52147 17.938237 18.953564999999998
29.461385999999997 18.829984000000003 17.538333
17.060091 17.642018999999998 12.415178000000001
11.243118 10.271744 23.125343
10.946315 10.503167 24.92778
10.013325 11.459411000000001 23.666242000000004
11.81373 12.748413000000001 24.652652000000003
29.456089 17.172143 17.439937999999998
23.149506000000002 10.299012 30.659182
23.744395000000004 11.440904 31.846103999999997
23.462227 30.172642000000003 12.86361
12.384628000000001 17.464314 18.763227
12.411458 18.931744000000002 17.926764
10.219544 18.508727 17.044769000000002
18.399366 11.426626 10.024743
18.610002 10.154091 11.35404
16.962916 10.672908 10.809991
17.622743 11.65488 12.928141
17.381439 12.792594 11.739407
18.938606 12.33416 12.1788
10.224774 18.519064999999998 18.852456000000004
22.876516000000002 31.220958000000003 10.777036
24.451786 31.732004000000003 11.360156
24.3581 30.509635000000003 10.068142
24.902273 29.574821999999998 12.276906
23.375867 29.006639999999997 11.735836
12.055393 12.504186 23.037900999999998
12.952813 11.584524 24.138839000000004
18.644117 17.310326 12.412533
10.960902 22.911824000000003 31.411791
17.166392000000002 18.657868999999998 10.179854
10.328863 17.112217 11.130659
10.410743 18.953139 11.036538
11.48601 17.846536999999998 10.030832
12.670705 18.752664000000003 11.847632
12.58439 17.096655 11.983403000000001
11.632972 18.054605000000002 12.983552
17.717309999999998 16.937662000000003 10.215908
30.467641999999998 24.38167 10.084387
31.749592 24.494526 11.340231000000001
31.173544999999997 22.847163000000002 10.746138
30.190167000000002 23.446554 12.855103
10.236633 16.956198 17.990625
29.567946 24.837000000000003 12.243001
17.853430000000003 16.921117000000002 31.648994000000002
29.201762000000002 30.063538 24.654418
17.167124 18.630752 31.698434
29.337123 29.855389000000002 23.03853
31.6205 30.646324999999997 23.122274000000004
11.210929 24.698178 31.655099
10.052164 24.119949 30.432676999999998
12.067942 24.819187 29.420163000000002
11.863154 23.211954 29.159638
12.961849 23.719900000000003 30.247297000000003
18.194311 18.899015 12.422003
31.654156999999998 16.985323 24.353257
31.669690000000003 18.094881 22.863888000000003
31.640780999999997 18.802540999999998 24.535055
29.460313 18.827148 23.512470999999998
29.493201 17.904808000000003 24.886957000000002
29.497566 17.214953 23.38306
18.975690999999998 18.297474 10.172893
30.389898000000002 31.876728 23.761364999999998
31.423214 30.922375000000002 24.907609
30.285781 28.947913 24.048692000000003
24.849621 12.512661 12.049838000000001
12.004996 23.988191999999998 23.898045000000003
12.069102 12.020842 23.967489
12.083189 17.930208999999998 11.948913000000001
29.886087000000003 18.019382999999998 18.013507
29.781624 17.929674 23.954162000000004
29.779738000000002 29.829067000000002 23.930938000000005
29.917465 23.868424000000005 29.937538000000004
23.942313 12.044622 29.801335
11.964244 17.921242 17.919618999999997
23.868019000000004 11.952824 18.017721
23.915710000000004 23.830118 29.881905000000003
29.824167000000003 23.868047000000004 11.981474
12.077659 23.854923 17.960318
23.833412000000003 29.902625999999998 11.966024
17.977807 18.061811 29.888506999999997
18.015259999999998 18.051645 12.031925000000001
18.014270000000003 12.053665 12.103238000000001
12.053524 29.798256000000002 17.905071
23.953948000000004 29.802030000000002 18.002826
23.975811999999998 12.001016 11.951244
18.013659 12.073871 29.941045000000003
12.021905 24.012080000000005 29.893315
17.936748 12.02467 18.030749
15.197821 14.902269 14.992509
26.571455 26.965783000000002 26.839654000000003
20.882330000000003 15.128647 14.813455
15.222846 20.768884 27.008815
26.804959000000004 15.107706 20.774841000000002
27.193725999999998 27.064217 21.016838
21.091777999999998 14.855126 26.697013
14.785851 26.740414 15.00491
26.907321000000003 26.825288 15.228901
27.109772 14.893318 27.036543
15.084341 27.042592 20.809425000000005
21.080565 14.757124 20.786686000000003
26.985025 21.046253 26.575473000000002
15.085432 26.71257 26.659596999999998
20.913844000000005 27.078323000000005 14.712565
27.058746 20.795488 20.684713000000002
20.86743 21.173102 14.903043
15.210823 20.934744000000002 21.203246
26.843904000000002 20.729792000000003 15.134933
21.104765999999998 26.99812 21.080937
15.120333 20.704723 15.170209
20.834712000000003 20.703139 21.062247
14.717918000000001 14.892657 20.868942000000004
15.037854000000001 14.720761000000001 26.877681000000003
27.005757000000003 15.09136 14.669115
20.975950000000005 21.057539 26.694999000000003
20.797645000000003 27.048522 26.610365
