3_train/258_cspbbr3_MA-1T_3_0.60\258_cspbbr3_MA-1T_3_0.60.xyz
1.0
40.040402 0 0
0 40.040402 0
0 0 40.040402
Br C Cs H N Pb S 
72 172 26 312 28 27 36 
Cartesian
14.070200999999999 14.070200999999999 17.045201
14.070200999999999 14.070200999999999 22.995200999999998
14.070200999999999 11.095201 25.970201
14.070200999999999 20.020201 11.095201
14.070200999999999 17.045201 14.070200999999999
11.095201 20.020201 14.070200999999999
14.070200999999999 20.020201 17.045201
14.070200999999999 17.045201 20.020201
11.095201 20.020201 20.020201
14.070200999999999 20.020201 22.995200999999998
14.070200999999999 17.045201 25.970201
14.070200999999999 20.020201 28.945201
14.070200999999999 25.970201 11.095201
14.070200999999999 22.995200999999998 14.070200999999999
11.095201 25.970201 14.070200999999999
14.070200999999999 25.970201 17.045201
14.070200999999999 22.995200999999998 20.020201
14.070200999999999 25.970201 22.995200999999998
14.070200999999999 22.995200999999998 25.970201
14.070200999999999 28.945201 25.970201
20.020201 11.095201 14.070200999999999
17.045201 14.070200999999999 14.070200999999999
20.020201 14.070200999999999 17.045201
17.045201 14.070200999999999 20.020201
20.020201 14.070200999999999 22.995200999999998
17.045201 14.070200999999999 25.970201
20.020201 20.020201 11.095201
20.020201 17.045201 14.070200999999999
17.045201 20.020201 14.070200999999999
20.020201 20.020201 17.045201
20.020201 17.045201 20.020201
17.045201 20.020201 20.020201
20.020201 20.020201 22.995200999999998
20.020201 17.045201 25.970201
17.045201 20.020201 25.970201
20.020201 22.995200999999998 14.070200999999999
17.045201 25.970201 14.070200999999999
20.020201 25.970201 17.045201
20.020201 22.995200999999998 20.020201
17.045201 25.970201 20.020201
20.020201 25.970201 22.995200999999998
20.020201 22.995200999999998 25.970201
17.045201 25.970201 25.970201
20.020201 25.970201 28.945201
20.020201 28.945201 14.070200999999999
25.970201 11.095201 14.070200999999999
22.995200999999998 14.070200999999999 14.070200999999999
25.970201 14.070200999999999 17.045201
22.995200999999998 14.070200999999999 20.020201
25.970201 14.070200999999999 22.995200999999998
22.995200999999998 14.070200999999999 25.970201
25.970201 17.045201 14.070200999999999
22.995200999999998 20.020201 14.070200999999999
25.970201 20.020201 17.045201
25.970201 17.045201 20.020201
22.995200999999998 20.020201 20.020201
25.970201 20.020201 22.995200999999998
25.970201 17.045201 25.970201
22.995200999999998 20.020201 25.970201
25.970201 20.020201 28.945201
25.970201 22.995200999999998 14.070200999999999
22.995200999999998 25.970201 14.070200999999999
25.970201 25.970201 17.045201
25.970201 22.995200999999998 20.020201
22.995200999999998 25.970201 20.020201
25.970201 25.970201 22.995200999999998
25.970201 22.995200999999998 25.970201
22.995200999999998 25.970201 25.970201
25.970201 28.945201 14.070200999999999
28.945201 14.070200999999999 25.970201
28.945201 20.020201 20.020201
28.945201 25.970201 14.070200999999999
14.070200999999999 14.070200999999999 31.504766
14.071489999999999 15.437221999999998 31.109324
14.072799999999999 15.587864 29.741304
14.069052 13.212204 30.428715999999998
20.020201 14.070200999999999 31.504766
20.02149 15.437221999999998 31.109324
20.0228 15.587864 29.741304
20.019052 13.212204 30.428715999999998
20.020201 20.020201 31.504766
20.02149 21.387221999999998 31.109324
20.0228 21.537864 29.741304
20.019052 19.162204 30.428715999999998
25.970201 14.070200999999999 31.504766
25.97149 15.437221999999998 31.109324
25.9728 15.587864 29.741304
25.969052 13.212204 30.428715999999998
25.970201 25.970201 31.504766
25.97149 27.337222 31.109324
25.9728 27.487864 29.741304
25.969052 25.112204000000002 30.428715999999998
14.070200999999999 25.970201 31.504766
14.071489999999999 27.337222 31.109324
14.072799999999999 27.487864 29.741304
14.069052 25.112204000000002 30.428715999999998
25.970201 20.020201 8.535636
25.968912 21.387221999999998 8.931078
25.967602 21.537864 10.299097999999999
25.971349999999997 19.162204 9.611685999999999
20.020201 25.970201 8.535636
20.018912 27.337222 8.931078
20.017602 27.487864 10.299097999999999
20.02135 25.112204000000002 9.611685999999999
25.970201 14.070200999999999 8.535636
25.968912 15.437221999999998 8.931078
25.967602 15.587864 10.299097999999999
25.971349999999997 13.212204 9.611685999999999
25.970201 25.970201 8.535636
25.968912 27.337222 8.931078
25.967602 27.487864 10.299097999999999
25.971349999999997 25.112204000000002 9.611685999999999
20.020201 14.070200999999999 8.535636
20.018912 15.437221999999998 8.931078
20.017602 15.587864 10.299097999999999
20.02135 13.212204 9.611685999999999
14.070200999999999 14.070200999999999 8.535636
14.068912 15.437221999999998 8.931078
14.067601999999999 15.587864 10.299097999999999
14.071349999999999 13.212204 9.611685999999999
8.535636 25.970201 25.970201
8.931078 27.337222 25.97149
10.299097999999999 27.487864 25.9728
9.611685999999999 25.112204000000002 25.969052
8.535636 25.970201 20.020201
8.931078 27.337222 20.02149
10.299097999999999 27.487864 20.0228
9.611685999999999 25.112204000000002 20.019052
8.535636 14.070200999999999 25.970201
8.931078 15.437221999999998 25.97149
10.299097999999999 15.587864 25.9728
9.611685999999999 13.212204 25.969052
8.535636 14.070200999999999 14.070200999999999
8.931078 15.437221999999998 14.071489999999999
10.299097999999999 15.587864 14.072799999999999
9.611685999999999 13.212204 14.069052
8.535636 20.020201 25.970201
8.931078 21.387221999999998 25.97149
10.299097999999999 21.537864 25.9728
9.611685999999999 19.162204 25.969052
8.535636 14.070200999999999 20.020201
8.931078 15.437221999999998 20.02149
10.299097999999999 15.587864 20.0228
9.611685999999999 13.212204 20.019052
31.504766 25.970201 25.970201
31.109324 27.337222 25.968912
29.741304 27.487864 25.967602
30.428715999999998 25.112204000000002 25.971349999999997
31.504766 20.020201 14.070200999999999
31.109324 21.387221999999998 14.068912
29.741304 21.537864 14.067601999999999
30.428715999999998 19.162204 14.071349999999999
31.504766 14.070200999999999 14.070200999999999
31.109324 15.437221999999998 14.068912
29.741304 15.587864 14.067601999999999
30.428715999999998 13.212204 14.071349999999999
31.504766 14.070200999999999 20.020201
31.109324 15.437221999999998 20.018912
29.741304 15.587864 20.017602
30.428715999999998 13.212204 20.02135
31.504766 20.020201 25.970201
31.109324 21.387221999999998 25.968912
29.741304 21.537864 25.967602
30.428715999999998 19.162204 25.971349999999997
31.504766 25.970201 20.020201
31.109324 27.337222 20.018912
29.741304 27.487864 20.017602
30.428715999999998 25.112204000000002 20.02135
14.070200999999999 8.535636 14.070200999999999
14.071489999999999 8.931078 15.437221999999998
14.072799999999999 10.299097999999999 15.587864
14.069052 9.611685999999999 13.212204
20.020201 8.535636 20.020201
20.02149 8.931078 21.387221999999998
20.0228 10.299097999999999 21.537864
20.019052 9.611685999999999 19.162204
20.020201 8.535636 25.970201
20.02149 8.931078 27.337222
20.0228 10.299097999999999 27.487864
20.019052 9.611685999999999 25.112204000000002
25.970201 8.535636 25.970201
25.97149 8.931078 27.337222
25.9728 10.299097999999999 27.487864
25.969052 9.611685999999999 25.112204000000002
25.970201 8.535636 20.020201
25.97149 8.931078 21.387221999999998
25.9728 10.299097999999999 21.537864
25.969052 9.611685999999999 19.162204
14.070200999999999 8.535636 20.020201
14.071489999999999 8.931078 21.387221999999998
14.072799999999999 10.299097999999999 21.537864
14.069052 9.611685999999999 19.162204
14.070200999999999 31.504766 14.070200999999999
14.071489999999999 31.109324 12.70318
14.072799999999999 29.741304 12.552538
14.069052 30.428715999999998 14.928198
20.020201 31.504766 25.970201
20.02149 31.109324 24.60318
20.0228 29.741304 24.452538
20.019052 30.428715999999998 26.828197999999997
20.020201 31.504766 20.020201
20.02149 31.109324 18.65318
20.0228 29.741304 18.502538
20.019052 30.428715999999998 20.878198
25.970201 31.504766 20.020201
25.97149 31.109324 18.65318
25.9728 29.741304 18.502538
25.969052 30.428715999999998 20.878198
14.070200999999999 31.504766 20.020201
14.071489999999999 31.109324 18.65318
14.072799999999999 29.741304 18.502538
14.069052 30.428715999999998 20.878198
25.970201 31.504766 25.970201
25.97149 31.109324 24.60318
25.9728 29.741304 24.452538
25.969052 30.428715999999998 26.828197999999997
17.045201 30.420862 22.995200999999998
17.045201 29.988651 29.988651
29.988651 22.995200999999998 29.988651
22.995200999999998 9.61954 17.045201
9.61954 17.045201 17.045201
29.988651 22.995200999999998 10.051751
17.045201 9.61954 22.995200999999998
17.045201 17.045201 30.420862
22.995200999999998 22.995200999999998 9.61954
22.995200999999998 10.051751 10.051751
22.995200999999998 17.045201 30.420862
29.988651 29.988651 22.995200999999998
17.045201 10.051751 10.051751
10.051751 29.988651 22.995200999999998
22.995200999999998 22.995200999999998 30.420862
30.420862 22.995200999999998 22.995200999999998
22.995200999999998 29.988651 10.051751
10.051751 10.051751 22.995200999999998
17.045201 22.995200999999998 30.420862
10.051751 29.988651 17.045201
17.045201 30.420862 17.045201
22.995200999999998 9.61954 22.995200999999998
29.988651 10.051751 22.995200999999998
10.051751 17.045201 29.988651
22.995200999999998 30.420862 17.045201
30.420862 22.995200999999998 17.045201
10.051751 10.051751 17.045201
17.045201 29.988651 10.051751
11.095201 17.045201 11.095201
11.095201 17.045201 22.995200999999998
11.095201 22.995200999999998 11.095201
11.095201 22.995200999999998 17.045201
11.095201 22.995200999999998 22.995200999999998
11.095201 22.995200999999998 28.945201
17.045201 11.095201 17.045201
17.045201 17.045201 11.095201
17.045201 17.045201 17.045201
17.045201 17.045201 22.995200999999998
17.045201 22.995200999999998 11.095201
17.045201 22.995200999999998 17.045201
17.045201 22.995200999999998 22.995200999999998
22.995200999999998 11.095201 28.945201
22.995200999999998 17.045201 11.095201
22.995200999999998 17.045201 17.045201
22.995200999999998 17.045201 22.995200999999998
22.995200999999998 22.995200999999998 17.045201
22.995200999999998 22.995200999999998 22.995200999999998
22.995200999999998 28.945201 22.995200999999998
22.995200999999998 28.945201 28.945201
28.945201 11.095201 17.045201
28.945201 17.045201 11.095201
28.945201 17.045201 22.995200999999998
28.945201 17.045201 28.945201
28.945201 28.945201 17.045201
14.070649999999999 16.276606 31.804361
14.078579999999999 16.506025 29.160581999999998
14.071634999999999 13.731026 32.540402
14.068435 12.125781 30.428451
20.02065 16.276606 31.804361
20.02858 16.506025 29.160581999999998
20.021635 13.731026 32.540402
20.018435 12.125781 30.428451
20.02065 22.226606 31.804361
20.02858 22.456025 29.160581999999998
20.021635 19.681026 32.540402
20.018435 18.075781 30.428451
25.97065 16.276606 31.804361
25.978579999999997 16.506025 29.160581999999998
25.971635 13.731026 32.540402
25.968435 12.125781 30.428451
25.97065 28.176606 31.804361
25.978579999999997 28.406025 29.160581999999998
25.971635 25.631026000000002 32.540402
25.968435 24.025781 30.428451
14.070649999999999 28.176606 31.804361
14.078579999999999 28.406025 29.160581999999998
14.071634999999999 25.631026000000002 32.540402
14.068435 24.025781 30.428451
25.969752 22.226606 8.236041
25.961822 22.456025 10.879819999999999
25.968767 19.681026 7.5
25.971967 18.075781 9.611951
20.019752 28.176606 8.236041
20.011822 28.406025 10.879819999999999
20.018767 25.631026000000002 7.5
20.021967 24.025781 9.611951
25.969752 16.276606 8.236041
25.961822 16.506025 10.879819999999999
25.968767 13.731026 7.5
25.971967 12.125781 9.611951
25.969752 28.176606 8.236041
25.961822 28.406025 10.879819999999999
25.968767 25.631026000000002 7.5
25.971967 24.025781 9.611951
20.019752 16.276606 8.236041
20.011822 16.506025 10.879819999999999
20.018767 13.731026 7.5
20.021967 12.125781 9.611951
14.069752 16.276606 8.236041
14.061822 16.506025 10.879819999999999
14.068767 13.731026 7.5
14.071966999999999 12.125781 9.611951
8.236041 28.176606 25.97065
10.879819999999999 28.406025 25.978579999999997
7.5 25.631026000000002 25.971635
9.611951 24.025781 25.968435
8.236041 28.176606 20.02065
10.879819999999999 28.406025 20.02858
7.5 25.631026000000002 20.021635
9.611951 24.025781 20.018435
8.236041 16.276606 25.97065
10.879819999999999 16.506025 25.978579999999997
7.5 13.731026 25.971635
9.611951 12.125781 25.968435
8.236041 16.276606 14.070649999999999
10.879819999999999 16.506025 14.078579999999999
7.5 13.731026 14.071634999999999
9.611951 12.125781 14.068435
8.236041 22.226606 25.97065
10.879819999999999 22.456025 25.978579999999997
7.5 19.681026 25.971635
9.611951 18.075781 25.968435
8.236041 16.276606 20.02065
10.879819999999999 16.506025 20.02858
7.5 13.731026 20.021635
9.611951 12.125781 20.018435
31.804361 28.176606 25.969752
29.160581999999998 28.406025 25.961822
32.540402 25.631026000000002 25.968767
30.428451 24.025781 25.971967
31.804361 22.226606 14.069752
29.160581999999998 22.456025 14.061822
32.540402 19.681026 14.068767
30.428451 18.075781 14.071966999999999
31.804361 16.276606 14.069752
29.160581999999998 16.506025 14.061822
32.540402 13.731026 14.068767
30.428451 12.125781 14.071966999999999
31.804361 16.276606 20.019752
29.160581999999998 16.506025 20.011822
32.540402 13.731026 20.018767
30.428451 12.125781 20.021967
31.804361 22.226606 25.969752
29.160581999999998 22.456025 25.961822
32.540402 19.681026 25.968767
30.428451 18.075781 25.971967
31.804361 28.176606 20.019752
29.160581999999998 28.406025 20.011822
32.540402 25.631026000000002 20.018767
30.428451 24.025781 20.021967
14.070649999999999 8.236041 16.276606
14.078579999999999 10.879819999999999 16.506025
14.071634999999999 7.5 13.731026
14.068435 9.611951 12.125781
20.02065 8.236041 22.226606
20.02858 10.879819999999999 22.456025
20.021635 7.5 19.681026
20.018435 9.611951 18.075781
20.02065 8.236041 28.176606
20.02858 10.879819999999999 28.406025
20.021635 7.5 25.631026000000002
20.018435 9.611951 24.025781
25.97065 8.236041 28.176606
25.978579999999997 10.879819999999999 28.406025
25.971635 7.5 25.631026000000002
25.968435 9.611951 24.025781
25.97065 8.236041 22.226606
25.978579999999997 10.879819999999999 22.456025
25.971635 7.5 19.681026
25.968435 9.611951 18.075781
14.070649999999999 8.236041 22.226606
14.078579999999999 10.879819999999999 22.456025
14.071634999999999 7.5 19.681026
14.068435 9.611951 18.075781
14.070649999999999 31.804361 11.863795999999999
14.078579999999999 29.160581999999998 11.634376999999999
14.071634999999999 32.540402 14.409376
14.068435 30.428451 16.014620999999998
20.02065 31.804361 23.763796
20.02858 29.160581999999998 23.534377
20.021635 32.540402 26.309375999999997
20.018435 30.428451 27.914621
20.02065 31.804361 17.813796
20.02858 29.160581999999998 17.584377
20.021635 32.540402 20.359376
20.018435 30.428451 21.964620999999998
25.97065 31.804361 17.813796
25.978579999999997 29.160581999999998 17.584377
25.971635 32.540402 20.359376
25.968435 30.428451 21.964620999999998
14.070649999999999 31.804361 17.813796
14.078579999999999 29.160581999999998 17.584377
14.071634999999999 32.540402 20.359376
14.068435 30.428451 21.964620999999998
25.97065 31.804361 23.763796
25.978579999999997 29.160581999999998 23.534377
25.971635 32.540402 26.309375999999997
25.968435 30.428451 27.914621
16.535474 30.754783 23.900907
18.084429 30.754783 22.983785
16.5157 30.754783 22.100911999999997
17.514968 28.570459 22.160498
16.087443 28.570459 23.005723
17.533192 28.570459 23.819383
16.535474 29.584338 30.865199
18.084429 30.232841 30.216696
16.5157 30.857127 29.592411
17.514968 29.270443 28.089994
16.087443 28.672778 28.687658
17.533192 28.097434 29.263002999999998
29.864337 22.089495 30.5852
30.959614 23.006617 29.489923
29.850355 23.88949 30.599182
29.012394 23.829904 28.348043
28.002981 22.984679 29.357454999999998
29.02528 22.171018999999998 28.335157
22.485474 9.285619 16.139495
24.034429 9.285619 17.056617
22.465700000000002 9.285619 17.93949
23.464968 11.469943 17.879904
22.037443 11.469943 17.034679
23.483192 11.469943 16.221019
9.285619 16.139495 16.535474
9.285619 17.056617 18.084429
9.285619 17.93949 16.5157
11.469943 17.879904 17.514968
11.469943 17.034679 16.087443
11.469943 16.221019 17.533192
30.5852 22.089495 10.176065
29.489923 23.006617 9.080788
30.599182 23.88949 10.190047
28.348043 23.829904 11.028008
29.357454999999998 22.984679 12.037421
28.335157 22.171018999999998 11.015122
16.535474 9.285619 22.089495
18.084429 9.285619 23.006617
16.5157 9.285619 23.88949
17.514968 11.469943 23.829904
16.087443 11.469943 22.984679
17.533192 11.469943 22.171018999999998
16.535474 16.139495 30.754783
18.084429 17.056617 30.754783
16.5157 17.93949 30.754783
17.514968 17.879904 28.570459
16.087443 17.034679 28.570459
17.533192 16.221019 28.570459
23.504928 22.089495 9.285619
21.955973 23.006617 9.285619
23.524702 23.88949 9.285619
22.525434 23.829904 11.469943
23.952959 22.984679 11.469943
22.507209999999997 22.171018999999998 11.469943
22.485474 10.456064 9.175203
24.034429 9.807561 9.823706
22.465700000000002 9.183274999999998 10.447990999999998
23.464968 10.769959 11.950408
22.037443 11.367624 11.352744
23.483192 11.942967999999999 10.777398999999999
22.485474 16.139495 30.754783
24.034429 17.056617 30.754783
22.465700000000002 17.93949 30.754783
23.464968 17.879904 28.570459
22.037443 17.034679 28.570459
23.483192 16.221019 28.570459
30.422757999999998 30.026778999999998 23.996063
30.738674 29.710863 22.252283000000002
29.512873 30.936664 22.737257
28.49775 28.862687 22.072801000000002
28.206599999999998 29.153836 23.679878
29.336305 28.024131999999998 23.232924
16.535474 10.456064 9.175203
18.084429 9.807561 9.823706
16.5157 9.183274999999998 10.447990999999998
17.514968 10.769959 11.950408
16.087443 11.367624 11.352744
17.533192 11.942967999999999 10.777398999999999
9.107917 29.517052 23.2752
10.340955999999998 30.750091 23.721974
9.998028 30.407163 21.988429
12.012419 29.332454 22.737152
10.876044 28.196079 22.325404
11.192087999999998 28.512123 23.923047
22.485474 22.089495 30.754783
24.034429 23.006617 30.754783
22.465700000000002 23.88949 30.754783
23.464968 23.829904 28.570459
22.037443 22.984679 28.570459
23.483192 22.171018999999998 28.570459
30.754783 22.089495 23.504928
30.754783 23.006617 21.955973
30.754783 23.88949 23.524702
28.570459 23.829904 22.525434
28.570459 22.984679 23.952959
28.570459 22.171018999999998 22.507209999999997
22.485474 30.865199 10.456064
24.034429 30.216696 9.807561
22.465700000000002 29.592411 9.183274999999998
23.464968 28.089994 10.769959
22.037443 28.687658 11.367624
23.483192 29.263002999999998 11.942967999999999
10.013622999999999 9.617643999999999 21.994339
10.329539 9.301727999999999 23.738119
9.103738 10.527529 23.253145
11.177715 11.542652 23.917601
10.886565999999998 11.833801999999999 22.310523999999997
12.016269999999999 10.704096999999999 22.757478
16.535474 22.089495 30.754783
18.084429 23.006617 30.754783
16.5157 23.88949 30.754783
17.514968 23.829904 28.570459
16.087443 22.984679 28.570459
17.533192 22.171018999999998 28.570459
9.107917 29.517052 17.3252
10.340955999999998 30.750091 17.771974
9.998028 30.407163 16.038429
12.012419 29.332454 16.787152
10.876044 28.196079 16.375404
11.192087999999998 28.512123 17.973047
16.535474 30.754783 17.950907
18.084429 30.754783 17.033784999999998
16.5157 30.754783 16.150911999999998
17.514968 28.570459 16.210498
16.087443 28.570459 17.055723
17.533192 28.570459 17.869383
22.485474 9.285619 22.089495
24.034429 9.285619 23.006617
22.465700000000002 9.285619 23.88949
23.464968 11.469943 23.829904
22.037443 11.469943 22.984679
23.483192 11.469943 22.171018999999998
29.517052 9.107917 22.715202
30.750091 10.340955999999998 22.268428
30.407163 9.998028 24.001973
29.332454 12.012419 23.253249999999998
28.196079 10.876044 23.664998
28.512123 11.192087999999998 22.067355
9.455202 16.139495 29.864337
10.550479 17.056617 30.959614
9.44122 17.93949 29.850355
11.692359 17.879904 29.012394
10.682946999999999 17.034679 28.002981
11.705245 16.221019 29.02528
22.485474 30.754783 17.950907
24.034429 30.754783 17.033784999999998
22.465700000000002 30.754783 16.150911999999998
23.464968 28.570459 16.210498
22.037443 28.570459 17.055723
23.483192 28.570459 17.869383
30.754783 22.089495 17.554928
30.754783 23.006617 16.005972999999997
30.754783 23.88949 17.574702
28.570459 23.829904 16.575434
28.570459 22.984679 18.002959
28.570459 22.171018999999998 16.557209999999998
10.013622999999999 9.617643999999999 16.044339
10.329539 9.301727999999999 17.788119
9.103738 10.527529 17.303145
11.177715 11.542652 17.967601
10.886565999999998 11.833801999999999 16.360523999999998
12.016269999999999 10.704096999999999 16.807478
16.535474 30.865199 10.456064
18.084429 30.216696 9.807561
16.5157 29.592411 9.183274999999998
17.514968 28.089994 10.769959
16.087443 28.687658 11.367624
17.533192 29.263002999999998 11.942967999999999
17.045201 28.945201 22.995200999999998
17.045201 28.945201 28.945201
28.945201 22.995200999999998 28.945201
22.995200999999998 11.095201 17.045201
11.095201 17.045201 17.045201
28.945201 22.995200999999998 11.095201
17.045201 11.095201 22.995200999999998
17.045201 17.045201 28.945201
22.995200999999998 22.995200999999998 11.095201
22.995200999999998 11.095201 11.095201
22.995200999999998 17.045201 28.945201
28.945201 28.945201 22.995200999999998
17.045201 11.095201 11.095201
11.095201 28.945201 22.995200999999998
22.995200999999998 22.995200999999998 28.945201
28.945201 22.995200999999998 22.995200999999998
22.995200999999998 28.945201 11.095201
11.095201 11.095201 22.995200999999998
17.045201 22.995200999999998 28.945201
11.095201 28.945201 17.045201
17.045201 28.945201 17.045201
22.995200999999998 11.095201 22.995200999999998
28.945201 11.095201 22.995200999999998
11.095201 17.045201 28.945201
22.995200999999998 28.945201 17.045201
28.945201 22.995200999999998 17.045201
11.095201 11.095201 17.045201
17.045201 28.945201 11.095201
14.070200999999999 14.070200999999999 14.070200999999999
14.070200999999999 14.070200999999999 20.020201
14.070200999999999 14.070200999999999 25.970201
14.070200999999999 20.020201 14.070200999999999
14.070200999999999 20.020201 20.020201
14.070200999999999 20.020201 25.970201
14.070200999999999 25.970201 14.070200999999999
14.070200999999999 25.970201 20.020201
14.070200999999999 25.970201 25.970201
20.020201 14.070200999999999 14.070200999999999
20.020201 14.070200999999999 20.020201
20.020201 14.070200999999999 25.970201
20.020201 20.020201 14.070200999999999
20.020201 20.020201 20.020201
20.020201 20.020201 25.970201
20.020201 25.970201 14.070200999999999
20.020201 25.970201 20.020201
20.020201 25.970201 25.970201
25.970201 14.070200999999999 14.070200999999999
25.970201 14.070200999999999 20.020201
25.970201 14.070200999999999 25.970201
25.970201 20.020201 14.070200999999999
25.970201 20.020201 20.020201
25.970201 20.020201 25.970201
25.970201 25.970201 14.070200999999999
25.970201 25.970201 20.020201
25.970201 25.970201 25.970201
14.070200999999999 14.070200999999999 28.945201
20.020201 14.070200999999999 28.945201
20.020201 20.020201 28.945201
25.970201 14.070200999999999 28.945201
25.970201 25.970201 28.945201
14.070200999999999 25.970201 28.945201
25.970201 20.020201 11.095201
20.020201 25.970201 11.095201
25.970201 14.070200999999999 11.095201
25.970201 25.970201 11.095201
20.020201 14.070200999999999 11.095201
14.070200999999999 14.070200999999999 11.095201
11.095201 25.970201 25.970201
11.095201 25.970201 20.020201
11.095201 14.070200999999999 25.970201
11.095201 14.070200999999999 14.070200999999999
11.095201 20.020201 25.970201
11.095201 14.070200999999999 20.020201
28.945201 25.970201 25.970201
28.945201 20.020201 14.070200999999999
28.945201 14.070200999999999 14.070200999999999
28.945201 14.070200999999999 20.020201
28.945201 20.020201 25.970201
28.945201 25.970201 20.020201
14.070200999999999 11.095201 14.070200999999999
20.020201 11.095201 20.020201
20.020201 11.095201 25.970201
25.970201 11.095201 25.970201
25.970201 11.095201 20.020201
14.070200999999999 11.095201 20.020201
14.070200999999999 28.945201 14.070200999999999
20.020201 28.945201 25.970201
20.020201 28.945201 20.020201
25.970201 28.945201 20.020201
14.070200999999999 28.945201 20.020201
25.970201 28.945201 25.970201
