3_train/239_cspbbr3_MA-INC_4_0.40\239_cspbbr3_MA-INC_4_0.40.xyz
1.0
47.637190000000004 0 0
0 47.637190000000004 0
0 0 47.637190000000004
Br C Cs H N O Pb 
198 286 78 372 76 84 64 
Cartesian
14.893595000000001 14.893595000000001 11.918595000000002
14.893595000000001 11.918595000000002 14.893595000000001
11.918595000000002 14.893595000000001 14.893595000000001
14.893595000000001 14.893595000000001 17.868595
14.893595000000001 11.918595000000002 20.843595
11.918595000000002 14.893595000000001 20.843595
14.893595000000001 14.893595000000001 23.818595000000002
14.893595000000001 14.893595000000001 29.768595000000005
14.893595000000001 17.868595 14.893595000000001
11.918595000000002 20.843595 14.893595000000001
14.893595000000001 20.843595 17.868595
14.893595000000001 17.868595 20.843595
14.893595000000001 20.843595 23.818595000000002
14.893595000000001 17.868595 26.793595000000003
11.918595000000002 20.843595 26.793595000000003
14.893595000000001 20.843595 29.768595000000005
14.893595000000001 17.868595 32.743595
11.918595000000002 20.843595 32.743595
14.893595000000001 20.843595 35.718595
14.893595000000001 26.793595000000003 11.918595000000002
14.893595000000001 23.818595000000002 14.893595000000001
14.893595000000001 26.793595000000003 17.868595
14.893595000000001 23.818595000000002 20.843595
14.893595000000001 26.793595000000003 23.818595000000002
14.893595000000001 23.818595000000002 26.793595000000003
11.918595000000002 26.793595000000003 26.793595000000003
14.893595000000001 26.793595000000003 29.768595000000005
14.893595000000001 23.818595000000002 32.743595
11.918595000000002 26.793595000000003 32.743595
14.893595000000001 26.793595000000003 35.718595
14.893595000000001 32.743595 11.918595000000002
14.893595000000001 29.768595000000005 14.893595000000001
11.918595000000002 32.743595 14.893595000000001
14.893595000000001 32.743595 17.868595
14.893595000000001 29.768595000000005 20.843595
11.918595000000002 32.743595 20.843595
14.893595000000001 32.743595 23.818595000000002
14.893595000000001 29.768595000000005 26.793595000000003
14.893595000000001 32.743595 29.768595000000005
14.893595000000001 29.768595000000005 32.743595
14.893595000000001 32.743595 35.718595
14.893595000000001 35.718595 14.893595000000001
14.893595000000001 35.718595 26.793595000000003
14.893595000000001 35.718595 32.743595
20.843595 11.918595000000002 14.893595000000001
17.868595 14.893595000000001 14.893595000000001
20.843595 14.893595000000001 17.868595
20.843595 11.918595000000002 20.843595
17.868595 14.893595000000001 20.843595
20.843595 14.893595000000001 23.818595000000002
20.843595 11.918595000000002 26.793595000000003
17.868595 14.893595000000001 26.793595000000003
20.843595 14.893595000000001 29.768595000000005
17.868595 14.893595000000001 32.743595
20.843595 20.843595 11.918595000000002
20.843595 17.868595 14.893595000000001
17.868595 20.843595 14.893595000000001
20.843595 20.843595 17.868595
20.843595 17.868595 20.843595
17.868595 20.843595 20.843595
20.843595 20.843595 23.818595000000002
20.843595 17.868595 26.793595000000003
17.868595 20.843595 26.793595000000003
20.843595 20.843595 29.768595000000005
20.843595 17.868595 32.743595
17.868595 20.843595 32.743595
20.843595 20.843595 35.718595
20.843595 23.818595000000002 14.893595000000001
17.868595 26.793595000000003 14.893595000000001
20.843595 26.793595000000003 17.868595
20.843595 23.818595000000002 20.843595
17.868595 26.793595000000003 20.843595
20.843595 26.793595000000003 23.818595000000002
20.843595 23.818595000000002 26.793595000000003
17.868595 26.793595000000003 26.793595000000003
20.843595 26.793595000000003 29.768595000000005
20.843595 23.818595000000002 32.743595
17.868595 26.793595000000003 32.743595
20.843595 26.793595000000003 35.718595
20.843595 29.768595000000005 14.893595000000001
17.868595 32.743595 14.893595000000001
20.843595 32.743595 17.868595
20.843595 29.768595000000005 20.843595
17.868595 32.743595 20.843595
20.843595 32.743595 23.818595000000002
20.843595 29.768595000000005 26.793595000000003
17.868595 32.743595 26.793595000000003
20.843595 32.743595 29.768595000000005
20.843595 29.768595000000005 32.743595
17.868595 32.743595 32.743595
20.843595 35.718595 20.843595
23.818595000000002 14.893595000000001 14.893595000000001
26.793595000000003 14.893595000000001 17.868595
26.793595000000003 11.918595000000002 20.843595
23.818595000000002 14.893595000000001 20.843595
26.793595000000003 14.893595000000001 23.818595000000002
26.793595000000003 11.918595000000002 26.793595000000003
23.818595000000002 14.893595000000001 26.793595000000003
26.793595000000003 14.893595000000001 29.768595000000005
23.818595000000002 14.893595000000001 32.743595
26.793595000000003 14.893595000000001 35.718595
26.793595000000003 20.843595 11.918595000000002
26.793595000000003 17.868595 14.893595000000001
23.818595000000002 20.843595 14.893595000000001
26.793595000000003 20.843595 17.868595
26.793595000000003 17.868595 20.843595
23.818595000000002 20.843595 20.843595
26.793595000000003 20.843595 23.818595000000002
26.793595000000003 17.868595 26.793595000000003
23.818595000000002 20.843595 26.793595000000003
26.793595000000003 20.843595 29.768595000000005
26.793595000000003 17.868595 32.743595
23.818595000000002 20.843595 32.743595
26.793595000000003 26.793595000000003 11.918595000000002
26.793595000000003 23.818595000000002 14.893595000000001
23.818595000000002 26.793595000000003 14.893595000000001
26.793595000000003 26.793595000000003 17.868595
26.793595000000003 23.818595000000002 20.843595
23.818595000000002 26.793595000000003 20.843595
26.793595000000003 26.793595000000003 23.818595000000002
26.793595000000003 23.818595000000002 26.793595000000003
23.818595000000002 26.793595000000003 26.793595000000003
26.793595000000003 26.793595000000003 29.768595000000005
26.793595000000003 23.818595000000002 32.743595
23.818595000000002 26.793595000000003 32.743595
26.793595000000003 29.768595000000005 14.893595000000001
23.818595000000002 32.743595 14.893595000000001
26.793595000000003 32.743595 17.868595
26.793595000000003 29.768595000000005 20.843595
23.818595000000002 32.743595 20.843595
26.793595000000003 32.743595 23.818595000000002
26.793595000000003 29.768595000000005 26.793595000000003
23.818595000000002 32.743595 26.793595000000003
26.793595000000003 32.743595 29.768595000000005
26.793595000000003 29.768595000000005 32.743595
23.818595000000002 32.743595 32.743595
26.793595000000003 35.718595 14.893595000000001
26.793595000000003 35.718595 32.743595
32.743595 14.893595000000001 11.918595000000002
29.768595000000005 14.893595000000001 14.893595000000001
32.743595 14.893595000000001 17.868595
29.768595000000005 14.893595000000001 20.843595
32.743595 14.893595000000001 23.818595000000002
32.743595 11.918595000000002 26.793595000000003
29.768595000000005 14.893595000000001 26.793595000000003
32.743595 14.893595000000001 29.768595000000005
32.743595 11.918595000000002 32.743595
29.768595000000005 14.893595000000001 32.743595
32.743595 14.893595000000001 35.718595
32.743595 17.868595 14.893595000000001
29.768595000000005 20.843595 14.893595000000001
32.743595 20.843595 17.868595
32.743595 17.868595 20.843595
29.768595000000005 20.843595 20.843595
32.743595 20.843595 23.818595000000002
32.743595 17.868595 26.793595000000003
29.768595000000005 20.843595 26.793595000000003
32.743595 20.843595 29.768595000000005
32.743595 17.868595 32.743595
29.768595000000005 20.843595 32.743595
32.743595 20.843595 35.718595
32.743595 26.793595000000003 11.918595000000002
32.743595 23.818595000000002 14.893595000000001
29.768595000000005 26.793595000000003 14.893595000000001
32.743595 26.793595000000003 17.868595
32.743595 23.818595000000002 20.843595
29.768595000000005 26.793595000000003 20.843595
32.743595 26.793595000000003 23.818595000000002
32.743595 23.818595000000002 26.793595000000003
29.768595000000005 26.793595000000003 26.793595000000003
32.743595 26.793595000000003 29.768595000000005
32.743595 23.818595000000002 32.743595
29.768595000000005 26.793595000000003 32.743595
32.743595 32.743595 11.918595000000002
32.743595 29.768595000000005 14.893595000000001
29.768595000000005 32.743595 14.893595000000001
32.743595 32.743595 17.868595
32.743595 29.768595000000005 20.843595
29.768595000000005 32.743595 20.843595
32.743595 32.743595 23.818595000000002
32.743595 29.768595000000005 26.793595000000003
29.768595000000005 32.743595 26.793595000000003
32.743595 32.743595 29.768595000000005
32.743595 29.768595000000005 32.743595
29.768595000000005 32.743595 32.743595
32.743595 32.743595 35.718595
32.743595 35.718595 14.893595000000001
32.743595 35.718595 26.793595000000003
32.743595 35.718595 32.743595
35.718595 20.843595 14.893595000000001
35.718595 20.843595 20.843595
35.718595 20.843595 26.793595000000003
35.718595 20.843595 32.743595
35.718595 26.793595000000003 14.893595000000001
35.718595 26.793595000000003 32.743595
35.718595 32.743595 14.893595000000001
35.718595 32.743595 20.843595
35.718595 32.743595 32.743595
26.659246000000003 25.660264000000005 39.45812300000001
26.654752000000002 25.598758000000004 38.052737
26.793595000000003 26.793595000000003 37.361436000000005
26.921813 27.932742000000005 39.45536500000001
26.793595000000003 26.793595000000003 35.718595
26.931082000000004 27.989966000000003 38.05026900000001
27.926293 32.604005 39.45812300000001
27.987777 32.599228000000004 38.052737
26.793595000000003 32.743595 37.361436000000005
25.655053000000002 32.87708 39.45536500000001
26.793595000000003 32.743595 35.718595
25.597873 32.886614 38.05026900000001
21.766491000000002 33.414976 39.45812300000001
21.814675 33.453465 38.052737
20.843595 32.743595 37.361436000000005
19.920597 32.063763 39.45536500000001
20.843595 32.743595 35.718595
19.87231 32.031688 38.05026900000001
21.364569000000003 13.878176000000002 39.45812300000001
21.395164 13.824631000000002 38.052737
20.843595 14.893595000000001 37.361436000000005
20.314288 15.910418000000002 39.45536500000001
20.843595 14.893595000000001 35.718595
20.290045 15.963075000000002 38.05026900000001
25.684486 21.112606 39.45812300000001
25.623960000000004 21.124428 38.052737
26.793595000000003 20.843595 37.361436000000005
27.909211 20.579975000000005 39.45536500000001
26.793595000000003 20.843595 35.718595
27.964915000000005 20.563924 38.05026900000001
15.468132000000002 13.907493000000002 39.45812300000001
15.501547000000002 13.855661000000001 38.052737
14.893595000000001 14.893595000000001 37.361436000000005
14.310661000000001 15.880653 39.45536500000001
14.893595000000001 14.893595000000001 35.718595
14.283638000000002 15.931939000000002 38.05026900000001
32.725189 27.934713000000002 39.45812300000001
32.721418 27.996267000000003 38.052737
32.743595 26.793595000000003 37.361436000000005
32.768855 25.647533000000003 39.45536500000001
32.743595 26.793595000000003 35.718595
32.767321 25.589584000000002 38.05026900000001
25.655623000000006 14.980256000000002 8.179067000000002
25.594405000000002 14.987704000000003 9.584453000000002
26.793595000000003 14.893595000000001 10.275754000000003
27.936091000000005 14.799797000000002 8.181825000000002
26.793595000000003 14.893595000000001 11.918595000000002
27.994028 14.797860000000002 9.586921000000002
33.440541 21.74734 8.179067000000002
33.480363000000004 21.794429 9.584453000000002
32.743595 20.843595 10.275754000000003
32.038199 19.939985 8.181825000000002
32.743595 20.843595 11.918595000000002
32.004785 19.892614000000002 9.586921000000002
20.742078 31.606853 8.179067000000002
20.733831000000002 31.545737000000003 9.584453000000002
20.843595 32.743595 10.275754000000003
20.952308000000002 33.884768 8.181825000000002
20.843595 32.743595 11.918595000000002
20.955001000000003 33.942676 9.586921000000002
19.735553000000003 14.620225000000001 8.179067000000002
19.675074000000002 14.608165000000001 9.584453000000002
20.843595 14.893595000000001 10.275754000000003
21.958166000000006 15.161600000000002 8.181825000000002
20.843595 14.893595000000001 11.918595000000002
22.013806000000002 15.177869000000001 9.586921000000002
21.870172000000004 26.294968000000004 8.179067000000002
21.924374 26.265552 9.584453000000002
20.843595 26.793595000000003 10.275754000000003
19.815432 27.300523000000005 8.181825000000002
20.843595 26.793595000000003 11.918595000000002
19.762256 27.323607000000003 9.586921000000002
15.987245000000001 20.517377000000003 8.179067000000002
16.045488 20.497106000000002 9.584453000000002
14.893595000000001 20.843595 10.275754000000003
13.797038000000002 21.177748 8.181825000000002
14.893595000000001 20.843595 11.918595000000002
13.740832000000001 21.191937000000003 9.586921000000002
26.272006000000005 31.728492000000003 8.179067000000002
26.24138 31.674965 9.584453000000002
26.793595000000003 32.743595 10.275754000000003
27.323518 33.760098 8.181825000000002
26.793595000000003 32.743595 11.918595000000002
27.347792000000005 33.812740000000005 9.586921000000002
8.179067000000002 26.535745000000006 16.005352000000002
9.584453000000002 26.524533000000005 16.065993
10.275754000000003 26.793595000000003 14.893595000000001
8.181825000000002 27.045988 13.775385000000002
11.918595000000002 26.793595000000003 14.893595000000001
9.586921000000002 27.061478 13.719523000000002
8.179067000000002 32.290780000000005 33.791186
9.584453000000002 32.268886 33.848839
10.275754000000003 32.743595 32.743595
8.181825000000002 33.192198000000005 31.688678000000003
11.918595000000002 32.743595 32.743595
9.586921000000002 33.217443 31.636494
8.179067000000002 21.791792 21.478742000000004
9.584453000000002 21.844523000000002 21.51072
10.275754000000003 20.843595 20.843595
8.181825000000002 19.887430000000002 20.211263000000002
11.918595000000002 20.843595 20.843595
9.586921000000002 19.840685 20.17698
8.179067000000002 27.613595000000004 21.637376000000003
9.584453000000002 27.659792000000003 21.67823
10.275754000000003 26.793595000000003 20.843595
8.181825000000002 25.965253000000004 20.051165
11.918595000000002 26.793595000000003 20.843595
9.586921000000002 25.925356 20.009109000000002
8.179067000000002 15.181786 27.897875
9.584453000000002 15.200031000000001 27.956784
10.275754000000003 14.893595000000001 26.793595000000003
8.181825000000002 14.597574000000002 25.686135
11.918595000000002 14.893595000000001 26.793595000000003
9.586921000000002 14.585337 25.629472
8.179067000000002 15.868152000000002 32.149685
9.584453000000002 15.919314000000002 32.115253
10.275754000000003 14.893595000000001 32.743595
8.181825000000002 13.918248000000002 33.345918000000005
11.918595000000002 14.893595000000001 32.743595
9.586921000000002 13.867506000000002 33.37395
8.179067000000002 32.400168 25.705226000000003
9.584453000000002 32.37898 25.647311000000002
10.275754000000003 32.743595 26.793595000000003
8.181825000000002 33.095002 27.884745000000002
11.918595000000002 32.743595 26.793595000000003
9.586921000000002 33.110076 27.94072
39.45812300000001 15.934866000000001 14.426430000000002
38.052737 15.992212 14.403747000000001
37.361436000000005 14.893595000000001 14.893595000000001
39.45536500000001 13.844940000000001 15.356649000000003
35.718595 14.893595000000001 14.893595000000001
38.05026900000001 13.793108000000002 15.382609000000002
39.45812300000001 27.233425000000004 27.846704000000003
38.052737 27.254605000000005 27.904623
37.361436000000005 26.793595000000003 26.793595000000003
39.45536500000001 26.358067000000005 25.733213
35.718595 26.793595000000003 26.793595000000003
38.05026900000001 26.333469 25.680721000000005
39.45812300000001 14.276876000000001 21.80388
38.052737 14.241247000000001 21.854216
37.361436000000005 14.893595000000001 20.843595
39.45536500000001 15.518744000000002 19.882718000000004
35.718595 14.893595000000001 20.843595
38.05026900000001 15.547965000000001 19.832652000000003
39.45812300000001 33.115767 25.714717
38.052737 33.138483 25.657384
37.361436000000005 32.743595 26.793595000000003
39.45536500000001 32.363373 27.875041000000003
35.718595 32.743595 26.793595000000003
38.05026900000001 32.346819 27.930597
39.45812300000001 15.091310000000002 27.917605000000002
38.052737 15.099247000000002 27.978761
37.361436000000005 14.893595000000001 26.793595000000003
39.45536500000001 14.701675000000002 25.663435
35.718595 14.893595000000001 26.793595000000003
38.05026900000001 14.689211000000002 25.606821000000004
39.45812300000001 15.897839000000001 32.201393
38.052737 15.953369 32.174569
37.361436000000005 14.893595000000001 32.743595
39.45536500000001 13.881686000000002 33.282238
35.718595 14.893595000000001 32.743595
38.05026900000001 13.831896000000002 33.311926
39.45812300000001 26.244411 21.844038000000005
38.052737 26.21233 21.896706000000002
37.361436000000005 26.793595000000003 20.843595
39.45536500000001 27.351148000000002 19.841982
35.718595 26.793595000000003 20.843595
38.05026900000001 27.376855 19.790023
15.916520000000002 8.179067000000002 32.237518
15.972970000000002 9.584453000000002 32.21269
14.893595000000001 10.275754000000003 32.743595
13.863137000000002 8.181825000000002 33.245842
14.893595000000001 11.918595000000002 32.743595
13.812320000000001 9.586921000000002 33.273737000000004
20.080695000000002 8.179067000000002 31.894788
20.041579000000002 9.584453000000002 31.847112000000003
20.843595 10.275754000000003 32.743595
21.604836000000006 8.181825000000002 33.600688
20.843595 11.918595000000002 32.743595
21.645387 9.586921000000002 33.642113
32.076917 8.179067000000002 21.769894
32.038674 9.584453000000002 21.818273000000005
32.743595 10.275754000000003 20.843595
33.418723 8.181825000000002 19.917151000000004
32.743595 11.918595000000002 20.843595
33.450552 9.586921000000002 19.868702
31.941042000000003 8.179067000000002 15.705012000000002
31.895744 9.584453000000002 15.746859000000002
32.743595 10.275754000000003 14.893595000000001
33.554518 8.181825000000002 14.083348000000003
32.743595 11.918595000000002 14.893595000000001
33.593491 9.586921000000002 14.040435000000002
15.860132000000002 8.179067000000002 26.186721000000006
15.913784000000001 9.584453000000002 26.156314000000002
14.893595000000001 10.275754000000003 26.793595000000003
13.919177000000001 8.181825000000002 27.397420000000004
14.893595000000001 11.918595000000002 26.793595000000003
13.871440000000002 9.586921000000002 27.430308000000004
26.624413000000004 8.179067000000002 31.614938000000002
26.618028000000002 9.584453000000002 31.553600000000003
26.793595000000003 10.275754000000003 32.743595
26.956827000000004 8.181825000000002 33.878254
26.793595000000003 11.918595000000002 32.743595
26.967854000000003 9.586921000000002 33.935165000000005
26.904487000000003 8.179067000000002 16.029461
26.907708 9.584453000000002 16.091047000000003
26.793595000000003 10.275754000000003 14.893595000000001
26.688953000000005 8.181825000000002 13.752041000000002
26.793595000000003 11.918595000000002 14.893595000000001
26.680869 9.586921000000002 13.694638000000001
31.92125 39.45812300000001 20.052243000000004
31.874932 38.052737 20.011527
32.743595 37.361436000000005 20.843595
33.574278 39.45536500000001 21.633570000000006
32.743595 35.718595 20.843595
33.614299 38.05026900000001 21.675508
21.118351000000004 39.45812300000001 16.001295
21.135879000000003 38.052737 16.060421
20.843595 37.361436000000005 14.893595000000001
20.561048 39.45536500000001 13.782621
20.843595 35.718595 14.893595000000001
20.549501 38.05026900000001 13.725813000000002
21.783691000000005 39.45812300000001 26.146518
21.832864 38.052737 26.109300000000005
20.843595 37.361436000000005 26.793595000000003
19.903176000000002 39.45536500000001 27.449116000000004
20.843595 35.718595 26.793595000000003
19.854069000000003 38.05026900000001 27.479921000000004
14.499989000000001 39.45812300000001 21.914839
14.481349000000002 38.052737 21.973624
14.893595000000001 37.361436000000005 20.843595
15.282586000000002 39.45536500000001 19.765272000000003
14.893595000000001 35.718595 20.843595
15.304878000000002 38.05026900000001 19.711759
21.144223000000004 39.45812300000001 31.642636000000003
21.157772 38.052737 31.582473
20.843595 37.361436000000005 32.743595
20.548169 39.45536500000001 33.851214
20.843595 35.718595 32.743595
20.530532 38.05026900000001 33.906435
27.807371000000003 39.45812300000001 21.367758000000002
27.863372000000005 38.052737 21.393585
26.793595000000003 37.361436000000005 20.843595
25.772219 39.45536500000001 20.323128000000004
26.793595000000003 35.718595 20.843595
25.721905 38.05026900000001 20.294335000000004
25.868746 39.45812300000001 26.124907
25.817194 38.052737 26.091062
26.793595000000003 37.361436000000005 26.793595000000003
27.726508000000003 39.45536500000001 27.459755
26.793595000000003 35.718595 26.793595000000003
27.771996 38.05026900000001 27.495690000000003
23.818595000000002 37.194256 17.868595
29.768595000000005 29.768595000000005 37.194256
10.442934000000001 23.818595000000002 29.768595000000005
10.875145000000002 29.768595000000005 36.76204500000001
17.868595 37.194256 23.818595000000002
29.768595000000005 37.194256 17.868595
17.868595 10.442934000000001 23.818595000000002
23.818595000000002 29.768595000000005 37.194256
23.818595000000002 10.442934000000001 17.868595
23.818595000000002 10.442934000000001 29.768595000000005
10.875145000000002 17.868595 10.875145000000002
36.76204500000001 23.818595000000002 36.76204500000001
37.194256 17.868595 29.768595000000005
23.818595000000002 37.194256 29.768595000000005
17.868595 36.76204500000001 10.875145000000002
10.875145000000002 23.818595000000002 36.76204500000001
10.875145000000002 10.875145000000002 23.818595000000002
29.768595000000005 10.442934000000001 17.868595
10.442934000000001 17.868595 29.768595000000005
10.442934000000001 29.768595000000005 29.768595000000005
17.868595 10.875145000000002 10.875145000000002
36.76204500000001 29.768595000000005 10.875145000000002
37.194256 23.818595000000002 17.868595
10.875145000000002 36.76204500000001 23.818595000000002
36.76204500000001 10.875145000000002 23.818595000000002
37.194256 29.768595000000005 29.768595000000005
29.768595000000005 10.442934000000001 29.768595000000005
29.768595000000005 10.875145000000002 36.76204500000001
37.194256 29.768595000000005 23.818595000000002
17.868595 17.868595 37.194256
29.768595000000005 29.768595000000005 10.442934000000001
17.868595 23.818595000000002 37.194256
23.818595000000002 17.868595 10.442934000000001
29.768595000000005 17.868595 37.194256
11.918595000000002 11.918595000000002 17.868595
11.918595000000002 17.868595 17.868595
11.918595000000002 17.868595 23.818595000000002
11.918595000000002 23.818595000000002 11.918595000000002
11.918595000000002 23.818595000000002 17.868595
11.918595000000002 23.818595000000002 23.818595000000002
11.918595000000002 29.768595000000005 17.868595
11.918595000000002 29.768595000000005 23.818595000000002
11.918595000000002 35.718595 17.868595
17.868595 11.918595000000002 17.868595
17.868595 11.918595000000002 29.768595000000005
17.868595 11.918595000000002 35.718595
17.868595 17.868595 11.918595000000002
17.868595 17.868595 17.868595
17.868595 17.868595 23.818595000000002
17.868595 17.868595 29.768595000000005
17.868595 23.818595000000002 11.918595000000002
17.868595 23.818595000000002 17.868595
17.868595 23.818595000000002 23.818595000000002
17.868595 23.818595000000002 29.768595000000005
17.868595 29.768595000000005 11.918595000000002
17.868595 29.768595000000005 17.868595
17.868595 29.768595000000005 23.818595000000002
17.868595 29.768595000000005 29.768595000000005
17.868595 29.768595000000005 35.718595
17.868595 35.718595 17.868595
17.868595 35.718595 29.768595000000005
17.868595 35.718595 35.718595
23.818595000000002 11.918595000000002 11.918595000000002
23.818595000000002 11.918595000000002 23.818595000000002
23.818595000000002 11.918595000000002 35.718595
23.818595000000002 17.868595 17.868595
23.818595000000002 17.868595 23.818595000000002
23.818595000000002 17.868595 29.768595000000005
23.818595000000002 17.868595 35.718595
23.818595000000002 23.818595000000002 11.918595000000002
23.818595000000002 23.818595000000002 17.868595
23.818595000000002 23.818595000000002 23.818595000000002
23.818595000000002 23.818595000000002 29.768595000000005
23.818595000000002 23.818595000000002 35.718595
23.818595000000002 29.768595000000005 11.918595000000002
23.818595000000002 29.768595000000005 17.868595
23.818595000000002 29.768595000000005 23.818595000000002
23.818595000000002 29.768595000000005 29.768595000000005
23.818595000000002 35.718595 11.918595000000002
23.818595000000002 35.718595 23.818595000000002
29.768595000000005 11.918595000000002 11.918595000000002
29.768595000000005 11.918595000000002 23.818595000000002
29.768595000000005 17.868595 11.918595000000002
29.768595000000005 17.868595 17.868595
29.768595000000005 17.868595 23.818595000000002
29.768595000000005 17.868595 29.768595000000005
29.768595000000005 23.818595000000002 11.918595000000002
29.768595000000005 23.818595000000002 17.868595
29.768595000000005 23.818595000000002 23.818595000000002
29.768595000000005 23.818595000000002 29.768595000000005
29.768595000000005 23.818595000000002 35.718595
29.768595000000005 29.768595000000005 17.868595
29.768595000000005 29.768595000000005 23.818595000000002
29.768595000000005 29.768595000000005 29.768595000000005
29.768595000000005 35.718595 11.918595000000002
29.768595000000005 35.718595 23.818595000000002
29.768595000000005 35.718595 29.768595000000005
29.768595000000005 35.718595 35.718595
35.718595 11.918595000000002 17.868595
35.718595 11.918595000000002 29.768595000000005
35.718595 17.868595 11.918595000000002
35.718595 17.868595 17.868595
35.718595 17.868595 23.818595000000002
35.718595 17.868595 35.718595
35.718595 23.818595000000002 11.918595000000002
35.718595 23.818595000000002 23.818595000000002
35.718595 23.818595000000002 29.768595000000005
35.718595 29.768595000000005 17.868595
35.718595 29.768595000000005 35.718595
35.718595 35.718595 17.868595
35.718595 35.718595 23.818595000000002
35.718595 35.718595 29.768595000000005
27.027754 28.857725000000002 40.03194200000001
26.550817000000002 24.737275000000004 40.037651000000004
26.545758 24.644263000000002 37.540646
27.043173000000003 28.942952 37.53613500000001
24.73057 32.987299 40.03194200000001
28.848770000000002 32.491308000000004 40.037651000000004
28.941758 32.485819 37.540646
24.645415 33.003112 37.53613500000001
19.169885 31.513085000000004 40.03194200000001
22.517430000000004 33.962474 40.037651000000004
22.589118 34.021953 37.540646
19.096871 31.466497000000004 37.53613500000001
19.88601 16.737095000000004 40.03194200000001
21.789669000000004 13.051766000000002 40.037651000000004
21.837377000000004 12.971761000000003 37.540646
19.851243000000004 16.816422000000003 37.53613500000001
28.814869 20.364101 40.03194200000001
24.781107000000006 21.330712000000005 40.037651000000004
24.689368 21.346865 37.540646
28.897638 20.338593000000003 37.53613500000001
13.838783000000001 16.683241000000002 40.03194200000001
15.936824000000001 13.105002 40.037651000000004
15.988742000000002 13.027663000000002 37.540646
13.799823000000002 16.760595000000002 37.53613500000001
32.787554 24.716691000000004 40.03194200000001
32.709223 28.863911 40.037651000000004
32.701799 28.956765000000004 37.540646
32.78367 24.630168000000005 37.53613500000001
28.864145999999998 14.725428000000003 7.605248000000001
24.729046000000004 15.051799 7.599539000000002
24.636803 15.064766 10.096544000000002
28.950747 14.724127000000001 10.101055000000002
31.466727 19.204977 7.605248000000001
34.00884 22.482664 7.599539000000002
34.070302 22.552659000000006 10.096544000000002
31.418114000000003 19.133295000000004 10.101055000000002
21.038793000000005 34.811773 7.605248000000001
20.658438000000004 30.681288000000002 7.599539000000002
20.644267 30.589223000000004 10.096544000000002
21.041225000000004 34.898349 10.101055000000002
22.862968000000002 15.381033000000002 7.605248000000001
18.833038000000002 14.398569000000002 7.599539000000002
18.741363 14.382055000000001 10.096544000000002
22.945636 15.406866000000003 10.101055000000002
18.97958 27.710606000000006 7.605248000000001
22.705688000000002 25.888055 7.599539000000002
22.786718 25.842110000000005 10.096544000000002
18.899511000000004 27.743628 10.101055000000002
12.905913000000002 21.447400000000002 7.605248000000001
16.877527 20.2508 7.599539000000002
16.964916000000002 20.21855 10.096544000000002
12.821561 21.467052000000002 10.101055000000002
27.752296 34.586515 7.605248000000001
25.846406 30.902339000000005 7.599539000000002
25.798650000000002 30.822362 10.096544000000002
27.787110000000006 34.665821 10.101055000000002
7.605248000000001 27.252749 12.867604000000002
7.599539000000002 26.326731000000002 16.910878000000004
10.096544000000002 26.311500000000002 17.002774000000002
10.101055000000002 27.277423000000006 12.784582000000002
7.605248000000001 33.558214 30.832612000000005
7.599539000000002 31.922949000000003 34.64463
10.096544000000002 31.891505000000002 34.732312
10.101055000000002 33.59736 30.755352000000002
7.605248000000001 19.11186 19.696183
7.599539000000002 22.564454000000005 21.995131
10.096544000000002 22.644987 22.041943000000003
10.101055000000002 19.042973000000003 19.643685
7.605248000000001 25.293751 19.406261
7.599539000000002 28.282003000000003 22.283051
10.096544000000002 28.352917000000005 22.343450000000004