1_train/32_cspbbr3_methylammonium_3_0.50\32_cspbbr3_methylammonium_3_0.50.xyz
1.0
41.8367 0 0
0 41.8367 0
0 0 41.8367
Br C Cs H N Pb 
108 23 31 138 23 27 
Cartesian
23.936849 15.112860999999999 21.13633
26.896062 11.815413999999999 20.833019
20.892172 23.687432 14.784491
26.905743 14.92963 17.767172
29.839901 14.799505 26.691979
23.774414999999998 15.004849 15.12492
29.782117 21.124506 14.997389
26.732481999999997 12.088626 15.051044999999998
26.75367 14.895166 12.151523
29.974722 21.060958 21.093035
21.087080999999998 29.631301999999998 26.908084
20.902231999999998 27.130715000000002 17.960583
20.836872999999997 29.726063 20.751693
29.791173 15.186444999999999 20.83487
20.783386999999998 29.979082 14.818819
20.748723 26.805932 29.725405
18.113784 26.842905000000002 26.707728
17.774746 26.947964 15.201034
21.094828 23.850366 26.711273
30.036455 26.972203 15.030023
17.810538 26.639706 20.878875
20.680812 24.047614 20.903952
29.75713 26.723756 20.846246
29.673066 26.751305000000002 26.927033
29.735553 21.102224999999997 26.695078
23.760173 26.763410999999998 20.755844
26.826379 11.881411 26.732674
26.747912999999997 24.045488 21.042431999999998
27.00273 26.746696999999998 17.819243999999998
26.846305 27.093361 24.005775999999997
26.777216 23.77321 26.709598999999997
24.124077 26.925975 14.789185999999999
26.921977 24.077558 14.807148
26.762282 26.739365 11.891256
24.079374 26.738487 26.954056
27.083430999999997 26.813111 29.823377
26.974918 21.03955 29.759653
23.889966 20.828243999999998 27.037374
26.663342999999998 18.120962 26.828837999999998
26.920274 21.057519 23.716127
26.74546 29.870981 15.128506999999999
24.111133 20.896307999999998 21.048943
27.095084 17.839299 20.857283
21.044746 26.708416 12.053306
26.960684999999998 21.013908 17.799844999999998
26.830292 29.973252 20.724142999999998
24.012134 21.11164 14.967079
26.711671 17.777986 14.987554
26.929291 20.783239000000002 11.823884999999999
27.014041 29.855296 27.026092
26.967469 15.176824 29.757324
24.104239 14.891257 26.92568
26.753211999999998 14.819547 24.092610999999998
29.857139 15.134917 14.763874
20.839803 26.666452 23.72695
21.097335 20.807603999999998 29.801794
15.10545 26.785969 29.971956
12.149134 26.713485 26.966255
15.042406 23.786113999999998 27.014713999999998
15.129477 26.777659999999997 23.815637
11.943498 26.770428 20.740031000000002
15.074199 23.990795 21.034838999999998
15.090057 26.990757000000002 18.0579
12.125167999999999 26.717047 15.125833
14.907613999999999 23.842998 14.724685
15.144804 20.849275 29.996990999999998
12.155076 20.998359 26.669857
15.146979 18.139775999999998 26.950156
15.181563 20.977874 23.853172
12.25361 21.006841 20.887749999999997
14.761433 18.138227 20.945760999999997
14.980578999999999 20.754469999999998 18.132314
12.012179 21.041766 14.741765
14.786366 18.052429 15.002187
14.772029 21.031471 11.996709
15.083715999999999 14.841726999999999 29.749594
12.107948 14.816294 26.790942
14.941030999999999 11.969579 27.136522
14.780356999999999 15.122674 23.948805
12.154154 14.937797999999999 21.114952
15.109430999999999 11.740272 20.973287
15.041274999999999 14.93013 17.770663
11.956035 15.123073 14.85512
15.113541 11.897355 14.819842
14.764531 14.963142999999999 11.959195
15.194462 29.769799 15.022183
15.114738 30.012726999999998 20.750728
14.761977 26.804797 11.862466
14.878554999999999 29.962055 27.00528
18.063525 20.809195 27.025224
20.855076 18.141809 26.819224
20.866926 21.108337 24.06989
17.786417999999998 20.866579 20.788027999999997
21.034933 17.98652 21.159565
20.958634 20.872003 17.739136
20.790329999999997 18.014241 15.082208999999999
20.798163 20.719817 12.172379
20.774085 14.875134 30.013754
18.022407 15.050977 26.624931
21.046903999999998 11.838201 26.717318
21.089513 15.014700999999999 23.652122
17.988699 20.859285999999997 14.783646
20.832441 15.145723 18.062137999999997
17.852517 14.784628999999999 20.793616
20.730947999999998 12.176304 14.969227
20.979348 12.178204 20.732362000000002
17.968973 14.804644 14.884993
21.089142 15.142071999999999 12.039342
17.991028 31.312751 17.870616
17.893044 18.001988 10.470804999999999
23.952954 31.34857 17.86742
30.934999 17.86471 10.965468
17.933225 10.971898 10.87289
31.259853 23.970348 17.899546
10.890633 10.982545 17.985878
17.892462 10.581529 23.893251
30.847922999999998 30.938557 23.849567
23.880273 23.971634 31.328456
10.592507999999999 23.923915 23.836934
23.803155 30.90436 30.905155
30.838827 10.936395 17.857609
17.980251 10.50934 18.012828
11.00342 23.963009999999997 10.971603
30.89042 30.93893 17.85363
17.926876999999998 31.409532 23.907950999999997
30.830323 10.985907 23.97411
30.839606 17.88831 30.869206
23.837196 30.94345 10.974419
23.915933 23.928675 10.590644999999999
30.892264 23.795007 10.984200999999999
17.895468 11.006020999999999 30.953605
24.30502 17.667774 24.228844
12.015867 23.745675 29.285482
17.645347 24.033911 23.638969
11.822336 12.395498 24.166112
18.268197999999998 18.197792 23.670543000000002
30.083924 18.257747 17.679288
12.175265999999999 24.176597 18.112491
12.159037 29.637732 18.199182999999998
17.911538 24.195968999999998 17.559232
23.886801 12.264488 29.470724999999998
29.420357 24.129801999999998 24.042806
17.904089 17.663257 30.132103999999998
29.838106 23.476122 30.251925
29.548302 18.161755 23.927868
11.766053999999999 29.499233 24.260695
23.558507 29.495406 23.620539
17.781554 18.375359 17.736023
24.053321 12.553389 18.108806
23.756534000000002 17.89713 29.504742
18.110275 23.858446999999998 12.355407
12.006287 18.271618 11.7347
12.409308 17.706789 29.881339999999998
18.270135 29.451396 30.081582
23.739124 24.104734999999998 18.384239
23.937324 11.71843 11.618532
23.936233 18.130772 18.356881
18.287675 29.551662 12.278857
23.847946 23.663091 24.354764
11.670463999999999 17.573128 18.209213
17.834215999999998 24.127923 29.55568
11.749403 18.121007 24.121979
18.869483 12.196303 29.499843
23.253428999999997 29.090784 30.030112
24.163156 30.443869 31.821865
22.858783 31.271167 30.954143
24.821863 29.446949 29.754571
23.649099999999997 30.248974 28.916238
30.646200999999998 10.211039 17.216759
24.595943 31.681317 30.608273
28.949708 23.462299 11.665225
12.394397 23.991918 24.81383
28.890172 30.228955 23.731561
29.986401 12.662583 24.624949
31.283943 16.894647 31.00588
31.706985 18.583334999999998 30.565653
30.445061 18.29905 31.85155
29.464087 18.92983 29.707037
17.616718 12.874729 30.209466
29.030618 17.317259999999997 30.069242
17.331839 11.714489 29.018748
10.192279 23.097121 24.498452999999998
10.209976 24.822951 24.300767999999998
10.207654 23.802355 22.871667
12.357726 24.665715 23.272917999999997
12.397442 22.983787 23.524372
30.215955 17.652851 28.971742
31.799889999999998 11.41197 17.685065
18.172669 10.18352 18.989544
30.074897 12.71275 18.650126999999998
31.135364 31.151832 16.900941
30.205427 28.98902 17.454684999999998
29.007658 30.136674 17.475133
29.593056 29.565513 18.890732
18.694423 31.676334 24.622469
18.199799 31.675683 22.877175
31.780691 30.529920999999998 18.483052
16.926366 31.690243 24.122183
17.654499 29.444278 24.823214
18.83505 29.444458 23.672972
30.83671 10.461519 24.838543
30.633199 10.229922 23.10408
31.823968999999998 11.468307 23.718047
29.813475 12.461442 22.979188
17.274355999999997 29.487864 23.236704
30.489286 31.791401999999998 18.466794999999998
16.882385 10.799536999999999 31.180246
12.889714999999999 24.205301 11.648613
28.893175 11.579735 18.14671
29.758852 12.437918999999999 17.055374
18.593096 11.309745999999999 31.747495
29.96942 29.132399 23.133513999999998
16.923817 10.192833 17.610442
18.671155 10.172395 17.262411999999998
17.743181 12.349897 16.992094
18.834243999999998 12.351609999999999 18.229364
17.277573 12.360631999999999 18.587454
18.337992999999997 10.077969999999999 30.428569
10.880220999999999 24.923344999999998 10.546332999999999
11.245847 23.225330999999997 10.180166999999999
10.044455 23.546031 11.386723
12.15369 22.966047 12.358628999999999
11.729977 24.522572 12.806073
30.890933 10.479146 18.964466
29.820439 29.305875 24.805058
17.012442 29.435135 17.79935
30.691315 31.593943 24.676831999999997
17.933056999999998 16.955954 12.384965
17.109434 18.423254999999997 12.344127
18.759825 18.421506 12.343741
24.524406 31.619837999999998 18.778676
24.306438999999997 31.674938 16.958016999999998
22.8798 31.628694 18.074291
17.045582 17.401901 10.166974
23.267813 29.472210999999998 17.2213
24.858511 29.498369999999998 17.780547
23.683411 22.953919 12.384962999999999
31.196455999999998 16.894875 10.750323999999999
30.476416 18.353243 10.02238
31.761356 18.530995 11.326492
29.484412 18.917769 12.203726999999999
23.567672 29.488115999999998 18.807449
18.846856 17.443186 10.191111
17.983448 18.999708 10.149443
24.73648 23.428584999999998 29.481772
29.655482 24.865017 12.298356
30.155297 23.329394 12.839948
31.042616 22.88986 10.630939999999999
23.473632000000002 30.468013 10.01485
23.276333 31.684057 11.331399
24.941843 31.199406 10.825515
24.293211 30.181587999999998 12.882252999999999
24.478257 29.055139 11.745206
22.919159 29.520426 12.156894999999999
31.769467 24.316231000000002 11.403221
23.864516000000002 22.887525 31.675581
24.788691999999998 24.377670000000002 31.625574999999998
23.005739 24.395017 31.668779999999998
23.872684999999997 24.822696999999998 29.480035
23.054812 23.432592 29.508541
30.169541 17.51738 12.883056
29.069191 17.403927 11.702435999999999
24.798413 24.237420999999998 12.342585
17.315983 10.094927 11.322858
22.887647 23.576991 10.166172
17.066333999999998 10.20431 23.356951
18.875109 10.193997 23.400447
17.950588 10.207153 24.961191
18.797079 12.348360999999999 24.369103
17.094712 12.338649 24.385219
17.964761 12.392778 22.917763
24.700425 23.224679000000002 10.156782
17.302386 31.632699 18.805534
18.964713 31.686532 18.101672999999998
17.576943 31.637254 16.981045
18.507338 29.443868 17.159081999999998
30.495113 24.469839999999998 10.098046
18.334405 29.455911999999998 18.853326
30.827628 31.371686999999998 22.937838
12.335955 12.174189 16.967954
31.824435 30.421091 24.027459999999998
11.637901 12.864338 18.30352
10.570484 10.811411999999999 18.997066
17.5034 11.360146 10.079547999999999
18.979244 10.686793999999999 10.754811
18.466386 12.84751 11.721475
18.376552 11.66924 12.899911
16.977986 12.289354999999999 12.226688
23.158868 24.499706 12.328672
31.680967 22.877192 18.049149
31.692382 24.277901 16.963966
31.684366999999998 24.511853000000002 18.77901
29.495333 24.826864 17.841025
29.492983 23.554598 18.850627
29.44868 23.301273000000002 17.153859
24.064227 24.935287 10.187863
10.107403 11.282249 17.282893
11.422422 10.002815 17.585186
12.821131999999999 11.735501 18.534405
28.938594 11.582759 24.029729
29.896433 29.906588 17.930865
29.897664 18.007265 12.013226999999999
17.897785 12.033501 23.973532
23.831297 29.846764 17.902706
29.824635999999998 23.932406999999998 17.878596
12.029266999999999 12.058023 17.909928
11.990578 23.804972 23.914242
17.899911 17.996163 11.957856999999999
29.881585 23.91085 12.059089
11.943144 23.841994 12.067964
17.898272 29.878042 23.846085
17.974565 29.79405 17.876734
18.007074 12.05261 29.815235
23.947967 23.912727 29.88732
29.767262 29.772954 23.876832
23.846536999999998 23.954262999999997 11.990865
23.853835 29.88764 12.03702
29.906156 11.959863 18.009747
29.789898 17.871366 29.865073
29.930495 12.024796 23.933663
18.011671 11.927431 17.979126
17.911834 12.055366 12.069286
23.985176 29.832613 29.843638
14.671854999999999 15.018466 15.136244999999999
27.006740999999998 27.069059 21.042124
26.771887 26.723243 15.212620999999999
15.165763 27.085282 15.174527999999999
15.197403999999999 26.754137 21.121147999999998
27.08298 21.159478999999997 26.969082
26.992558 20.720322 20.918875999999997
27.129952 20.940235 15.206672999999999
20.838755 14.673608 14.928192
14.669730999999999 20.901699999999998 26.803198000000002
26.70924 14.925682 27.032280999999998
26.979609 14.774211999999999 20.768327
20.819693 15.239785 26.740696
26.664624 15.164228 14.990587999999999
20.979896 21.211427999999998 14.963086
21.11955 21.148032 20.816947
21.208525 26.914728 26.950232999999997
20.717579 21.002706 26.929851
21.061151 27.050974 21.110366
21.229944 14.972299 20.80708
26.659084 26.897589 26.586833
14.841629 26.853707 27.062807999999997
21.077351999999998 26.563757 14.897782
15.119888 14.781664 27.02376
14.843425 14.898071999999999 21.164676
15.198753 21.185066 15.062907
14.938918 20.761961 21.101615
