140_cspbbr3_4\140_cspbbr3_4.xyz
1.0
44.878626999999994 0 0
0 44.878626999999994 0
0 0 44.878626999999994
Br Cs Pb 
240 112 64 
Cartesian
25.2765855 28.3741785 13.6960375
13.444523499999999 10.369574499999999 31.519280499999997
31.387451499999997 28.2767685 19.216655499999998
25.515137499999998 19.3111655 34.421412499999995
13.551416499999998 16.461457499999998 13.728620499999998
25.2203565 25.359001499999998 10.455091499999998
25.536415499999997 22.4434725 13.341832499999999
22.233171499999997 25.6196095 13.4644795
31.5463125 28.275830499999998 25.3852825
13.756451499999999 19.5260005 10.5673155
25.6119275 25.5244665 16.4783165
25.1810865 22.5099295 19.558324499999998
22.6449695 25.291239499999996 19.4847285
31.4272475 31.2659795 22.276092499999997
25.617616499999997 25.4949965 22.2748865
25.255334499999996 22.415898499999997 25.249968499999998
22.6461525 19.341145499999996 31.4147955
22.2261375 25.4526355 25.2864245
13.507895499999998 13.479204499999998 34.1504375
25.274662499999998 25.4668425 28.281595499999998
25.6123245 22.5306805 31.359747499999997
22.604873499999997 25.316041499999997 31.301456499999997
25.5985595 25.3481315 34.440138499999996
28.2626785 31.2354235 19.2748125
10.4047615 13.548974499999998 31.242129499999997
25.507411499999996 31.5079145 10.7287185
22.224182499999998 31.2453625 13.4048965
13.424152499999998 22.416976499999997 25.6010615
25.4863005 19.2247715 28.4110525
25.6205925 31.2073795 16.478537499999998
13.645565499999998 19.4990395 22.2725875
13.322850499999998 25.5633445 22.5788395
25.2130035 10.641186499999998 19.657782499999996
22.672588499999996 13.4074295 19.4279145
25.336715499999997 13.275454499999999 22.5337705
25.2723965 10.4662125 25.5312575
22.364465499999998 13.715120499999998 25.5692575
28.5668035 31.1726735 31.3141425
10.722552499999999 19.6589255 19.5619705
25.2680035 13.402880499999998 28.3614915
25.545187499999997 10.651506499999998 31.4913685
22.2145285 13.500462499999998 31.4217385
31.1383035 28.3435675 31.2686295
25.644079499999997 13.624151499999998 34.2960505
31.2151155 31.2942455 28.596877499999998
13.3388195 16.608464499999997 19.3267705
25.2952535 19.3252315 10.652583499999999
25.1997955 16.5731845 13.674451499999998
22.4278915 19.3351695 13.6803955
13.417384499999999 19.6271135 16.3577855
25.2677975 19.548606499999998 16.5537785
25.5552335 16.4451395 19.2371525
22.5975455 19.561997499999997 19.2973975
34.1514325 31.3303855 25.401399499999997
25.684492499999998 19.4988935 22.415169499999998
25.5456215 16.340694499999998 25.427487499999998
22.582094499999997 19.3323155 25.3955335
28.602797499999998 31.4521175 25.2473985
10.561108499999998 19.6273055 13.2892175
25.5925475 16.5620895 31.4729635
25.532872499999996 28.574457499999998 19.554297499999997
13.3798845 13.351495499999999 28.476809499999998
31.1608155 31.4074305 16.320102499999997
28.6673725 13.540699499999999 31.459065499999998
31.1621915 25.4533575 28.311282499999997
31.351145499999998 13.299272499999999 34.394192499999996
10.6979525 13.423389499999999 19.513681499999997
13.401050499999998 10.4061405 19.7057875
31.3429525 19.547461499999997 10.375596499999999
31.455757499999997 16.232400499999997 13.458602499999998
28.517698499999998 19.6276675 13.5267355
13.505258499999998 13.5945875 16.299843499999998
31.221911499999997 19.404362499999998 16.6287685
31.2414785 16.5483405 19.335434499999998
28.5250375 19.3431525 19.572686499999996
28.3168725 25.3654705 25.5762455
31.5397175 19.674781499999998 22.3753595
31.3128235 16.354885499999998 25.279396499999997
28.348701499999997 19.263383499999996 25.5114735
31.468303499999998 22.3253645 25.6312925
31.426948499999998 19.6754565 28.254136499999998
31.498077499999997 16.567521499999998 31.461436499999998
28.4483075 19.639624499999996 31.4201825
31.468790499999997 25.474925499999998 22.289865499999998
31.5161765 19.697517499999996 34.3330875
10.7191345 13.5979435 13.685615499999999
13.323184499999998 10.611154499999998 13.467668499999998
31.2503465 25.5702115 10.714017499999999
31.5102285 22.5500965 13.6221065
28.4711465 25.419768499999996 13.679093499999999
13.3951885 13.484541499999999 10.313647499999998
31.4480985 25.6654825 16.413344499999997
31.3039705 10.631443499999998 31.6100265
22.316657499999998 31.3478535 19.6693255
31.2831025 13.395730499999999 28.228460499999997
28.602074499999997 13.3591945 25.395283499999998
31.370133499999998 31.1562195 34.164052500000004
25.511776499999996 31.6006555 22.516647499999998
25.5748455 28.5677575 25.5079465
22.3826735 31.607401499999998 25.4410395
34.2100565 31.618467499999998 31.4130805
25.430269499999998 31.1576845 28.534570499999997
25.4988735 28.6196895 31.3243565
22.543977499999997 31.444729499999998 31.156453499999998
25.305583499999997 31.2662655 34.1668975
28.229086499999998 31.181153499999997 13.589243499999998
25.424110499999998 34.4778555 13.697993499999999
31.484512499999997 28.3542225 13.678987499999998
25.5831315 34.4049465 19.319542499999997
31.2788905 31.1446105 10.359029499999998
25.3231605 34.2145885 25.2731915
10.411234499999999 13.415678499999999 25.2820455
25.500344499999997 34.2176925 31.497700499999997
31.1594095 25.5392675 34.2574695
13.412908499999999 10.7183085 25.553973499999998
31.3067565 13.591986499999999 10.7654895
31.2772015 10.3458335 13.682416499999999
28.5384095 13.6061185 13.3165965
13.372308499999999 13.5669875 22.2145485
31.248738499999998 13.6648015 16.3213165
31.4891565 10.402948499999999 19.3615975
28.5073595 13.374322499999998 19.5880815
28.228284499999997 25.5156225 31.3664985
31.2161145 13.633815499999999 22.3784775
31.1666305 10.613211499999998 25.224697499999998
31.2120265 22.262879499999997 31.539530499999998
22.434641499999998 13.382292499999998 13.2864805
25.555752499999997 13.713507499999999 16.495700499999998
25.5706705 13.642686499999998 10.377243499999999
34.1847685 31.2427595 13.548101499999998
19.2561145 13.687406499999998 16.6081385
19.5875475 10.782926499999999 19.5596235
16.611403499999998 13.403347499999999 19.361489499999998
34.064086499999995 19.5318595 31.307518499999997
10.5189075 25.2693235 13.371233499999999
19.316100499999997 13.3205985 22.521275499999998
19.333200499999997 10.7132005 25.268237499999998
16.5735825 13.395548499999999 25.2488575
13.467112499999999 22.573980499999998 13.271789499999999
19.6223875 13.4906385 28.2294225
19.4639225 10.544701499999999 31.0703405
16.6475175 13.703047499999998 31.4471845
34.4940825 19.547918499999998 25.504509499999998
19.6105825 13.698364499999999 34.1649245
13.384680499999998 25.499818499999996 10.3774895
19.597305499999997 19.339090499999998 10.570288499999998
19.6718545 16.5709895 13.538606499999998
16.3060205 19.4654715 13.587033499999999
34.4830595 19.371899499999998 19.582364499999997
19.494839499999998 19.2892585 16.3201265
19.3076115 16.6550585 19.308753499999998
25.292336499999998 10.408406499999998 13.385448499999999
19.4992595 19.6031155 22.5494015
19.606035499999997 16.6320025 25.5449105
16.2689035 19.6118905 25.394169499999997
34.1095355 19.5163455 13.520073499999999
16.4349365 13.332778499999998 13.387946499999998
19.3349695 10.586547499999998 13.2516875
19.317426499999996 13.373610499999998 10.745470499999998
13.533828499999998 34.4812295 31.5131405
10.578881499999998 25.3306095 25.178247499999998
13.488816499999999 25.1284505 28.347990499999998
13.562614499999999 22.2482305 31.4923945
10.710225499999998 25.6028645 31.495675499999997
13.459048499999998 25.6792395 34.3807665
34.331987500000004 25.428236499999997 31.5610355
13.5777855 31.3084855 10.366059499999999
13.643601499999999 28.5763435 13.530797499999998
10.2739845 31.357272499999997 13.4505375
10.428393499999999 25.5767265 19.512029499999997
13.360700499999998 31.1892005 16.343276499999998
13.366232499999999 28.160724499999997 19.4916215
10.3520525 31.548861499999997 19.366257499999996
13.654368499999999 19.3542535 34.481762499999995
13.6767975 22.332485499999997 19.6470015
13.6652405 28.1975855 25.4000855
10.723332499999998 31.5567285 25.365286499999996
34.323891499999995 25.543598499999998 25.1608195
13.370453499999998 25.4797395 16.5878585
13.728684499999998 31.2042985 28.4844445
13.519292499999999 28.5834865 31.1936365
10.687456499999998 31.5200455 31.3479295
13.6414935 31.5187615 34.2401735
13.4771475 34.2134155 13.365191499999998
34.3863455 25.2622735 19.2364605
13.456852499999998 34.463914499999994 19.2782645
13.525345499999998 34.458974500000004 25.5925445
34.1964065 25.447148499999997 13.6806235
13.374763499999998 31.2451425 22.5242005
19.2457355 19.270157499999996 28.397826499999997
16.679526499999998 19.275501499999997 19.458633499999998
16.5462195 19.2581775 31.459441499999997
19.462154499999997 25.6207415 34.1412105
19.4787765 31.4781135 10.710413499999998
19.284384499999998 28.5225965 13.650150499999999
16.6231545 31.5048785 13.6287855
34.3823965 13.351656499999999 13.696827499999998
19.5630995 16.320592499999997 31.1845015
19.500212499999996 31.193326499999998 16.3172505
19.277154499999998 28.214747499999998 19.3753595
16.5084745 31.2077265 19.323769499999997
31.1232415 22.328635499999997 19.5263585
19.418553499999998 31.2261985 22.616314499999998
19.2710085 28.5220885 25.4829455
16.6480735 31.292878499999997 25.532140499999997
31.200128499999998 34.3426955 31.1945885
10.591062499999998 19.6410025 25.3219085
19.5745585 31.123838499999998 28.2805835
19.1959195 28.419638499999998 31.4948695
16.6535025 31.205716499999998 31.237298499999998
19.359083499999997 31.533648499999998 34.5088955
31.372040499999997 34.5967565 25.3254935
19.5989655 34.1920125 13.5685565
19.6309915 34.1979105 19.3201665
31.511649499999997 34.208088499999995 19.269630499999998
19.314645499999997 34.3343805 25.2993535
19.705065499999996 34.3596305 31.3774685
31.5625185 34.280765499999994 13.727412499999998
13.745599499999999 16.4726635 25.339794499999996
34.2133865 13.6382965 19.521105499999997
16.5901975 25.4963755 31.622583499999998
28.4189245 25.4525955 19.2802905
19.7300555 25.4024935 28.422669499999998
19.6155235 19.4695945 34.162997499999996
34.4742865 13.328839499999999 31.5575545
34.551275499999996 31.342913499999998 19.512272499999998
19.2276435 25.5878115 10.557981499999999
19.3261525 22.2992645 13.425182499999998
16.6678625 25.5998655 13.614002499999998
10.7351795 19.5709965 31.3528535
19.322470499999998 22.2192275 31.2477025
19.3595125 22.3445425 19.6064585
16.524406499999998 25.2743325 19.601631499999996
34.4403855 13.3724245 25.5908645
13.6197375 16.3268825 31.3711415
19.5647475 25.525239499999998 16.373243499999997
19.2981435 25.3091195 22.2982645
13.288966499999999 19.631775499999996 28.3076615
19.4165955 22.5885855 25.5589785
16.6086825 25.609134499999996 25.222575499999998
34.6613055 22.291931499999997 16.3706845
28.6313355 34.3697215 22.8751545
34.849237499999994 28.6524525 16.5016125
34.5949605 10.619669499999999 16.8689605
28.1068645 28.7289885 22.6678335
34.3364195 28.7504125 10.637780499999998
28.4943945 34.6210375 16.1225625
28.0610765 28.7576385 34.1483155
28.588026499999998 22.7709605 33.8794895
28.107870499999997 34.0969325 10.863511499999998
28.288731499999997 21.9646895 22.1779965
34.5500895 22.8195355 34.39776749999999
33.7976295 16.3846875 10.583696499999999
34.4356665 33.862165499999996 16.1869715
34.2030855 16.1792445 16.339253499999998
33.905421499999996 16.6624025 34.372944499999996
28.5196845 28.4165125 28.827447499999998
34.4377535 22.8552805 28.1978975
28.218866499999997 34.7288575 28.6535095
34.5283715 10.338496499999998 22.0807525
34.397459500000004 27.9805915 28.6223995
34.7046285 11.0077255 28.4318615
34.0189525 16.9055315 28.3324395
28.566429499999998 22.4470565 28.0395185
28.325715499999998 28.036831499999998 16.109198499999998
34.6639895 16.245917499999997 22.8498655
34.4375185 22.695479499999998 22.158387499999996
34.5975855 28.6487455 22.702391499999997
27.9125545 34.406249499999994 34.460801499999995
34.4788905 28.1404785 34.082047499999994
28.669738499999998 28.480835499999998 10.7592755
34.499661499999995 22.6642005 10.803790499999998
22.3557725 10.757361499999998 34.858462499999995
28.6149235 22.7873985 10.251906499999999
16.6748825 10.450396499999998 22.976791499999997
16.595322499999998 10.9457955 27.977233499999997
16.4867565 10.930102499999998 34.7609165
16.5783085 16.8266645 10.235933499999998
16.806101499999997 16.2363185 16.5905275
16.275878499999997 16.1431695 22.7947395
16.6397855 15.934044499999999 28.4502185
16.3866095 10.120820499999999 16.8087715
16.395266499999998 16.4738045 33.97392249999999
16.3020075 22.4833495 16.0905055
16.2184395 22.0645855 22.1161665
16.1985265 22.662339499999998 28.664467499999997
16.4305005 22.7970695 34.3984725
16.413236499999996 28.638588499999997 10.797901499999998
16.335800499999998 28.619289499999997 16.7536325
16.865511499999997 28.4215955 22.7797575
16.360625499999998 22.7974775 10.709225499999999
16.700148499999997 28.7304155 28.2363105
16.3222335 10.7909195 10.891228499999999
10.283709499999999 34.6648565 22.459841499999996
10.800550499999998 10.300182499999998 16.6934695
10.854386499999999 10.301922499999998 22.577951499999998
10.5332195 10.885264499999998 28.172423499999997
10.588431499999999 16.5607515 10.1633725
10.758921499999998 16.756904499999997 16.1584175
10.9225225 16.5880595 28.388931499999998
10.300212499999999 16.8733415 34.1378655
10.633510499999998 34.2736375 28.798409499999998
10.741358499999999 22.7515475 10.6212825
10.2378805 22.298041499999997 22.1127215
10.8515255 22.1769095 28.7540265
10.695520499999999 28.5010025 9.979835499999998
10.065140499999998 28.742523499999997 22.395708499999998
10.508674499999998 28.1440295 28.7267545
10.200172499999999 28.7594785 34.6270265
10.682137499999998 34.8055745 16.632619499999997
10.1856555 22.3846895 16.752967499999997
28.605780499999998 22.050976499999997 16.8777695
16.748709499999997 28.124052499999998 34.4601575
16.763329499999998 34.754518499999996 16.6715165
21.934067499999998 28.4172805 34.2604695
22.8558535 34.5552975 10.906096499999999
22.8156525 33.976257499999996 16.2243675
22.1938545 34.6893755 22.329668499999997
22.008860499999997 33.9862575 28.502951499999998
22.5767315 34.6786635 34.533449499999996
28.061963499999997 10.5121665 10.152766499999998
22.295207499999997 28.3669275 28.0068795
28.750144499999998 10.263721499999999 16.768783499999998
28.072795499999998 10.1924745 28.3200285
28.0036725 10.614037499999998 34.0748015
28.581673499999997 16.9354595 10.662296499999998
28.1163755 16.1296215 16.7482355
28.118287499999997 16.7593565 22.4626855
28.4273495 16.781774499999997 28.0526865
28.8166105 16.8704535 34.2468215
28.821723499999997 10.315023499999999 22.5139615
16.132475499999998 34.1298325 10.281149499999998
22.755224499999997 27.9280305 22.4510035
22.157540499999996 28.104407499999997 10.512243499999999
16.6606795 34.769811499999996 22.464291499999998
16.490180499999997 34.435427499999996 28.959856499999997
16.2286725 34.032459499999995 34.4328485
22.0098355 10.704759499999998 10.895805499999998
22.419610499999997 10.021628499999998 16.321543499999997
22.8509405 10.158864499999998 22.6420525
22.1622545 10.7627455 28.7782505
22.4824785 28.738034499999998 16.9225055
34.8572285 34.1052615 22.2344205
22.585088499999998 16.572242499999998 15.945955499999998
22.8218465 16.2688405 22.394312499999998
22.3535575 16.8135065 27.971479499999997
22.889182499999997 22.690138499999996 16.251360499999997
22.6580595 22.2216535 22.1247455
22.7829965 22.3889025 28.1565335
21.9936175 22.4864655 33.9368755
22.8287685 16.8318645 10.7309425
34.8601255 34.5227455 28.5130555
13.2863145 13.428187499999998 13.294517499999998
25.3835645 19.6958415 13.539122499999998
25.5506675 13.364104499999998 31.281435499999997
25.268417499999998 13.492485499999999 25.631196499999998
25.4741175 13.537208499999998 19.2545845
25.5115435 13.657500499999998 13.3125705
19.6063835 31.258608499999998 31.2136505
19.4841885 31.339847499999998 19.7680085
19.6978755 31.3637865 13.4338795
19.5238335 25.6712745 31.131051499999998
19.1803745 25.493480499999997 25.6007215
19.6729355 25.2467795 19.3519765
19.4885095 25.2125245 13.675171499999998
19.3685725 19.331228499999998 31.531270499999998
19.2673645 19.506237499999997 25.5304315
19.263560499999997 19.6959115 19.6203725
19.6384355 19.1947095 13.587569499999999
19.7220445 13.429350499999998 31.3766315
19.5029075 13.293025499999999 25.4055935
19.6072275 13.203358499999998 19.4023575
19.3978875 13.492209499999998 13.229720499999999
13.506456499999999 31.5398705 31.6395935
13.3719805 31.0923405 25.5629945
13.384941499999998 31.564050499999997 19.5042975
31.1377685 31.5159885 31.256210499999998
13.7083585 31.5944145 13.3346965
25.6393095 19.394864499999997 19.3646255
25.6063415 19.3219665 31.4076795
31.532707499999997 25.662290499999997 19.4027155
31.5630335 25.1156525 13.574214499999998
31.423481499999998 25.146693499999998 25.3601795
31.5175825 19.6646865 31.2848355
31.599434499999997 19.2412165 25.4588875
31.4678115 19.3583765 19.2754325
31.3832745 19.200711499999997 13.377568499999999
31.4030345 25.247651499999996 31.6224095
31.378524499999997 13.4622795 31.0696245
31.6391355 13.4186515 25.3985585
31.157372499999997 13.549368499999998 19.3859875
31.406148499999997 13.3524745 13.273427499999999
31.259317499999998 31.5223105 13.692286499999998
25.5798785 31.2510725 31.6153665
31.098722499999997 31.2512735 19.403296499999996
25.5280835 31.254924499999998 25.1104475
25.678968499999996 31.4276165 19.3019995
25.6347845 31.636318499999998 13.589042499999998
25.5583815 25.3632985 31.1946455
31.5869815 31.466976499999998 25.2319565
25.6395815 25.3878975 25.3358025
25.5391605 25.463983499999998 19.7195465
25.520891499999998 25.6669215 13.635486499999999
25.2111005 19.586184499999998 25.636107499999998
13.405590499999999 25.3280065 31.5793605
19.1361115 31.3952125 25.4459625
13.6316435 13.761464499999999 19.6698955
13.429466499999998 13.413697499999998 25.6700685
13.4298855 19.1166505 31.3057615
13.473885499999998 19.2994025 19.2881525
13.685222499999998 19.3437405 13.3776225
13.469341499999999 13.343012499999999 31.187675499999997
13.356010499999998 25.604128499999998 13.713876499999998
13.415965499999999 25.1563715 19.2719775
13.656204499999998 25.5579245 25.1345425
13.363019499999998 19.3546665 25.582657499999996
