1_train/5_cspbbr3_methylammonium_3_0.20\5_cspbbr3_methylammonium_3_0.20.xyz
1.0
41.875066000000004 0 0
0 41.875066000000004 0
0 0 41.875066000000004
Br C Cs H N Pb 
108 10 44 60 10 27 
Cartesian
17.791638999999996 27.039601999999995 15.174862
26.68029 15.168255 18.07
30.037118999999997 14.946515 21.03181
24.050061999999997 14.939181 14.877049999999999
29.777127 15.086598 26.730271000000002
27.080636999999996 11.902213999999999 15.129754
26.769518999999995 14.990383 12.259291
29.849246 21.050525 14.844513
20.919731999999996 29.614102000000003 26.898728999999996
29.838876 20.844006999999998 20.785334999999996
20.806405999999996 29.693703999999997 20.824408
21.059275 30.018518999999998 15.151182
20.881197 27.173685999999996 29.925069
18.118156 26.769788999999996 26.968016
29.951779000000002 26.90226 27.148607
21.129069 24.102809 26.797947999999998
20.865553999999996 26.945012 23.636781
21.108869999999996 26.934367 11.981774999999999
29.920338 21.128082 27.014834999999998
18.043176000000003 26.736494 21.181160999999996
20.876382999999997 24.132047999999998 20.938103999999996
21.01572 27.06322 17.762261000000002
29.777529 26.754052 14.799745999999999
29.777785 27.110076 20.805056
20.780612999999995 24.091709 14.98482
23.898528999999996 26.980784999999997 21.094941999999996
23.786014 14.849638 20.902555
29.968929000000003 15.118273 14.892767
26.980913 23.885852999999997 21.123896000000002
26.78118 26.767958999999998 23.663770999999997
27.061416 26.731167 17.858831000000002
23.803395000000002 27.069116 14.807533
26.789623999999996 24.020688 14.787068999999999
26.927433 26.848822999999996 11.762393
26.973622999999996 23.788907000000002 26.65457
24.148680999999996 27.056005999999996 26.862041999999995
26.796059 20.688876999999998 29.979245999999996
23.667223999999997 20.949804999999998 27.019824999999997
26.969566 17.851649000000002 26.754971999999995
27.002178 26.699903 29.82347
26.751869999999997 20.852092999999996 23.821716000000002
24.083000999999996 21.059373 20.809483
26.944353 20.933971 17.692942000000002
26.831221 29.961824 14.840504999999999
26.796369 29.81221 20.763695
24.101434999999995 20.865062 15.083324
26.904434000000002 18.143896999999996 15.090655
26.817307999999997 20.676494999999996 11.959821999999999
26.736711999999997 29.73393 26.988081
26.898997 15.185073999999998 30.026004999999998
23.925848000000002 15.096403 27.100116
27.058873 11.918702999999999 27.043573000000002
26.859862999999997 14.709047 23.826726999999998
26.930965999999998 12.213834 21.146273
20.974317999999997 21.126557999999996 29.880449999999996
26.637701 17.922885 21.060415999999996
21.033628999999998 18.029674999999997 26.69957
12.072078 15.14429 20.843810999999995
12.118227 20.787673999999996 15.119634999999999
15.157293999999998 29.748865000000002 21.065824999999997
14.894312 30.039322 14.770100999999999
15.129126 26.729625 29.788686
14.874314 15.089221 23.813651
11.877690999999999 26.762907999999996 26.671968
14.846641 24.038897 26.927023999999996
15.134872999999999 26.702973 23.936777999999997
14.785027 11.81904 26.854756000000002
12.103504 27.101172 21.004875
11.815192999999999 14.930095 26.998545
21.142742999999996 15.172144999999999 12.008702999999999
15.141843 23.824446000000002 20.978958
12.105722 26.710841000000002 14.839363
14.899731 23.77326 14.827838
15.090808999999998 27.165701 11.982704
15.170377 20.770930999999997 29.73973
14.839933 14.873695 29.85723
12.143896999999999 20.926888999999996 27.041745
15.162472 18.071210999999998 26.999235999999996
14.804169 21.010393 23.736601999999998
15.10098 20.904119 11.827207999999999
12.148902999999999 20.837801999999996 21.08339
15.144867999999999 18.196647 21.007323
14.813908999999999 21.170780999999998 17.916247
15.066951999999999 27.041117999999997 17.8125
20.772445999999995 11.978157 14.754274
14.902514 29.816012999999998 26.690441
14.827962999999999 12.0596 20.845908
21.044865 20.892885999999997 24.126157999999997
17.786602000000002 20.973027000000002 20.750382000000002
21.180244000000002 17.84229 21.032890000000002
20.773818999999996 21.143800999999996 18.097293
18.207174000000002 21.050672 14.948193
20.911591 17.782176 14.786810999999998
14.828802999999999 15.185011 12.090900999999999
21.14748 20.997009999999996 11.863607
14.792501999999999 12.026007 15.176765
21.099302 14.750096999999998 29.787582
17.786253000000002 14.877139999999999 15.07294
17.841513999999997 14.99409 26.74125
20.828753999999996 11.865385 26.988003
11.895633 15.124577 14.8864
20.776804 12.160238999999999 20.888948
20.721044 14.878691 18.097243
18.067917 15.050526 21.078863
14.974255 15.192219999999999 17.849978999999998
14.984731 18.237671999999996 15.024161
17.846505999999998 20.863343999999998 27.048325
20.964729 14.842875 24.028856999999995
18.040419999999997 30.927228 10.95124
11.023595 17.988954999999997 10.920098999999999
23.881622 11.020411 11.027982999999999
30.940357 17.967982 30.975766999999998
10.563422 18.035308 17.996525
17.903925 18.040475999999998 31.345461
10.930147 23.846765999999995 10.912746
23.922533 10.864706 30.874783
23.863982 17.882658999999997 31.338726
23.879455999999998 23.999266 10.543
29.528543 18.191564999999997 23.783369999999998
29.879159 17.810147 12.367614999999999
29.510087 30.264729000000003 24.088881999999998
23.665982999999997 23.646648999999996 29.676499
29.81861 18.308866000000002 18.184438
23.675404 29.835352999999998 23.400673999999995
30.274673 30.183185 18.17488
24.032328999999997 29.367786000000002 12.040415999999999
30.001551999999997 24.077168 18.510911999999998
29.656201000000003 23.601726 29.787171
30.021535 24.389547 12.342577
12.045430999999999 11.806436 24.372737
29.749727 11.946534 17.542586
23.920513 29.559157 18.442037
29.512582000000002 11.618909 23.92722
24.365418 29.650774 29.518810000000002
11.766924 11.714706 18.031940999999996
11.846484 18.324590999999998 23.597659
23.960479999999997 23.467422 23.735628999999996
18.469668999999996 18.091234 23.86741
18.255451 23.810223 17.672071000000003
17.909565999999998 18.068028999999996 18.316989
17.802708 23.936476 24.384419
18.082226 17.758637 12.401268
18.050717999999996 12.439952 30.250186999999997
18.231152 23.597904999999997 30.102145
17.535038 30.051294999999996 17.990508
17.638520999999997 29.756954999999998 23.519194
17.776992999999997 11.556555999999999 23.864357
17.56167 11.680833999999999 18.262411999999998
23.484817 11.762751999999999 18.220624
17.84715 29.766137 29.399119
23.670215999999996 12.274531999999999 23.695828999999996
23.746293 23.453359999999996 17.804181999999997
11.660643 17.792671 29.477384
11.746582 23.569288999999998 18.300804999999997
18.020268 11.4554 12.250100999999999
11.657601 24.134684 23.934810999999996
23.805695999999998 18.378642999999997 24.102801999999997
12.420183999999999 23.705323 29.756521
24.155916999999995 18.13827 11.685739
11.674802999999999 30.13655 17.828345
11.583229999999999 30.028124 23.766937
24.140409999999996 17.589145000000002 17.72394
24.297671 24.780814 12.366106
12.767187999999999 18.626387 11.773729
10.606154 18.956254 10.87383
11.422690999999999 17.659754 10.051478
10.199511 17.285874999999997 11.260257999999999
12.435160999999999 17.042765 12.161085
17.698352999999997 28.909677000000002 11.623458999999999
11.628027 18.236219999999996 12.941697999999999
18.906458999999998 29.731668999999997 12.461193999999999
23.349289 24.768931000000002 10.174052
31.900069000000002 17.812469 30.414659999999998
12.425018999999999 17.026539 18.161782000000002
23.437484999999995 22.991315 10.180935999999999
30.898848 18.901376 31.416767999999998
30.653638 17.166002 31.575445000000002
28.959178 18.117041999999998 30.289468999999997
29.874533 17.075192 29.357307
30.05429 18.722451999999997 29.194189
10.203548999999999 17.293515999999997 17.214059999999996
10.180135 17.637594999999997 18.980565999999996
10.169879 18.980286999999997 17.720421
12.408926 18.612473 18.634662999999996
12.358077999999999 18.200350999999998 17.046072000000002
24.910576 23.990895000000002 10.179250999999999
17.259804 30.098095999999998 12.783603
18.744458 18.672264 31.667886000000003
16.984707999999998 30.973954999999997 10.551129999999999
24.426721999999998 23.095363999999996 12.393301
24.078879 16.919086 31.678793
24.764807999999995 18.587082000000002 31.688772999999998
22.974993999999995 18.330692999999997 31.674774999999997
23.763200999999995 18.916976 29.506465
23.122929999999997 17.389558 29.456834999999998
24.765724999999996 17.606385 29.490634999999997
23.547668 11.414809 31.805110999999997
23.245987 10.191364 30.621724999999998
24.947671 10.626235 31.026370999999997
24.233471 11.641454 28.918149999999997
24.498804 12.802234 30.09397
22.944373 12.428436 29.716668999999996
11.323271 24.464822999999996 10.096596
10.741856 22.881903 10.68888
10.048869999999999 24.343634 11.388114999999999
11.747992 23.381076 12.844826
18.723928 30.644244999999998 10.228468999999999
23.914251 12.963524999999999 11.628604
23.071337 11.915625 12.618946
24.762149 11.915802999999999 12.646757
23.909946999999995 10.007023 11.438960999999999
24.786378 11.09123 10.377722
18.211486999999998 31.882089 11.424351999999999
23.055016000000002 11.099008 10.349461
18.89996 17.726731 29.466285
17.314956000000002 17.315876 29.493665999999997
18.20239 16.955543 31.636536999999997
16.988253999999998 18.220039999999997 31.650802
12.92072 23.478538 11.695635999999999
12.247432 24.889780000000002 12.283866
17.746597 18.872130999999996 29.508397000000002
22.948609999999995 23.854213 12.408940999999999
23.852737999999995 23.841192999999997 12.024122
18.054046999999997 17.933101999999998 29.873910000000002
23.991934999999998 18.00184 29.890344999999996
23.971638 11.962173 11.963396
12.0696 23.951955999999996 12.073699999999999
29.867223000000003 17.948914000000002 29.944878000000003
12.086644999999999 17.911458 11.972282
17.959020000000002 29.789704999999998 11.955672
23.937137 12.047165 29.932643999999996
12.027113 17.893403999999997 17.999463
15.020892 15.127494 15.193702
14.793984 26.971508 15.261925
26.703384999999997 26.729501 14.930909
15.037503 27.231569 20.999451999999998
27.156256 21.045750999999996 26.868674999999996
20.775594999999996 26.762763999999997 15.218328999999999
26.698174 20.724936999999997 20.769039999999997
27.024952 20.832915 14.748759999999999
26.790089000000002 14.746723999999999 26.851003999999996
27.126978 26.845827 20.896994
20.775444999999998 14.911707999999999 14.841789
20.698599 15.179618 21.050759
27.070473 14.784298999999999 14.912951999999999
21.105123999999996 14.960517 27.060167
21.173696 20.684978 14.953202
21.038869999999996 26.703212999999998 26.736382
20.866051999999996 20.804184 20.702551
21.022000999999996 27.069677 20.768856
21.123090999999995 20.960426999999996 26.639252999999997
26.663952000000002 15.000729 20.732486
14.875879 20.814296 27.145103999999996
14.971541 26.774276999999998 27.118581
15.180342999999999 21.028169999999996 14.837523
27.092435000000002 26.856664000000002 27.037900999999998
15.143385 15.095308 21.125389999999996
15.225502 20.908276 20.925796
14.816545999999999 14.93269 27.051521
