145_cspbbr3_5\145_cspbbr3_5.xyz
1.0
50.696711 0 0
0 50.696711 0
0 0 50.696711
Br Cs Pb 
450 200 125 
Cartesian
13.3503985 16.2795145 25.2904695
31.0405905 13.5072715 28.2839025
28.4052315 13.2493245 25.3380865
31.487492500000002 10.2805435 25.3964035
31.1180175 13.6309075 22.3107025
31.1626215 10.6537465 19.4810945
40.300289500000005 37.426610499999995 25.332701500000002
28.1525395 13.514542500000001 19.3099775
31.4396155 10.3211315 31.2468715
31.4246495 13.5717705 16.1920035
37.3822825 31.1471575 22.3529145
28.2148745 13.1976865 13.3599485
31.4604045 10.3578465 13.5909305
31.4727595 13.6329915 10.3206145
13.6649975 19.3301215 28.160549500000002
37.05501149999999 28.1575265 25.349795500000003
25.5520745 40.2086575 37.2703585
34.3959735 31.3144235 25.1681645
25.4088615 40.3960185 31.2105825
10.7331705 19.280095499999998 25.2771815
28.3958455 13.5718745 31.1871895
13.6328835 31.4003485 40.2718385
13.2794745 19.394351500000003 22.5687225
37.385512500000004 31.1342735 10.3318555
28.1682745 19.194225499999998 37.389137500000004
31.4403855 16.4856725 37.1473275
31.2954595 19.250301500000003 34.13049049999999
37.143381500000004 28.0961535 13.3968925
28.1817415 19.1989035 31.1333635
31.432478500000002 16.2301225 31.1277115
31.1751815 19.5112615 28.4301625
13.3822595 19.5774115 16.2347365
34.4591025 31.3114125 13.300093500000001
28.4681115 19.3492725 25.1680165
31.1541595 16.3989675 25.4856805
34.1340855 31.1986225 19.518292499999998
31.1708725 19.5202895 22.2946265
28.510444500000002 19.264487499999998 19.4555665
31.0964965 16.2928785 19.501528500000003
31.4781295 19.2850735 16.5809805
10.4981575 19.2791715 19.2463905
28.5675435 19.315651499999998 13.3756795
31.1255515 16.3005955 13.6369385
31.1022135 19.5554125 10.4795525
37.4245255 31.421764500000002 16.4392115
31.260081500000002 13.5810225 40.4289795
37.15740649999999 28.1422975 19.5016175
31.1842965 10.2666115 37.2132345
31.2326275 13.6050235 34.513353499999994
13.2675835 16.2952765 19.383333500000003
28.4826275 13.2903755 37.2587355
37.3042095 31.1253445 28.2603915
13.3399575 16.222503500000002 31.1273965
25.504441500000002 28.2561095 37.131187499999996
25.3727285 31.4756785 34.0711555
40.416925500000005 37.4119635 19.2445785
37.12834049999999 31.0747445 40.141647500000005
22.481537499999998 31.0991695 31.1472775
25.221587500000002 28.3660445 31.4202185
25.3848235 31.1273725 28.5593915
13.6261925 19.335442500000003 40.026822499999994
22.5156995 31.4932615 25.2961415
25.3070305 28.4504255 25.195639500000002
25.5662445 31.4009575 22.2876835
22.416567500000003 31.1950735 19.614106500000002
22.2851675 31.1073855 37.219309499999994
25.2974275 28.5154785 19.3656775
13.6568655 25.2974435 10.5270045
37.2949285 37.064826499999995 10.5112815
22.518839500000002 31.2237335 13.5642035
25.4935905 28.1081535 13.3979295
25.3894945 31.4588155 10.6088485
13.4289055 22.5839435 13.4982415
37.5154125 34.3064335 13.5504285
25.3216365 25.2072545 40.070365499999994
22.3152505 25.1245635 37.3058415
25.4864435 22.3211645 37.3919355
25.4735335 25.1815365 34.34391649999999
10.6888935 25.344262500000003 13.6429495
25.3177065 31.4515635 16.3137575
25.5153145 40.425130499999995 25.4620605
25.2902825 31.2507045 40.0507645
10.4848845 19.2063445 37.4128965
25.1596735 40.282233500000004 19.4678175
31.1005615 19.3602245 40.121669499999996
25.3008935 40.188764500000005 13.6276865
37.3379185 28.4445555 31.4091955
25.132348500000003 37.4215315 40.163745500000005
34.1995785 31.2069315 31.140438500000002
22.610131499999998 37.11143249999999 37.292785499999994
25.2133945 34.1374785 37.311687500000005
25.255578500000002 37.0904695 34.4698655
10.5150925 19.515518500000002 31.1144145
22.203702500000002 37.3076985 31.4787045
25.1254315 34.29056249999999 31.4359935
34.367408499999996 31.5309905 37.27931149999999
25.5342825 37.276506499999996 28.4430515
25.3135095 34.510955499999994 25.5103395
25.3865285 37.43451949999999 22.549480499999998
13.3503295 19.6180135 34.3698675
37.3582835 31.2002995 34.1267125
22.359949500000003 37.4513815 19.5874045
25.1786885 34.3282085 19.2629895
25.191820500000002 37.183015499999996 16.2149225
13.5945075 16.381103500000002 37.4041565
37.05113349999999 28.3829085 37.3450965
22.4702075 37.0697845 13.5384315
25.4305205 34.43653449999999 13.3397835
25.1727555 37.292494500000004 10.2406035
22.2887025 37.2839915 25.179056499999998
40.344654500000004 37.0401775 31.1580505
13.6498465 16.435419500000002 13.6223015
31.4468535 25.1651935 10.5806865
37.196941499999994 25.2651335 10.625581500000001
34.0789005 13.4484895 19.2708865
37.357648499999996 10.6589995 19.2155145
37.28605949999999 13.6137535 16.490544500000002
37.1216225 22.2218895 13.3305105
34.3723255 13.3570915 13.569577500000001
37.2811155 10.6278725 13.2884605
37.4761505 13.5611575 10.3887815
34.4263275 25.4422885 13.4019975
31.4539395 40.40978749999999 37.3781915
13.3100195 13.4745185 22.150520500000002
31.4547235 40.2048255 31.1704055
10.3493145 13.5608885 19.3266335
37.146983500000005 25.4663515 16.5261275
37.4023725 22.472769500000002 19.2508665
31.3375825 40.124450499999995 19.5579265
34.19475249999999 25.1850455 19.4441515
31.4004525 40.0994635 13.6201715
31.1422155 37.3863935 40.273428499999994
13.2899785 10.3230565 25.225752500000002
28.4763805 37.4377295 37.413193500000006
31.1823805 34.149520499999994 37.142456499999994
31.2739135 37.1469285 34.007698500000004
10.6971865 13.6050975 25.2861385
37.1640445 25.4588645 22.2231085
28.4826215 37.40946649999999 31.2027905
31.3380375 40.285002500000004 25.1278775
37.290268499999996 13.194076500000001 22.2516365
37.145687499999994 10.3634545 25.5850365
34.3705915 13.5283315 25.1638335
37.4586795 16.3182575 31.2969355
37.075357499999996 19.4266255 28.3807765
13.5353155 13.492824500000001 10.7334555
37.0031525 19.454230499999998 34.12059049999999
34.129437499999995 19.459183499999998 25.2281395
37.2099755 16.6612005 25.3993405
37.0964575 19.3916325 22.1389575
13.4592165 10.7302345 13.432909500000001
37.445275499999994 16.476633500000002 37.3075755
34.3993825 19.440590500000003 19.5477735
37.377609500000005 16.3794595 19.5597205
37.05809049999999 19.3171435 16.4236965
10.3124135 13.2105115 13.3653865
34.16677849999999 19.5433695 37.211203499999996
34.099410500000005 19.2815325 13.6061565
37.0878455 16.5437215 13.4046475
37.1131925 19.3370155 10.3393025
37.3274315 13.1951725 40.277640500000004
37.3164965 19.4568635 39.973723500000006
34.2052065 13.2631895 37.0589045
37.1805705 10.3998035 37.520238500000005
37.120031499999996 13.3189135 34.4857375
34.180122499999996 13.5594635 31.0845505
37.13768949999999 10.3054035 31.4516935
37.461423499999995 13.4037615 28.3298935
13.6077435 13.5311125 16.3494435
13.4060125 10.2446205 19.3161895
31.0600435 34.3443115 31.271766500000002
10.4103685 19.445104500000003 13.2056505
31.2892605 37.0839445 28.4221805
28.2193915 37.331892499999995 25.5019155
10.6726815 13.3272975 37.238525499999994
28.231945500000002 31.2496725 13.6227725
31.2371875 28.2214265 13.2365775
31.4464475 31.4435015 10.6330755
13.6330965 13.4346835 40.06700049999999
37.254094499999994 25.2062235 34.51633149999999
31.1359925 25.3012215 40.4635435
37.092847500000005 22.3650525 37.3712565
28.3712335 25.4883315 37.3554225
31.157646500000002 22.3628715 37.06349949999999
31.4504745 25.2106315 34.1411585
34.282283500000005 25.3223285 37.4555405
13.5770535 10.5276475 37.0803305
28.2743765 25.5685245 31.2027075
31.4456355 25.2563165 28.4304595
28.5233335 25.3099775 25.5359635
31.2804125 22.1274525 25.508000499999998
31.4407945 25.3347035 22.1769685
13.6106215 19.2568265 10.4718465
37.24270849999999 25.486103500000002 40.0652905
28.5466645 25.4762385 19.3280965
31.3877095 22.4787885 19.578121499999998
31.3982765 25.4817195 16.5368075
22.1873405 25.3862655 31.4107005
28.1207955 25.1997025 13.3923735
31.2607235 22.2089815 13.5833475
31.326393500000002 22.284550499999998 31.4581065
31.3777955 31.4525865 16.3468705
31.2210565 28.2832265 19.1124255
28.341085500000002 31.1146195 19.197716500000002
31.037557500000002 34.2752895 25.2282565
31.1282135 37.244469499999994 22.440559500000003
34.1758085 25.2058125 25.4652085
28.2484455 37.2503255 19.6129615
31.4747065 34.4770285 19.4734525
31.1079855 37.163323500000004 16.2493595
13.5557285 13.5324645 28.4701145
28.2307125 37.1563635 13.2897005
31.3143375 34.12857749999999 13.5623495
31.3811125 37.2343405 10.2987675
13.6151575 10.4164855 31.4631055
10.3381345 13.216226500000001 31.2215275
31.117175500000002 31.3874975 40.40060749999999
37.198776499999994 25.5473385 28.4977325
28.3206235 31.5195905 37.3270955
31.2143595 28.299000500000002 37.43554449999999
31.2727045 31.3926785 34.0175055
40.392309499999996 37.289407499999996 37.298747500000005
37.3708845 22.476177500000002 31.4022805
28.3583615 31.1432195 31.1068495
31.4130765 28.5397575 31.2322775
31.1412795 31.4545845 28.1689455
34.221887499999994 25.5289665 31.2171605
28.3795615 31.1606075 25.209660500000002
31.1937975 28.1328425 25.4938335
31.3296245 31.0639625 22.2209525
13.4462315 13.5306185 34.02285549999999
37.3638825 22.5228365 25.5049195
25.2792025 22.553389499999998 31.1937665
34.090314500000005 37.1157975 13.3298245
40.126009499999995 37.1173165 13.2947225
16.3269935 25.426955500000002 25.1874055
19.5118135 22.1943875 25.3358715
19.3449525 25.4325145 22.537962500000003
10.4713185 31.1132305 19.2642925
16.4697995 25.4580585 19.1732695
19.448940500000003 22.5275265 19.201259500000003
19.1798525 25.3726165 16.4665565
40.335354499999994 13.6278325 37.208115500000005
16.3756735 25.177433500000003 13.246961500000001
19.2563405 22.1974625 13.6320485
19.5288845 25.424466499999998 10.3023835
19.3212665 19.121288500000002 40.1509755
40.2136675 13.6679495 31.3203915
40.3859355 19.4208075 13.5596865
19.537598499999998 16.4548795 37.484468500000006
19.122238499999998 19.4564215 34.2772545
13.521836500000001 31.0306725 22.4171425
16.2492455 19.220917500000002 31.2737325
19.2937035 16.6614145 31.1874195
19.2556595 19.5014355 28.2606005
13.252864500000001 28.4813355 25.4409905
40.2013395 19.1391995 19.4057645
16.2365645 19.540734500000003 25.2215475
19.376365500000002 16.4999255 25.586914500000002
19.481026500000002 19.1521065 22.2294245
10.5601915 31.3999015 25.4860975
16.3636565 19.5506755 37.1432415
16.3968215 19.559966499999998 19.5699925
13.5226155 28.5009605 19.3225565
19.5846645 22.2943375 31.1985535
37.2421765 40.152891499999996 37.0815145
16.4245715 31.0813425 31.3864245
19.5819775 28.3126615 31.3322975
19.5527925 31.1822405 28.2098705
13.5195395 28.1478015 13.253213500000001
40.297991499999995 13.675731500000001 13.6142435
16.3813165 31.3056445 25.641336499999998
19.2546335 28.4615905 25.4047885
19.2676755 31.3897555 22.462414499999998
10.2593385 31.3374315 13.5582135
25.5988815 25.3510155 28.4698885
16.4076935 31.5271165 19.3897995
19.2663975 25.2796525 28.4677805
19.342295500000002 28.220685500000002 19.1791735
40.3308095 31.4005245 31.4626275
40.446892500000004 13.409812500000001 19.4479515
16.3651025 31.2043405 13.6234695
19.3438165 28.5293585 13.2573615
19.207579499999998 31.4284275 10.5323495
19.5880885 25.3435995 40.1011395
40.057745499999996 13.5531975 25.4425335
16.3090345 25.1924355 37.074903500000005
19.5103445 22.3599995 37.4751825
19.3107745 25.5912685 34.1278945
13.2825305 31.4484795 16.5079995
16.5945845 25.199939500000003 31.1255685
19.4427185 31.5674315 16.3877005
13.5869465 31.4515875 10.2627595
19.2986245 16.5692115 19.4721195
40.4970575 31.2921455 25.4366725
13.399575500000001 40.45298149999999 25.448808500000002
13.4994795 39.978855499999995 19.5250235
40.35089549999999 25.3747785 31.0783905
13.492945500000001 40.3763575 13.3574525
13.2786025 37.1072125 40.1219225
10.2083925 37.202475500000006 37.2158455
13.634280500000001 34.18123249999999 37.17373549999999
13.257039500000001 37.3281315 34.1212975
13.3767915 31.2612975 34.107819500000005
10.5748005 37.2581885 31.4509125
13.475146500000001 34.3773645 31.4495275
13.3056265 37.3861955 28.4133165
40.3629985 25.3535305 25.4904945
13.540069500000001 28.384846500000002 37.0251325
10.3377035 37.165336499999995 25.1367495
13.5895775 34.152465500000005 25.3902405
13.5567315 37.0715405 22.2440785
10.3556905 31.080734500000002 37.15758149999999
10.6038585 37.081624500000004 19.3835905
13.2999775 34.4262665 19.2999355
13.4717275 37.0398285 16.3133615
40.0383715 31.4620155 19.544812500000003
40.1139725 31.4722605 13.5116145
10.4065225 36.962624500000004 13.4253735
13.5157435 34.386095499999996 13.6190615
13.5403885 37.3800385 10.334960500000001
40.3102815 25.530883499999998 37.218911500000004
19.2578065 19.6590035 16.391738500000002
13.2629585 40.0921465 31.4076005
40.142315499999995 25.3017025 19.6292815
40.416299499999994 19.3079885 25.2469775
16.681801500000002 19.2998635 13.5397565
19.4956545 16.2520695 13.5180035
19.3569095 19.543557500000002 10.5883625
19.6407645 13.3711105 40.277328499999996
40.029383499999994 19.3772555 31.1885435
16.4522555 13.5288835 37.418201499999995
19.3068585 10.2931705 37.3604375
19.4966805 13.250241500000001 34.3899655
13.3376865 31.1214465 28.4171695
40.3140415 19.604962500000003 37.361037499999995
16.3755325 13.208332500000001 31.2533225
13.3017045 40.400484500000005 37.306340500000005
19.2989685 10.6206845 31.358832500000002
13.4679935 28.4696185 31.5340045
16.2713045 13.3954085 25.5856345
19.4628955 10.2090195 25.425981500000002
19.2607305 13.3120525 22.487071500000003
10.457392500000001 31.2051155 31.4908465
16.5303055 13.669503500000001 19.437255500000003
19.525263499999998 10.3663965 19.5020615
19.541432500000003 13.517715500000001 16.2605875
40.108043499999994 25.1584065 13.6338535
16.5478925 13.3735985 13.2497325
19.5839995 10.5457245 13.267891500000001
19.2009225 13.3527185 10.4133415
19.4804905 13.6768045 28.2419285
19.4422055 31.064587500000002 34.4017295
25.4035245 13.188076500000001 40.177680499999994
16.6284505 31.1864165 37.0666755
37.4113485 34.2102055 25.4780165
22.427557500000002 19.5983195 19.4720895
25.5264795 16.4714615 19.2029335
25.245424500000002 19.2618165 16.6092185
34.1130385 37.0527685 25.4436275
22.5170295 19.3594225 13.2983025
25.328228499999998 16.5061305 13.234094500000001
25.2287585 19.3758245 10.684079500000001
34.502613499999995 19.2747585 31.3832905
13.5019365 25.1498605 28.3356675
22.412796500000002 13.2680455 37.406839500000004
25.3336625 10.3175215 37.10472349999999
25.453699500000003 13.3294225 34.075430499999996
13.4532755 22.2025525 31.3646475
37.3158325 37.3720835 28.1270335
22.2225485 13.4019565 31.0675475
25.209594499999998 10.4368865 31.1819665
19.2129015 28.3492135 37.16148749999999
10.4428555 25.1851105 31.1753205
37.4324335 34.23205349999999 31.1180825
22.332517499999998 13.218645500000001 25.5166045
25.4848525 10.6125575 25.2879085
25.346432500000002 13.4017525 22.1066185
34.181575499999994 37.1297125 31.4091225
22.3545635 13.5978065 19.5289745
10.422762500000001 25.1649075 25.2264285
25.3968275 10.3260015 19.5658135
25.5907735 19.5718295 22.3459425
22.1928595 19.494090500000002 25.4881115
22.2593735 25.5293745 25.1962055
25.5092185 22.5358185 25.4273115
25.3128815 25.2177845 22.4956335
13.4193075 25.6290005 16.3375985
37.1181325 37.341491500000004 16.2869385
22.3261795 25.5510195 19.293039500000003
25.1884505 22.2944475 19.5005215
25.3552145 25.404476499999998 16.5989085
13.3651065 22.4922365 19.576127500000002
37.10349649999999 34.4590965 19.5113565
22.5160655 25.213396499999998 13.5262505
25.3013415 22.5589565 13.5334865
25.1493025 25.286582499999998 10.5599295
10.3753355 25.5739275 19.5608105
34.4549555 37.12319649999999 19.2806955
25.3768875 19.2169705 40.376335499999996
22.431876499999998 19.368436499999998 37.0794375
25.369270500000002 16.1926035 37.199186499999996
25.134594500000002 19.230842499999998 34.16021549999999
13.2483465 25.2970985 22.2138405
22.5191795 19.496060500000002 31.4154555
25.1929315 16.3369895 31.1263595
25.1786115 19.4676995 28.2941095
13.1989165 22.4415395 25.243240500000002
37.2465045 37.07853349999999 22.4644405
25.206744500000003 16.4284015 25.5365455
25.1606215 13.5010805 16.4507665
25.5370545 13.385305500000001 28.4682545
19.2933345 40.380632500000004 13.4103905
37.0697775 37.32461049999999 40.3044055
16.5508495 37.174107500000005 25.2188955
19.2673855 34.220307500000004 19.2246245
16.5503325 37.0775635 19.4428085
19.285936500000002 37.41677849999999 40.3401705
37.178678500000004 40.370647500000004 13.3476765
16.2176125 37.407974499999995 37.307573500000004
19.6112985 34.1781285 37.28236149999999
19.579079500000002 37.06404549999999 16.3330045
37.4474965 40.334588499999995 25.4565245
19.3763865 37.4151255 34.4488525
10.5818765 25.4499795 37.362489499999995
19.3611225 36.9855905 22.3466805
19.4767905 34.4180195 25.5215715
16.3597305 37.4265695 31.0844765
19.532749499999998 34.2066925 31.1506655
19.205243499999998 37.264722500000005 28.5240895
40.0937955 31.3867215 37.41930549999999
13.1752505 25.2808545 40.2941465
19.2581265 40.3939455 19.2816295
37.493103500000004 40.37525049999999 19.4497255
37.488997499999996 40.1978565 31.2053295
13.2549745 22.392352499999998 37.3596555
37.4131745 37.1463275 34.0655565
19.6098795 37.1961105 10.607257500000001
19.1969445 40.04531349999999 37.3572645
37.4181495 34.35175649999999 37.060886499999995
13.3396705 25.535083500000002 34.4550505
19.245193500000003 40.409781499999994 31.1557165
25.5190125 13.5277545 10.6541195
25.5605425 10.5047745 13.6518965
22.259455499999998 13.3659115 13.5755965
19.6199595 34.3256935 13.4609565
16.2078275 37.1706645 13.4784165
19.5595615 40.0731225 25.2883655
34.28311049999999 37.469727500000005 37.229474499999995
19.2255465 31.2137705 40.16552349999999
34.3943575 39.976977500000004 33.9789715
34.479367499999995 22.826172500000002 10.3014255
40.2507605 22.9295625 34.2935545
33.921327500000004 34.5554985 10.1920585
34.3236835 33.724223499999994 16.2179855
34.189164500000004 28.6627295 16.8597285
40.3082495 34.6354365 16.5344735
34.291835500000005 40.5182095 27.9982035
34.3440865 16.0546095 40.6404165
39.74554549999999 40.155623500000004 22.0117655
39.9149405 34.5957975 28.5636075
39.8461995 28.2062105 16.5758165
34.0388595 28.2254655 10.1143605
40.3376775 22.3398775 40.5931415
40.176723499999994 28.1676265 34.749525500000004
34.3619855 34.34749049999999 21.8134725
33.7881685 34.562582500000005 34.4201805
40.4200735 28.069049500000002 22.188592500000002
34.1944865 21.9508585 39.94833249999999
33.9871625 28.4079025 28.0099315
39.7976965 28.2268185 40.003170499999996
34.6023405 21.974598500000003 28.1982095
39.9708325 16.7253025 22.6674905
39.8437225 16.0171705 10.2850645
34.191155499999994 27.9411655 34.390655499999994
40.51815549999999 28.4532405 28.0159385
40.650084500000006 34.3436195 39.8801795
39.9822485 16.1589905 28.4190035
34.4787185 22.228008499999998 33.9368925
40.2117365 33.836114499999994 22.0103365
34.722907500000005 34.4191915 40.2473615
40.1745935 10.2955445 34.6635775
34.4101515 34.267597499999994 27.9433945
33.9505755 22.3449335 22.0963625
33.8864205 40.492195499999994 10.1761275
33.9805595 28.2271985 22.7059635
40.2106275 16.0893095 40.0217545
39.9977835 33.8165245 10.5655795
40.1838355 22.8875085 10.3017425
34.0856785 22.161808500000003 16.0429575
40.1398435 10.2920125 28.803576500000002
40.111831499999994 16.1103035 16.1453295
33.912794500000004 40.1501095 15.997728500000001
34.5785975 28.1303955 39.8000395
40.056678500000004 40.0515365 16.0956575
39.73015049999999 34.49505549999999 34.5146615
40.1311355 22.719617500000002 22.0524015
40.071018499999994 10.9737655 22.0651485
39.877765499999995 22.0512425 28.2419325
40.603039499999994 10.5591205 16.1518935
22.2274075 28.5658785 33.9475645
34.6435745 16.7946445 28.6312805
16.1719645 28.1929615 28.0072235
16.0294135 28.5148425 22.563758500000002
16.4129695 28.6547235 16.6456385
16.8100395 28.3647155 10.4376575
16.7657225 22.0220285 40.5543375
16.3734965 21.844116500000002 34.4168495
16.1328435 27.9295455 34.0018955
16.8422255 22.5145625 28.4334195
16.535860500000002 22.5474435 16.8631565
15.9549235 22.4874255 10.2847825
16.1770585 16.1246395 39.8856425
16.3683675 16.9351765 34.16947449999999
16.3679505 16.6997105 28.5602505
16.8658455 16.2270105 22.6051875
16.2631115 22.673918500000003 22.7816795
16.1472685 27.825339500000002 40.041261500000005
16.3209835 34.637713500000004 10.6820875
16.9209015 34.5548915 16.2676725
22.1988685 10.305920500000001 34.6538085
22.7221905 10.653292500000001 28.4762305
22.1434755 10.1325685 22.6682915
22.4681375 10.0074355 16.4947425
22.4612735 10.1631245 10.7341025
16.4117755 39.9791515 39.8508585
16.4658485 39.729695500000005 34.4122605
16.7874825 39.881851499999996 28.6511435
16.2029685 39.8994165 22.511184500000002
16.3964105 40.70414649999999 16.2045965
16.7041085 39.7937565 10.5179835
16.3485005 34.5814295 40.5670185
16.3831055 34.5434425 34.7311095
16.1617725 33.796867500000005 28.1076675
15.9276035 34.288835500000005 22.6363965
16.1580185 16.5836005 16.1576345
16.0678145 16.1882285 10.6467095
16.8683455 10.358705500000001 40.208644500000005
16.4618075 10.0260655 33.9850325
10.893850500000001 22.3357385 40.5844685
10.7866485 21.9716315 34.292685500000005
10.2006645 22.6823095 28.2440565
10.2295725 22.711199500000003 16.3681255
10.3033835 22.7757385 10.1936015
10.3486925 16.6097715 39.86734849999999
10.6004965 16.1425835 34.5856045
10.6304455 16.7261625 28.0764245
10.4927165 16.7438705 21.8833575
10.1918865 16.5168635 16.1368145
10.8030425 16.1488175 10.2357865
10.3039895 10.1323615 33.9228035
10.6907055 10.8347245 28.6890625
10.2152765 10.207323500000001 22.6214705
10.6754075 10.9668835 16.5090295
10.7493985 27.8864705 10.3094645
22.5760605 10.7640265 40.421888499999994
10.8354725 28.4312245 16.4229595
10.6666065 28.0870585 28.071444500000002
16.7631025 10.2899165 28.4289555
16.616636500000002 10.6985595 22.5949935
16.6861675 10.9345095 16.4213155
16.0942555 10.3844625 10.0512665
10.1024225 39.888431499999996 34.553625499999995
10.7072415 39.7831465 28.3352845
10.1211715 40.590943499999995 22.3996165
10.9660585 39.89294149999999 16.4892255
10.603502500000001 33.9358165 40.026880500000004
10.1427755 34.56607149999999 28.2243595
10.2064415 34.0614525 22.6349375
10.765183500000001 34.504077499999994 16.5754715
10.9148835 34.334965499999996 10.2853445
10.1161485 28.330454500000002 40.3873985
10.6904385 27.8825865 33.961536499999994
10.208759500000001 28.0183245 22.0768715
33.8428385 16.6646995 34.62571249999999
22.4856515 16.0681015 10.2364955
22.744601499999998 16.3380535 22.2289285
27.8643725 34.5379605 16.6537575
28.6812655 34.3713585 10.2769535
28.2215355 27.9996865 40.5979265
28.6514345 28.1521965 34.2091925
28.3775975 28.5536385 27.7649265
28.0976285 27.8102575 22.315179500000003
28.6271495 34.50141049999999 22.342536499999998
28.4034865 28.0350375 16.1590355
28.4877765 22.6248705 39.847084499999994
28.5531455 22.0560845 34.224594499999995
27.9306405 22.8006415 28.3613905
27.7460045 22.454428500000002 22.4756945
28.6093645 22.142820500000003 16.1921835
28.4215685 21.8980005 10.287748500000001
28.5856395 28.2168265 10.2207655
28.6493435 33.9573125 28.7049955
28.1079815 33.96994049999999 33.82328149999999
27.930456500000002 34.4287745 39.923978500000004
34.4138095 16.5457895 21.8393955
34.55537749999999 15.9689805 16.2664975
34.461586499999996 16.6710945 10.9664065
34.4729715 10.1150495 40.37989949999999
34.5267255 10.2981295 34.553768500000004
34.532649500000005 10.7576055 28.3042155
34.027741500000005 10.1775865 21.996028499999998
34.5196935 10.2111145 16.6321145
34.4888545 10.0540505 10.8376325
28.4252505 39.89098249999999 40.5099065
27.9258125 40.174173499999995 34.023362500000005
28.1593685 40.097950499999996 28.7931405
28.4236365 39.971402499999996 22.6220695
28.2181985 39.846971499999995 16.2638155
28.8324375 40.4351645 10.2676025
28.5018815 16.5834815 40.613904500000004
27.9695775 16.3461635 34.700127499999994
28.1382215 16.3480075 27.8775985
28.4558895 16.0051575 22.2667195
22.130304499999998 28.2694435 40.684845499999994
40.0802235 40.629084500000005 28.6182585
22.3662935 28.2790705 28.7571315
22.0687075 28.5028735 22.5218645
22.1501775 28.1209645 16.8491845
22.5730235 28.0727915 10.0960915
22.5536685 22.5785865 40.53151749999999
22.2361845 22.092706500000002 33.984530500000005
22.5374485 22.055591500000002 27.9391635
22.447620500000003 22.7148195 22.7689145
22.7238825 22.3463215 16.6677935
22.2831815 22.6366665 10.8797595
22.688406500000003 16.6252585 40.4549595
22.6487425 16.0884395 34.5940595
22.020063500000003 16.251054500000002 28.3140115
22.5395915 33.869313500000004 10.125804500000001
22.5693525 16.8757035 16.4695685
22.7418175 34.34524449999999 16.5974095
22.4907895 33.9410355 28.0865555
28.5209565 16.7853955 16.8061625
28.4519805 16.5233805 10.8255715
28.5824915 10.2317155 39.8691515
27.9359745 10.834718500000001 34.0216645
27.9915715 10.817358500000001 28.5125295
28.903972500000002 10.319753500000001 22.3463045
27.994570500000002 10.2338245 16.525793500000002
28.7237275 10.1653965 10.7677285
21.7841865 40.10597849999999 34.247463499999995
22.9297875 40.028732500000004 28.3097165
22.0941535 39.7189085 22.3647795
22.2102365 40.0077335 15.933210500000001
22.0772185 40.3123605 10.2439295
22.9423535 34.1108995 40.2687365
22.3325695 34.650223499999996 34.04350649999999
22.4502995 34.1720945 22.728447499999998
40.658475499999994 40.2227015 33.9082645
13.3499385 13.6678175 13.5479515
19.6172115 37.236208500000004 37.2550885
37.1087965 37.399966500000005 37.03521549999999
25.4295545 13.5898555 13.2851935
25.5929105 13.3068255 19.260869500000002
25.5074975 13.2197095 25.1686185
25.172770500000002 13.6788985 31.199074500000002
25.1712265 13.6049075 37.124891500000004
37.1464775 37.130478499999995 31.0178775
25.4587775 19.5920635 13.6358435
25.3253525 19.7539485 19.426433499999998
19.5107635 36.9708775 31.3424625
25.475433499999998 19.2329945 25.475842500000002
37.2735905 37.28121349999999 25.119616500000003
25.2324135 19.466610499999998 37.0630585
25.2746605 25.1146815 13.702640500000001
25.1412185 25.1669065 19.5512075
25.207614500000002 25.2135365 25.1485515
37.16410449999999 36.978964500000004 19.3640295
25.2932405 25.4451855 31.0226605
25.4720315 25.2908785 36.9996835
25.5602735 31.5164875 13.2805875
25.399811500000002 31.1119975 19.5234335
25.5357255 19.564860499999998 31.1180255
19.1808125 37.168310500000004 25.2081815
19.2003465 37.245692500000004 19.520339500000002
19.415250500000003 37.4286845 13.3161515
13.1901385 37.43813349999999 25.2937635
13.5069755 37.09949449999999 31.1083565
13.5479365 37.417784499999996 37.079595499999996
19.2233315 13.4606955 13.297793500000001
19.4629675 13.700072500000001 19.2804205
19.352117500000002 13.3039745 25.0298325
19.4629595 13.379485500000001 31.5171175
19.2212825 13.1571495 37.29021349999999
19.2547785 19.428178499999998 13.6161455
19.3532565 19.6017935 19.2617635
19.5281865 19.6163565 25.2503365
19.3562575 19.3035085 31.0382605
19.6401645 19.2915515 37.1272115
19.5453325 25.137047499999998 13.5442535
19.373133499999998 25.1642605 19.6636065
19.475326499999998 25.5672485 25.107947499999998
19.6817335 25.344444499999998 31.1278245
19.5012295 25.1264195 37.472029500000005
19.4626075 31.4928405 13.5458555
19.675327499999998 31.374889500000002 19.231205499999998
19.6780065 31.4785685 25.2533705
19.6207045 31.2970085 31.1056205
19.7106365 31.1647505 37.344142500000004
37.1761815 36.983521499999995 13.4851215
13.5457325 37.2899305 19.6317075
25.6066875 31.355013500000002 25.1546105
25.3616985 31.5547885 37.1947035
31.1066475 31.2986535 19.5062325
31.2465905 31.0822915 25.2151835
31.4442675 31.5332265 31.4045785
31.3171165 31.5948475 37.437239500000004
37.116656500000005 25.5053875 31.4988545
31.0929935 37.203307499999994 13.1964515
31.3340115 37.46248249999999 19.2471475
31.4838385 37.473892500000005 25.4792635
31.2737975 36.9509525 31.4255785
31.124502500000002 37.000110500000005 37.1148235
37.01524549999999 25.1692395 37.1603375
37.4048255 25.504818500000003 25.1587265
37.130478499999995 13.6585865 13.6186785
37.3249845 13.438539500000001 19.1372745
37.0591295 13.706307500000001 25.4214715
37.041569499999994 25.4083215 13.5260355
37.3777415 13.2049185 31.1861205
37.4594795 13.6571405 37.1541565
37.066374499999995 19.3766865 13.6632265
37.102403499999994 19.4959275 19.2137235
37.35471149999999 19.3309935 25.1667375
37.378834499999996 19.5679005 31.2486155
37.0489565 25.446286500000003 19.5757015
31.4779945 31.2342105 13.6237385
31.1746095 25.494207499999998 37.3993955
31.1942455 25.1194695 31.345571500000002
25.169967500000002 37.1955205 13.7132665
25.1475905 37.3764365 19.3588375
25.1530885 37.21258949999999 25.1787665
37.25274949999999 31.0592635 37.267653499999994
25.4839925 37.0258365 31.118312500000002
25.2470255 37.30715549999999 37.0012485
37.37146849999999 31.2307725 31.5545325
31.1147205 13.2324185 13.6528665
31.1643845 13.7650535 19.336502499999998
37.0016485 31.5398845 25.3826395
31.0549755 13.4201675 25.1731245
31.4727675 13.6773615 31.2381045
31.5213235 13.550147500000001 37.08764049999999
31.1929975 19.252243500000002 13.6044245
37.389379500000004 31.5253085 19.1794735
31.1459715 19.494467500000003 19.2394145
31.3208755 19.3332985 25.1199625
31.3294645 19.6485315 31.5084865
31.0513225 19.193880500000002 37.1165185
37.1365505 31.1200065 13.3199425
31.0874555 25.4505535 13.2432055
31.1460445 25.2121985 19.506484500000003