152_cspbbr3_5\152_cspbbr3_5.xyz
1.0
50.692762 0 0
0 50.692762 0
0 0 50.692762
Br Cs Pb 
450 200 125 
Cartesian
40.399098 13.311120999999998 13.547075999999999
31.219772 19.485788999999997 10.31612
31.272418000000002 16.667724 13.520914
28.280704999999998 19.514431000000002 13.254831
31.157424999999996 13.381746999999999 40.043389
28.397387000000002 13.614872 37.029937
40.249838000000004 13.267819999999999 25.171683
31.377102999999998 13.607788 34.180567
31.392426999999998 13.530714999999999 28.113238000000003
31.136504000000002 13.268196999999999 22.506163
31.144936 10.406528 25.458191999999997
40.036927 13.494981999999998 19.520847000000003
40.142069 13.450248 31.544255999999997
28.185207 13.496452999999999 25.498067
28.162067999999998 13.397027 31.379793999999997
31.374162 10.619247999999999 31.483277
31.32412 10.346335999999999 37.407339
34.086145 25.341043 31.130542
37.499655 40.214425999999996 31.41243
37.173378 40.357123 37.134948
28.222006 25.170741 19.22654
31.261386 22.301063999999997 19.668920999999997
37.420203 37.078642 34.35141
31.366442 25.472701 16.533489000000003
28.416629 25.258831 13.656645
31.250439999999998 22.301012 13.262011999999999
31.458764000000002 25.358869 10.583212
37.131319 34.3807 37.137162
34.151182999999996 37.319109000000005 37.041568000000005
31.467401000000002 19.606724999999997 40.315066
28.402775999999996 19.235283000000003 37.284772
31.383628 16.297610999999996 37.442085999999996
31.335458000000003 19.109504 16.368533
37.415734 37.160929 40.322497000000006
37.360908 40.100086 13.288371
28.259963999999997 19.127322 31.294278999999996
31.141861999999996 16.317768 31.379708
31.067923999999998 19.552045999999997 28.318903
37.394856 40.059217 19.314948
28.472746 19.490031000000002 25.107774999999997
31.231935 16.562309 25.554042000000003
37.105703999999996 40.451856 25.236488
31.425769000000003 19.548822 22.254305000000002
28.162701 13.543327999999999 19.161679
28.251097 19.316845999999998 19.542988
31.381071999999996 16.553742 19.306843
31.505068 19.241546 34.280962
40.289263 13.259813999999999 37.348864
31.142386000000002 13.508344 10.394222
31.308673999999996 13.247468 16.616734
25.378242 34.452956 13.44806
25.221606 37.035439000000004 10.400461
40.057459 31.390641000000002 19.57334
25.220982 31.160154 40.340911
22.488701 31.336278 37.498033
25.276615999999997 31.240575999999997 34.440761
40.34339 31.525317 25.453725
22.381487999999997 31.448602 31.117385999999996
25.227048000000003 28.376449 31.144622999999996
25.16467 31.406483 28.386435
40.375061 31.435760000000002 31.320203
40.122385 31.502654999999997 37.346258999999996
22.530275000000003 31.454076 25.353735999999998
40.202749000000004 31.357121 13.671539
25.209964 28.50047 25.373316000000003
40.319379000000005 37.347711 13.279708999999999
22.28282 31.056567 19.328328999999997
25.321498 28.115980999999998 19.531050999999998
25.160819000000004 31.452317 16.590289
40.08099 37.129877 19.419714999999997
39.981149 37.221807000000005 25.273535000000003
22.188943000000002 31.195096 13.370226999999998
25.421706999999998 28.263258 13.654748999999999
25.521433000000002 31.264988000000002 10.514809999999999
40.392021 37.191409 31.148756
40.335949 37.344924999999996 37.405805
25.219783 25.27628 40.35609
22.37133 25.478516999999997 37.095363
25.248392000000003 31.112719 22.189822999999997
31.431297999999998 10.687871 19.45485
22.227413 37.103956000000004 13.322301999999999
25.251477 37.160542 16.577903999999997
40.041419 19.309711999999998 13.508411999999998
28.178437000000002 13.303904 13.512376
40.325497000000006 19.126433 19.393543
31.220836 10.372013999999998 13.578422999999999
40.243221 19.252060999999998 25.462004999999998
25.178818999999997 40.130156 37.044781
40.37715 19.380513999999998 31.534765
25.067115 40.126404 31.284349999999996
25.415818 40.139125 25.603436000000002
25.439180999999998 40.140675 19.235194
25.511764 40.11945 13.450045999999999
25.183947000000003 37.233398 40.070576
22.534815000000002 37.296936 37.000976
39.989779000000006 25.274741 37.316995999999996
25.328167999999998 34.137506 37.118471
40.364115000000005 19.56734 37.287486
22.264288999999998 37.33486 31.439788999999998
40.405282 25.445991999999997 13.282796999999999
25.291057000000002 34.153173 31.147484
25.496456000000002 37.142635000000006 28.357529
40.062835 25.358572000000002 19.142947999999997
22.519796999999997 37.123457 25.484839
39.9936 25.185284000000003 25.341292000000003
25.328902 34.131247 25.569629
25.182465 37.17802 22.561749
22.303357 37.188824000000004 19.182935999999998
40.330524000000004 25.420718 31.120703999999996
25.431348999999997 34.485384 19.447158
25.261608000000003 37.254545 34.497683
31.409751999999997 25.491177999999998 22.257965
31.377392999999998 25.568317999999998 34.192606000000005
31.397512999999996 22.199544000000003 25.510939
37.246822 19.254910000000002 16.584961
37.138526000000006 28.550494 19.346300999999997
34.251162 19.405596000000003 13.229603
37.325848 16.603026999999997 13.476569
37.315841 19.242714 10.243488
34.116928 31.164574 19.328871999999997
37.459645 13.617412999999999 40.33602
34.385160000000006 13.427029 37.461276000000005
37.104938 10.586274999999999 37.139995000000006
37.392174000000004 13.437498 34.422744
34.445473 13.576576999999999 31.297452
37.004459000000004 31.428933999999998 22.465569000000002
37.178546000000004 16.429996 19.588375999999997
37.135646 10.436781 31.486145999999998
37.349128 28.130004999999997 25.492953999999997
34.440095 13.286532999999999 25.216085
34.382886 31.215843 25.223138
37.142152 10.556787 25.47542
37.418176 13.589393999999999 22.316063
34.304212 13.615349 19.522499000000003
37.381499 31.180774 28.186293999999997
37.090903000000004 10.515424 19.174506
37.211484000000006 13.390464 16.182198999999997
34.451910000000005 13.399796 13.317621999999998
37.341556000000004 28.222886000000003 31.167887999999998
37.202736 10.586767 13.253383
37.39509 13.699940999999999 28.358736
34.273421000000006 19.556066 19.264845
37.335811 31.425326999999996 16.656788
37.181153 19.210493999999997 22.513285000000003
37.361221 22.631118999999998 31.280096999999998
37.242511 25.302650999999997 28.503582
37.206258999999996 25.423175 34.498219
34.445503 25.177242999999997 25.267369000000002
37.356045 22.193229000000002 25.239368
37.518865 25.323813 22.39486
37.407018 22.234937000000002 37.431594
34.117099 25.472929999999998 19.449717999999997
34.050095000000006 25.333077000000003 37.057971
37.500791 22.410362999999997 19.359617
37.291391 25.317802999999998 16.244621000000002
37.276264000000005 25.328063 39.928724
34.393738000000006 25.533298000000002 13.459890999999999
37.316648 22.574652999999998 13.462475
37.071599 25.144725 10.555114999999999
37.306981 19.176718 40.404953
37.097239 31.519238 10.341501999999998
34.401218 19.450407 37.366728
37.302771 16.527436 37.436904000000006
37.16477 19.529888999999997 34.41819
36.986321 28.362263999999996 13.320877
34.181176 31.463552999999997 13.306951999999999
34.319787 19.333601 31.126573999999998
37.126364 16.402132 31.487045000000002
37.132824 19.406467 28.109226
34.511573000000006 19.371626 25.500572
37.413936 16.218527 25.466977
37.081844 13.525718 10.330207
34.387737 37.415645000000005 31.197347
34.085019 31.332836999999998 31.313657999999997
31.283701999999998 40.227744 31.480288
31.421509 28.104895 31.18132
37.316403 37.384687 16.572184
31.159580999999996 31.154581999999998 28.113678
37.283787 34.415709 19.231245
28.15341 31.252446999999997 25.453384
31.436341999999996 28.440485000000002 25.537927000000003
34.46014 37.231937 19.531931
31.144962999999997 31.267625000000002 22.202841
28.269871000000002 31.0334 19.320914000000002
31.239666 28.179204 19.538972
31.417954 31.185530999999997 16.32226
37.297935 37.262076 22.154463999999997
28.251081 31.557322999999997 31.183186
28.523718000000002 31.282125 13.260422
31.359941 31.485332999999997 10.683978999999999
37.142486 34.163000000000004 25.227096000000003
34.215714999999996 37.443936 25.284657000000003
31.428323999999996 25.498682000000002 40.031915000000005
28.154367 25.149045 37.366316000000005
31.331933 22.156321 37.182932
37.132548 37.399689 28.209441999999996
28.495119000000003 25.253718999999997 31.271031999999998
31.139651999999998 22.488417 31.147370000000002
37.444363 34.09359 31.173097999999996
31.197200000000002 25.297846 28.135236
28.423353 25.234219000000003 25.466599000000002
31.425159999999998 28.247129 13.344771
31.158692000000002 31.407870000000003 34.45534
31.442130999999996 28.433307 37.170488
28.105251000000003 31.190995 37.158732
31.389699 40.207676 25.170074
31.050393999999997 40.278653 19.240921999999998
31.118643999999996 40.248574 13.435436999999999
31.396990000000002 37.084634 40.063667
28.152366999999998 37.283122 37.434643
37.100493 31.159191999999997 34.310166
31.175092999999997 34.10518 37.199639
31.289775999999996 37.158269 34.484624000000004
28.406266000000002 37.272169 31.489655
37.042308999999996 28.261545999999996 37.449964
25.376457000000002 22.461779999999997 37.082243999999996
31.170060999999997 37.116029000000005 28.191958999999997
34.167205 31.217684 37.414084
28.473214 37.303321000000004 25.243245
37.234725000000005 31.284447999999998 39.980539
31.281045999999996 34.462519 25.408887999999997
31.489865 37.310013000000005 22.297472
28.174633 37.381033 19.615498000000002
31.086608 34.124763 19.491014
31.377097999999997 37.468416 16.56008
37.445273 37.03273 10.457386
28.232324999999996 37.50985 13.516186
31.363224000000002 34.443065 13.546957999999998
31.402355999999997 37.329015000000005 10.625686
37.195346 34.179598000000006 13.287232
34.221945 36.977708 13.330962
31.317355 31.213864 40.061305
31.421155 40.069111 37.205125
31.189937999999998 34.507335000000005 31.339745999999998
25.194474 28.54072 37.380139
19.48209 19.364884000000004 10.272772999999999
19.322924 25.272195000000004 22.549823000000004
16.224607999999996 25.380294 19.536690999999998
19.558048 22.545822 19.522115
19.257582 25.211278999999998 16.231392999999997
13.187999999999999 19.477235 40.262617
16.604497000000002 25.425497999999997 13.334344999999999
19.534219999999998 22.259163 13.260325
13.461101 25.454929 10.204863999999999
19.376578000000002 25.20747 10.588137999999999
19.394488000000003 19.246398 40.410085
13.271640999999999 22.270259000000003 13.543818
10.286256 25.203674 13.499654
16.249794 19.389156999999997 37.404424999999996
19.361148999999997 16.557525 37.11099
19.564026 19.452632 34.392861
13.416307 25.459074 16.264305999999998
16.411077 19.562305000000002 31.514457999999998
19.247721 16.403748999999998 31.432141
19.363576000000002 19.312126 28.524164999999996
13.257872999999998 22.376587 19.215725999999997
16.544857 19.468290000000003 25.588192999999997
19.217737 16.526291999999998 25.525920999999997
19.436487 19.52603 22.513503
10.576148 25.461067 19.171574999999997
16.294528 19.605432999999998 19.269813999999997
19.498159 16.165779999999998 19.319038
19.617134 19.513415000000002 16.277336
19.42568 22.563636000000002 25.222306000000003
10.39857 19.568275999999997 37.155719
16.366318 25.233914 25.203988000000003
13.516971999999999 16.543824 37.078387
19.635888 28.365767999999996 37.373447000000006
19.239663999999998 31.255449999999996 34.056833000000005
16.349840999999998 31.43797 31.392656000000002
19.509321999999997 28.245820000000002 31.477044999999997
19.415993 31.530551000000003 28.143433
13.349155 19.169759999999997 22.530931000000002
16.380409 31.362887 25.521714000000003
19.460684999999998 28.497458 25.178882
19.553573999999998 31.124730999999997 22.483974000000003
10.754019 31.384332 37.268107
16.187057 31.344414999999998 19.392663
19.307266 28.035932000000003 19.379109999999997
19.546512999999997 31.437782 16.372447
13.337936 25.592897999999998 22.248527000000003
10.633061999999999 19.406774 25.13293
19.64683 28.215525 13.509264
13.516257999999999 19.550656000000004 28.142089
19.197676 31.334046999999998 10.655301
13.287987 16.298999000000002 31.232998000000002
19.184663 25.171577999999997 40.197115000000004
16.448752999999996 25.197575 37.076600000000006
19.238143 22.502938999999998 37.076962
19.542551000000003 25.400368999999998 34.033657
10.250418 19.404443 31.454793000000002
16.483646999999998 25.276735000000002 31.045439000000002
13.346874 19.488962 34.120997
19.510441 22.55467 31.500729
19.463295000000002 25.195010000000003 28.155309000000003
16.478706000000003 31.139891999999996 13.300303999999999
16.256532 19.270134 13.380144999999999
13.365995999999999 22.255882999999997 25.570237
19.187967999999998 16.328179999999996 13.499991
13.528422999999998 40.40737 19.357574
13.298125999999998 28.424186999999996 19.338527999999997
13.664442 40.13518 13.616479
10.354249999999999 31.392032 19.269634000000003
13.578638999999999 37.032755 40.327345
10.560303999999999 37.06238 37.344069
13.226821999999999 34.385094 37.204143
13.429343 31.401873000000002 22.149929
13.599832 37.303737000000005 34.461405
10.465641 37.191826999999996 31.554347
13.292461999999999 34.273289 31.133426
13.306913 37.331787999999996 28.452097000000002
13.243604 28.216478000000002 25.514875000000004
13.316314 31.361613999999996 16.66952
10.384158999999999 37.020103 25.213506000000002
13.200745999999999 37.234047 22.337133
10.485054 31.035666999999997 25.445704
13.532382 31.396251999999997 28.141998
10.297008 37.099669 19.545958
13.683976 34.371176 19.502009
13.659621 37.205227 16.572089
13.313194999999999 28.55442 31.307957000000002
10.393626999999999 37.115142999999996 13.345070999999999
13.559878 34.367322 13.313087
13.378841 37.101705 10.297768999999999
10.468655 31.265088999999996 31.096942
13.644509 31.283153 40.162593
13.36751 31.061155999999997 34.342638
13.369327 34.138096 25.491297000000003
16.190609000000002 31.177633 37.334646
13.320594 40.00233 25.437056
10.707272 31.195195 13.457918
25.492879000000002 25.264966 34.511190000000006
10.255196999999999 25.297728 25.309614000000003
13.547455 25.496039000000003 28.268127
19.473065 13.507375999999999 40.424062
13.291030999999998 22.245730000000002 31.29188
10.610209999999999 25.495756999999998 31.280279
16.186268 13.475819 37.421321
19.171058000000002 10.515424 37.143155
19.416244 13.324896999999998 34.128155
13.681287 25.177725000000002 34.260195
16.259596000000002 13.295131 31.342272
19.286834 10.474487 31.442724999999996
19.426492000000003 13.318848 28.165759
13.516463 40.054883 31.186847
13.435269 22.136428000000002 37.105348
19.524901 10.313941 25.537011999999997
19.178497999999998 13.366287999999999 22.282760000000003
10.620906999999999 25.415108000000004 37.152524
16.434579999999997 13.305088999999999 19.201825
19.56501 10.378241 19.566038
19.539029 13.374045999999998 16.314141
13.477803999999999 25.516029000000003 40.403622000000006
16.537571 13.319723999999999 13.307511
19.398882 10.380885999999999 13.220979999999999
19.516105000000003 13.610622 10.508351999999999
13.309935999999999 31.331553999999997 10.337515
13.313225 40.330428000000005 37.312675000000006
13.641328 28.436746 13.501429
16.509273999999998 13.515267 25.509852000000002
10.649923 19.251567 19.299132
13.622573999999998 16.603332 25.413539999999998
19.486251000000003 37.46495 10.408358999999999
22.23171 19.582931000000002 19.575169000000002
25.39047 16.270576 19.609538999999998
25.412705000000003 19.526705999999997 16.244183999999997
13.298112999999999 13.30271 22.478921999999997
22.573051 19.459660999999997 13.611616
25.415326999999998 16.206452 13.353423
25.581159999999997 19.467458999999998 10.397834999999999
13.638817 10.266148 25.423001
25.499308 13.621132999999999 40.228153
22.440641999999997 13.197695999999999 37.161839
25.444532000000002 10.508771 37.027828
25.19314 19.552366999999997 22.368432
10.476234 13.652135999999999 25.384363999999998
22.376665000000003 13.304884999999999 31.456561999999998
19.347952999999997 31.409777 40.038824999999996
25.53982 10.402106 31.315281999999996
25.19189 13.497919999999999 28.499249999999996
13.378773999999998 10.595835999999998 31.038157999999996
10.279126999999999 13.407582 31.457611
22.555717 13.643042999999999 25.290306
25.195546999999998 10.345956 25.47327
25.470291000000003 13.296082 22.373286
22.516536000000002 13.513297 19.63763
25.560129000000003 10.663288999999999 19.374893
25.158442 13.453344999999999 34.157847
25.269008 13.219059999999999 16.469395
25.435353 16.482987 25.500228999999997
10.299921999999999 13.565717999999999 19.464469
22.550111 25.156663 31.333405
25.123486 22.473706 31.223442999999996
25.305312999999998 25.584989 28.213541999999997
13.506067999999999 13.338752 10.225772999999998
22.222960999999998 25.458644999999997 25.119124
25.440741000000003 22.548637 25.515557
25.260391 25.511400000000002 22.578896999999998
13.599893 10.586862 13.267657
22.237529000000002 25.214689999999997 19.529576
25.202194 22.222062 19.511783
25.551247000000004 25.546433999999998 16.476905000000002
22.468781 19.521268 25.152527999999997
10.53689 13.254449 13.651197999999999
25.202700999999998 22.327835 13.629802999999999
25.164065 25.536960999999998 10.505631
25.492207999999998 19.296807 40.087031
13.625431999999998 13.543313999999999 16.335259999999998
22.434603000000003 19.534224000000002 37.101183
25.371114 16.268034 37.497495
25.187058 19.414481000000002 34.097389
13.337342999999999 10.543821 19.664969
22.270268 19.580716000000002 31.244652000000002
25.486589000000002 16.571471000000003 31.497596
25.267730999999998 19.560312000000003 28.420147999999998
22.161369 25.209788000000003 13.429742
13.458174999999999 13.402475999999998 34.082838
13.591721 13.520885999999999 28.545574000000002
25.418844999999997 10.574936999999998 13.219076
13.260437 19.552109 10.474995999999999
19.303136000000002 40.436262 13.598166999999998
19.243380000000002 37.200196 40.096666000000006
16.208965999999997 37.134750000000004 37.219791
13.253665 16.626384 13.535637999999999
19.589143999999997 34.252203 37.35998
22.304623 13.427501999999999 13.234309
19.272951 37.157578 34.086258
16.225884 37.464586000000004 31.301251999999998
10.454901 19.146465999999997 13.472287
19.593546000000003 40.144478 19.199101
19.567746 34.101119000000004 31.148086
16.392654 37.426535 25.153073
19.401587999999997 34.001532000000005 25.38863
19.223196 37.345814 22.569077
16.427725 37.096746 19.561759000000002
13.644532 19.383333999999998 16.432758999999997
19.340017000000003 34.222986999999996 19.216959000000003
19.49814 37.24297 16.627511
16.232667999999997 37.079792000000005 13.59954
13.576457 16.303403 19.251282000000003
19.300424999999997 34.347029 13.657886
19.562249 37.208263 28.261739
19.443005999999997 40.00224 25.535804
13.348410999999999 28.252063 37.392004
10.560709999999998 13.587161 37.359954
13.191484999999998 10.544080999999998 37.123348
19.212857 40.397035 37.278355
13.208891999999999 13.545364999999999 40.177287
25.265558 13.605210999999999 10.66358
19.319318000000003 40.360583999999996 31.434219
10.676148999999999 22.770910999999998 28.038367
34.454704 22.556528 39.94288
40.71987 16.685707999999998 40.231479
33.959267000000004 40.397373 39.792017
39.933654 33.836555 22.434683
10.487328999999999 10.104203 16.289689
34.563556999999996 33.83169 40.019959
40.005843000000006 34.055877 16.016436999999996
10.236901 27.931300999999998 22.437426000000002
10.18244 16.623331999999998 16.114716
40.610519000000004 16.198501999999998 22.543801000000002
34.312775 34.012805 16.806409000000002
10.474295 9.958521999999999 34.573531
40.124184 34.471809 28.018279
39.849691 33.925741 10.274218
33.872914 39.868453 22.228484
39.7874 40.353139000000006 16.797308
10.400464999999999 28.729497000000002 33.933985
34.613192000000005 40.217681000000006 28.825715000000002
40.416067000000005 33.862159999999996 40.0647
39.917341 16.643192 34.392853
10.204536999999998 16.167119 22.18775
33.906298 22.515368000000002 34.097949
34.827542 40.263866 16.327084
40.208887 33.906262000000005 34.523536
10.48048 22.695489000000002 16.868640999999997
33.750707 40.431641000000006 34.118587
10.611282 28.368578 28.729515999999997
33.930141 34.131088999999996 22.636716999999997
40.469924 16.676130999999998 28.03819
34.684938 40.554885000000006 10.442566
40.34211 10.633833 16.733010999999998
10.861434999999998 16.573292000000002 27.993643999999996
34.591688 28.249783 16.241
33.952325 28.423090000000002 28.549770000000002
40.221712000000004 10.538077999999999 27.936344999999996
10.352703 16.664513 39.795646
39.980292 10.305895999999999 34.547112000000006
39.946144 28.452294000000002 10.718677999999999
10.861073999999999 21.906225999999997 34.292715
39.880864 28.616977999999996 16.431689999999996
10.671705 16.465172 10.863161999999999
34.088729 27.877549000000002 40.204098
39.974237 16.324109999999997 10.75338
34.632735000000004 28.044582 34.602275999999996
40.597377 22.594624000000003 28.29121
34.417615000000005 33.899032 27.888985999999996
40.269698999999996 21.950333 33.893256
40.250172 21.986762 40.116294
40.017679 28.028393 39.877138
40.211934 16.97056 16.510418
40.456792 22.063588000000003 22.603254
10.905964999999998 10.435576999999999 28.488690999999996
10.359936999999999 28.650371999999997 16.700333
39.935835000000004 28.325023 34.536659
10.705786 22.488281999999998 10.754866
39.842633 22.728994999999998 10.526119999999999
10.178033999999998 22.443342 22.587031000000003
34.638859000000004 34.668793 10.196280999999999
34.091913 28.015251 21.986167000000002
40.446782000000006 10.104097 22.463799
40.5661 22.564957 16.379927000000002
10.711300999999999 28.611959999999996 10.602981
34.414546 33.871253 34.221595
40.190391 28.767448 22.723264999999998
10.098821999999998 22.321137 40.581077
40.363208 28.103181999999997 27.785621999999996
10.027107999999998 10.509132 22.359133
22.391883 22.231989 33.871351
10.975784999999998 28.197238 40.483564
28.555009999999996 10.361566999999999 10.769535
22.705667 10.453641 22.036738999999997
27.860726 10.750926999999999 16.246631
22.138685000000002 10.032528 16.615645
28.475538 10.616142 22.061203
22.584327000000002 10.279715 10.212653
28.39889 10.668436999999999 27.990358
16.660767 40.424777999999996 40.033030000000004
16.861793 40.347350999999996 34.519667000000005
27.937514 10.833760999999999 34.065391
15.965593 40.023522 28.556948
16.412909999999997 40.549863 22.079785
28.153214999999996 9.991563 40.033753
16.752732 40.056475999999996 16.140952
28.780865999999996 16.125199000000002 10.27034
16.008837 40.412051 10.235954
28.582625999999998 16.059406 16.456553
16.795979000000003 34.525506 34.123553
28.324565999999997 16.966824000000003 22.289085999999998
16.493546000000002 33.826959 28.004736
28.803461999999996 16.366473 28.284196
16.266973999999998 34.63155 22.201971
28.326355 16.107218 34.071884000000004
16.134681 34.131212 16.063738
28.551603999999998 16.721879 39.981418
27.867792 22.213172 10.260409999999998
16.751869 28.585859999999997 40.604778
27.854276 22.089226000000004 16.224446
16.709355000000002 28.072460999999997 34.10921
22.059251000000003 40.264651 40.432055
28.714866 22.796455 22.367041999999998
22.794658 10.049510999999999 28.23077
22.656803000000004 39.921534 28.406366999999996
22.184168999999997 22.747917 40.017209
22.299897 28.587784 10.725197
22.613988 22.31874 28.601551
22.846472 28.169401 16.592841
22.713939000000003 22.060969 22.185305
22.425354 28.820281 22.425902
22.292642 22.838777999999998 16.537795000000003
22.537912 28.610008 28.049267999999998
22.4713 22.783088 10.303064999999998
22.729260000000004 16.317399 39.967608000000006
22.004986000000002 28.364618 34.113947
40.080022 40.115010000000005 21.903066000000003
22.524681 28.372422 39.798035000000006
21.985796999999998 16.086332999999996 34.499367
22.358192000000003 33.917527 10.332958
22.083078999999998 16.739313000000003 28.000904999999996
22.710709 34.587465 16.732545000000002
22.733266999999998 16.254407 22.27856
21.972419000000002 34.035552 22.337521000000002
22.004266 16.293104 16.810315000000003
21.849795 34.105728000000006 28.304052
22.561591 15.890759999999998 10.506535999999999
22.120019999999997 33.967075 34.140905
22.540697 10.805523999999998 40.006660000000004
22.519613999999997 34.647497 40.402042
22.667436000000002 39.841506 10.63323
22.809665000000003 10.611144999999999 34.412951
22.108333000000002 40.23708 16.739195000000002
22.672955 40.102185 22.102176
22.323965 39.871338 34.530507
34.631448999999996 22.022422 28.568002
16.289288999999997 27.969271 28.159832
16.035885999999998 28.384757999999998 22.346007
34.787521000000005 10.375159 10.229818999999999
16.459713 10.15977 34.015092
34.063992000000006 10.528001999999999 15.996979999999999
16.553860999999998 10.118540999999999 28.610422
34.3221 10.112037999999998 22.655693999999997
16.368944999999997 10.691376 22.068559999999998
34.605752 10.730701999999999 28.544572000000002
16.438375999999998 10.128475 16.639116
34.069022 10.828342 33.933278
16.281958 10.990234 10.363401
34.6695 10.210616 40.015315
33.786772000000006 16.510243000000003 10.830326999999999
10.672657 39.868624000000004 33.879579
10.887768 40.372192000000005 28.131448999999996
34.097547 16.830114000000002 16.056078999999997
10.938068 40.134921999999996 22.480975
10.353468999999999 40.355725 16.873071000000003
33.854608000000006 16.403255 22.33464
10.099293 34.010657 40.363551
34.773047999999996 16.646881 28.210318
34.658988 16.443191999999996 34.652735
10.739723999999999 34.080312 28.49599
33.841748 16.650609000000003 40.313778
10.948989999999998 34.307803 22.437087
34.627786 22.095886999999998 10.496734
10.537408999999998 34.538984 16.684416999999996
34.618007 22.239085000000003 16.213127
10.746207 33.982884000000006 10.387642
34.141627 22.676189 22.692278
28.699441 40.397898000000005 40.120715
28.36898 22.516717999999997 27.785382
16.327219999999997 11.015357999999999 40.420196
16.711644 16.318751999999996 10.716978
28.413694999999997 22.488655 34.635017
16.069488999999997 28.677166 16.611843
28.602880999999996 22.109932999999998 40.413004
27.954931000000002 28.00868 10.760957
16.683304 28.170208000000002 10.179867999999999
28.160244999999996 28.012014 16.740028000000002
16.127668 22.381836999999997 34.675940000000004
28.565011999999996 28.662335999999996 22.64956
16.722212 22.678089999999997 28.010973999999997
28.013269 28.325415999999997 27.895037000000002
16.363540999999998 22.298944 22.859937000000002
28.498455999999997 28.256504999999997 34.741521999999996
16.09678 22.216448 16.771489000000003
28.677417999999996 28.533806 40.191682
28.710951 34.621864 10.217466
16.647779999999997 22.476197999999997 10.918247999999998
16.638243000000003 16.085081 40.567105000000005
28.486232 33.984170999999996 16.183484
16.821889999999996 16.546115 33.872423000000005
28.836639999999996 34.29361 22.333976999999997
15.972461 16.604421000000002 27.996988
28.515786 34.085148 28.747141
16.665877000000002 15.921138 22.570119
28.200541 34.038981 34.541271
16.797736999999998 16.577584 16.102314
28.066169000000002 34.017086 40.339722
28.288227 39.852335000000004 10.347684999999998
27.846306 40.458982 16.690764
28.216867999999998 39.906146 21.978793000000003
28.606285999999997 40.119324999999996 28.014241999999996
40.625498 40.32029 34.68171
13.706683 13.226512 13.338137
19.431047 19.634022 19.173606
31.262571 37.429748 37.371588
19.275139000000003 19.159827999999997 25.365554000000003
31.378805 37.206571000000004 31.545982000000002
19.628383999999997 19.484795 31.421911
31.287314000000002 37.163702 25.132385999999997
19.212123 19.217156000000003 37.31914
31.507205999999996 37.342189 19.158001
19.248044999999998 25.53933 13.466806
19.532654 19.542229 13.664952
31.467441 37.32322 13.273316
31.173682 31.469682999999996 37.163879
19.510634000000003 25.504604 25.498334999999997
31.254633 31.575545999999996 31.311822999999997
19.558306 25.526335000000003 31.096271
31.119461 31.402499999999996 25.159858999999997
19.471051000000003 25.584314 36.997614000000006
31.051867 31.275881 19.59377
19.492423000000002 31.466695 13.190658999999998
31.135115999999996 31.148421 13.244949
19.225738 25.1699 19.532015
19.521231 31.310299999999998 19.593618999999997
37.193409 13.193033999999999 13.354764999999999
37.19277 13.568605999999999 19.623911999999997
37.458366000000005 25.062952000000003 25.430701999999997
13.737271 37.048003 13.421607
37.221435 25.432510999999998 19.643879
13.316463999999998 37.183477 19.598802
37.038546000000004 25.233901000000003 13.553306
13.324706999999998 37.083296 25.447229
37.531985999999996 19.411845999999997 37.110065999999996
13.666869 37.22475 31.157648000000002
13.621574999999998 37.191875 36.961985000000006
19.142724 13.655448 37.157349
37.270339 19.56805 31.502885
36.973378000000004 19.470883999999998 19.48652
37.303033 19.570480000000003 13.224784999999999
19.534557 13.483561 13.665859999999999
37.399343 13.573479999999998 37.018005
19.192769 13.338598 19.253923999999998
37.030572 13.555264 31.173611
19.173235 13.434786999999998 25.290089000000002
37.041247000000006 13.477891 25.460487999999998
19.136360000000003 13.329185999999998 31.450466
37.388991 19.284475 25.482129999999998
37.292742 25.492606000000002 31.093635999999996
31.400171999999998 25.444122999999998 37.05145
31.543256999999997 25.386327 31.32051
25.044786000000002 13.509742 37.122870999999996
25.194707 37.231304 37.428833000000004
25.261654 19.196471000000003 13.217802999999998
25.195773000000003 37.314498 31.445372999999996
25.321492 19.434911999999997 19.634323000000002