3_train/230_cspbbr3_MA-AbzO_3_0.40\230_cspbbr3_MA-AbzO_3_0.40.xyz
1.0
43.622974 0 0
0 43.622974 0
0 0 43.622974
Br C Cs H N O Pb 
84 187 35 258 43 48 27 
Cartesian
12.886486999999999 15.861486999999999 15.861486999999999
15.861486999999999 15.861486999999999 18.836486999999998
15.861486999999999 12.886486999999999 21.811487
12.886486999999999 15.861486999999999 21.811487
15.861486999999999 15.861486999999999 24.786486999999997
12.886486999999999 15.861486999999999 27.761487
15.861486999999999 15.861486999999999 30.736487
15.861486999999999 21.811487 12.886486999999999
15.861486999999999 18.836486999999998 15.861486999999999
15.861486999999999 21.811487 18.836486999999998
15.861486999999999 18.836486999999998 21.811487
15.861486999999999 21.811487 24.786486999999997
15.861486999999999 18.836486999999998 27.761487
15.861486999999999 24.786486999999997 15.861486999999999
12.886486999999999 27.761487 15.861486999999999
15.861486999999999 27.761487 18.836486999999998
15.861486999999999 24.786486999999997 21.811487
12.886486999999999 27.761487 21.811487
15.861486999999999 27.761487 24.786486999999997
15.861486999999999 24.786486999999997 27.761487
15.861486999999999 27.761487 30.736487
15.861486999999999 30.736487 15.861486999999999
15.861486999999999 30.736487 21.811487
21.811487 12.886486999999999 15.861486999999999
18.836486999999998 15.861486999999999 15.861486999999999
21.811487 15.861486999999999 18.836486999999998
21.811487 12.886486999999999 21.811487
18.836486999999998 15.861486999999999 21.811487
21.811487 15.861486999999999 24.786486999999997
21.811487 12.886486999999999 27.761487
18.836486999999998 15.861486999999999 27.761487
21.811487 15.861486999999999 30.736487
21.811487 21.811487 12.886486999999999
21.811487 18.836486999999998 15.861486999999999
18.836486999999998 21.811487 15.861486999999999
21.811487 21.811487 18.836486999999998
21.811487 18.836486999999998 21.811487
18.836486999999998 21.811487 21.811487
21.811487 21.811487 24.786486999999997
21.811487 18.836486999999998 27.761487
18.836486999999998 21.811487 27.761487
21.811487 27.761487 12.886486999999999
21.811487 24.786486999999997 15.861486999999999
18.836486999999998 27.761487 15.861486999999999
21.811487 27.761487 18.836486999999998
21.811487 24.786486999999997 21.811487
18.836486999999998 27.761487 21.811487
21.811487 27.761487 24.786486999999997
21.811487 24.786486999999997 27.761487
18.836486999999998 27.761487 27.761487
21.811487 30.736487 15.861486999999999
21.811487 30.736487 21.811487
27.761487 12.886486999999999 15.861486999999999
24.786486999999997 15.861486999999999 15.861486999999999
27.761487 15.861486999999999 18.836486999999998
24.786486999999997 15.861486999999999 21.811487
27.761487 15.861486999999999 24.786486999999997
24.786486999999997 15.861486999999999 27.761487
27.761487 21.811487 12.886486999999999
27.761487 18.836486999999998 15.861486999999999
24.786486999999997 21.811487 15.861486999999999
27.761487 21.811487 18.836486999999998
27.761487 18.836486999999998 21.811487
24.786486999999997 21.811487 21.811487
27.761487 21.811487 24.786486999999997
27.761487 18.836486999999998 27.761487
24.786486999999997 21.811487 27.761487
27.761487 21.811487 30.736487
27.761487 27.761487 12.886486999999999
27.761487 24.786486999999997 15.861486999999999
24.786486999999997 27.761487 15.861486999999999
27.761487 27.761487 18.836486999999998
27.761487 24.786486999999997 21.811487
24.786486999999997 27.761487 21.811487
27.761487 27.761487 24.786486999999997
27.761487 24.786486999999997 27.761487
24.786486999999997 27.761487 27.761487
27.761487 27.761487 30.736487
27.761487 30.736487 21.811487
30.736487 15.861486999999999 15.861486999999999
30.736487 15.861486999999999 27.761487
30.736487 21.811487 15.861486999999999
30.736487 21.811487 21.811487
30.736487 27.761487 15.861486999999999
21.882717 23.044867 34.331516
22.024724 22.996177 32.943687
21.811487 21.811487 32.241088
21.29422 20.692439 34.381508999999994
21.493515 21.890559 35.041377
21.811487 21.811487 30.736487
21.506500999999997 20.617219 32.978227000000004
21.882717 28.994867 34.331516
22.024724 28.946177 32.943687
21.811487 27.761487 32.241088
21.29422 26.642439 34.381508999999994
21.493515 27.840559 35.041377
21.811487 27.761487 30.736487
21.506500999999997 26.567218999999998 32.978227000000004
27.832717 17.094867 34.331516
27.974724 17.046177 32.943687
27.761487 15.861486999999999 32.241088
27.24422 14.742439 34.381508999999994
27.443515 15.940558999999999 35.041377
27.761487 15.861486999999999 30.736487
27.456501 14.667219 32.978227000000004
15.932716999999998 23.044867 34.331516
16.074724 22.996177 32.943687
15.861486999999999 21.811487 32.241088
15.34422 20.692439 34.381508999999994
15.543515 21.890559 35.041377
15.861486999999999 21.811487 30.736487
15.556500999999999 20.617219 32.978227000000004
15.790256999999999 17.094867 9.291457999999999
15.648249999999999 17.046177 10.679286999999999
15.861486999999999 15.861486999999999 11.381885999999998
16.378754 14.742439 9.241464999999998
16.179458999999998 15.940558999999999 8.581596999999999
15.861486999999999 15.861486999999999 12.886486999999999
16.166473 14.667219 10.644746999999999
15.790256999999999 28.994867 9.291457999999999
15.648249999999999 28.946177 10.679286999999999
15.861486999999999 27.761487 11.381885999999998
16.378754 26.642439 9.241464999999998
16.179458999999998 27.840559 8.581596999999999
15.861486999999999 27.761487 12.886486999999999
16.166473 26.567218999999998 10.644746999999999
27.690257 17.094867 9.291457999999999
27.54825 17.046177 10.679286999999999
27.761487 15.861486999999999 11.381885999999998
28.278754 14.742439 9.241464999999998
28.079458999999996 15.940558999999999 8.581596999999999
27.761487 15.861486999999999 12.886486999999999
28.066473 14.667219 10.644746999999999
21.740257 17.094867 9.291457999999999
21.598249999999997 17.046177 10.679286999999999
21.811487 15.861486999999999 11.381885999999998
22.328754 14.742439 9.241464999999998
22.129459 15.940558999999999 8.581596999999999
21.811487 15.861486999999999 12.886486999999999
22.116473 14.667219 10.644746999999999
9.291457999999999 28.994867 27.832717
10.679286999999999 28.946177 27.974724
11.381885999999998 27.761487 27.761487
9.241464999999998 26.642439 27.24422
8.581596999999999 27.840559 27.443515
12.886486999999999 27.761487 27.761487
10.644746999999999 26.567218999999998 27.456501
9.291457999999999 23.044867 27.832717
10.679286999999999 22.996177 27.974724
11.381885999999998 21.811487 27.761487
9.241464999999998 20.692439 27.24422
8.581596999999999 21.890559 27.443515
12.886486999999999 21.811487 27.761487
10.644746999999999 20.617219 27.456501
9.291457999999999 23.044867 21.882717
10.679286999999999 22.996177 22.024724
11.381885999999998 21.811487 21.811487
9.241464999999998 20.692439 21.29422
8.581596999999999 21.890559 21.493515
12.886486999999999 21.811487 21.811487
10.644746999999999 20.617219 21.506500999999997
9.291457999999999 23.044867 15.932716999999998
10.679286999999999 22.996177 16.074724
11.381885999999998 21.811487 15.861486999999999
9.241464999999998 20.692439 15.34422
8.581596999999999 21.890559 15.543515
12.886486999999999 21.811487 15.861486999999999
10.644746999999999 20.617219 15.556500999999999
34.331516 17.094867 21.740257
32.943687 17.046177 21.598249999999997
32.241088 15.861486999999999 21.811487
34.381508999999994 14.742439 22.328754
35.041377 15.940558999999999 22.129459
30.736487 15.861486999999999 21.811487
32.978227000000004 14.667219 22.116473
34.331516 28.994867 27.690257
32.943687 28.946177 27.54825
32.241088 27.761487 27.761487
34.381508999999994 26.642439 28.278754
35.041377 27.840559 28.079458999999996
30.736487 27.761487 27.761487
32.978227000000004 26.567218999999998 28.066473
34.331516 28.994867 21.740257
32.943687 28.946177 21.598249999999997
32.241088 27.761487 21.811487
34.381508999999994 26.642439 22.328754
35.041377 27.840559 22.129459
30.736487 27.761487 21.811487
32.978227000000004 26.567218999999998 22.116473
34.331516 23.044867 27.690257
32.943687 22.996177 27.54825
32.241088 21.811487 27.761487
34.381508999999994 20.692439 28.278754
35.041377 21.890559 28.079458999999996
30.736487 21.811487 27.761487
32.978227000000004 20.617219 28.066473
15.932716999999998 9.291457999999999 28.994867
16.074724 10.679286999999999 28.946177
15.861486999999999 11.381885999999998 27.761487
15.34422 9.241464999999998 26.642439
15.543515 8.581596999999999 27.840559
15.861486999999999 12.886486999999999 27.761487
15.556500999999999 10.644746999999999 26.567218999999998
15.932716999999998 9.291457999999999 17.094867
16.074724 10.679286999999999 17.046177
15.861486999999999 11.381885999999998 15.861486999999999
15.34422 9.241464999999998 14.742439
15.543515 8.581596999999999 15.940558999999999
15.861486999999999 12.886486999999999 15.861486999999999
15.556500999999999 10.644746999999999 14.667219
27.832717 9.291457999999999 23.044867
27.974724 10.679286999999999 22.996177
27.761487 11.381885999999998 21.811487
27.24422 9.241464999999998 20.692439
27.443515 8.581596999999999 21.890559
27.761487 12.886486999999999 21.811487
27.456501 10.644746999999999 20.617219
27.832717 9.291457999999999 28.994867
27.974724 10.679286999999999 28.946177
27.761487 11.381885999999998 27.761487
27.24422 9.241464999999998 26.642439
27.443515 8.581596999999999 27.840559
27.761487 12.886486999999999 27.761487
27.456501 10.644746999999999 26.567218999999998
15.932716999999998 34.331516 26.528107
16.074724 32.943687 26.576797
15.861486999999999 32.241088 27.761487
15.34422 34.381508999999994 28.880535
15.543515 35.041377 27.682415
15.861486999999999 30.736487 27.761487
15.556500999999999 32.978227000000004 28.955755
27.832717 34.331516 26.528107
27.974724 32.943687 26.576797
27.761487 32.241088 27.761487
27.24422 34.381508999999994 28.880535
27.443515 35.041377 27.682415
27.761487 30.736487 27.761487
27.456501 32.978227000000004 28.955755
21.882717 34.331516 26.528107
22.024724 32.943687 26.576797
21.811487 32.241088 27.761487
21.29422 34.381508999999994 28.880535
21.493515 35.041377 27.682415
21.811487 30.736487 27.761487
21.506500999999997 32.978227000000004 28.955755
27.832717 34.331516 14.628106999999998
27.974724 32.943687 14.676796999999999
27.761487 32.241088 15.861486999999999
27.24422 34.381508999999994 16.980535
27.443515 35.041377 15.782414999999999
27.761487 30.736487 15.861486999999999
27.456501 32.978227000000004 17.055754999999998
24.786486999999997 18.836486999999998 32.212148
11.843036999999999 31.779937 24.786486999999997
31.779937 11.843036999999999 18.836486999999998
24.786486999999997 18.836486999999998 11.410826
11.410826 18.836486999999998 24.786486999999997
11.410826 18.836486999999998 18.836486999999998
24.786486999999997 32.212148 24.786486999999997
11.843036999999999 11.843036999999999 24.786486999999997
31.779937 18.836486999999998 31.779937
31.779937 18.836486999999998 11.843036999999999
24.786486999999997 11.843036999999999 31.779937
31.779937 31.779937 18.836486999999998
18.836486999999998 11.410826 18.836486999999998
11.843036999999999 24.786486999999997 31.779937
11.410826 24.786486999999997 24.786486999999997
18.836486999999998 18.836486999999998 32.212148
31.779937 24.786486999999997 11.843036999999999
31.779937 11.843036999999999 24.786486999999997
32.212148 24.786486999999997 18.836486999999998
12.886486999999999 12.886486999999999 18.836486999999998
12.886486999999999 18.836486999999998 30.736487
12.886486999999999 24.786486999999997 12.886486999999999
12.886486999999999 24.786486999999997 18.836486999999998
12.886486999999999 30.736487 18.836486999999998
18.836486999999998 12.886486999999999 12.886486999999999
18.836486999999998 12.886486999999999 24.786486999999997
18.836486999999998 12.886486999999999 30.736487
18.836486999999998 18.836486999999998 12.886486999999999
18.836486999999998 18.836486999999998 18.836486999999998
18.836486999999998 18.836486999999998 24.786486999999997
18.836486999999998 24.786486999999997 12.886486999999999
18.836486999999998 24.786486999999997 18.836486999999998
18.836486999999998 24.786486999999997 24.786486999999997
18.836486999999998 24.786486999999997 30.736487
18.836486999999998 30.736487 12.886486999999999
18.836486999999998 30.736487 18.836486999999998
18.836486999999998 30.736487 24.786486999999997
18.836486999999998 30.736487 30.736487
24.786486999999997 12.886486999999999 12.886486999999999
24.786486999999997 12.886486999999999 18.836486999999998
24.786486999999997 12.886486999999999 24.786486999999997
24.786486999999997 18.836486999999998 18.836486999999998
24.786486999999997 18.836486999999998 24.786486999999997
24.786486999999997 24.786486999999997 12.886486999999999
24.786486999999997 24.786486999999997 18.836486999999998
24.786486999999997 24.786486999999997 24.786486999999997
24.786486999999997 24.786486999999997 30.736487
24.786486999999997 30.736487 12.886486999999999
24.786486999999997 30.736487 18.836486999999998
24.786486999999997 30.736487 30.736487
30.736487 18.836486999999998 24.786486999999997
30.736487 24.786486999999997 24.786486999999997
30.736487 24.786486999999997 30.736487
30.736487 30.736487 24.786486999999997
21.005094 19.791238999999997 34.927487
21.353914 21.940658 36.122974
22.03874 23.983585 34.865303999999995
22.255304 23.893946 32.366549
21.054101 18.620722 32.743952
21.622637 19.53239 31.27656
21.005094 25.741238999999997 34.927487
21.353914 27.890658 36.122974
22.03874 29.933584999999997 34.865303999999995
22.255304 29.843946 32.366549
21.054101 24.570722 32.743952
21.622637 25.48239 31.27656
26.955094 13.841238999999998 34.927487
27.303914 15.990658 36.122974
27.988739999999996 18.033585 34.865303999999995
28.205303999999998 17.943945999999997 32.366549
27.004101 12.670721999999998 32.743952
27.572636999999997 13.582389999999998 31.27656
15.055093999999999 19.791238999999997 34.927487
15.403913999999999 21.940658 36.122974
16.088739999999998 23.983585 34.865303999999995
16.305304 23.893946 32.366549
15.104101 18.620722 32.743952
15.672636999999998 19.53239 31.27656
16.667879999999997 13.841238999999998 8.695487
16.31906 15.990658 7.499999999999999
15.634234 18.033585 8.75767
15.41767 17.943945999999997 11.256425
16.618873 12.670721999999998 10.879021999999999
16.050337 13.582389999999998 12.346414
16.667879999999997 25.741238999999997 8.695487
16.31906 27.890658 7.499999999999999
15.634234 29.933584999999997 8.75767
15.41767 29.843946 11.256425
16.618873 24.570722 10.879021999999999
16.050337 25.48239 12.346414
28.56788 13.841238999999998 8.695487
28.21906 15.990658 7.499999999999999
27.534234 18.033585 8.75767
27.31767 17.943945999999997 11.256425
28.518873 12.670721999999998 10.879021999999999
27.950337 13.582389999999998 12.346414
22.61788 13.841238999999998 8.695487
22.26906 15.990658 7.499999999999999
21.584234 18.033585 8.75767
21.367669999999997 17.943945999999997 11.256425
22.568873 12.670721999999998 10.879021999999999
22.000337 13.582389999999998 12.346414
8.695487 25.741238999999997 26.955094
7.499999999999999 27.890658 27.303914
8.75767 29.933584999999997 27.988739999999996
11.256425 29.843946 28.205303999999998
10.879021999999999 24.570722 27.004101
12.346414 25.48239 27.572636999999997
8.695487 19.791238999999997 26.955094
7.499999999999999 21.940658 27.303914
8.75767 23.983585 27.988739999999996
11.256425 23.893946 28.205303999999998
10.879021999999999 18.620722 27.004101
12.346414 19.53239 27.572636999999997
8.695487 19.791238999999997 21.005094
7.499999999999999 21.940658 21.353914
8.75767 23.983585 22.03874
11.256425 23.893946 22.255304
10.879021999999999 18.620722 21.054101
12.346414 19.53239 21.622637
8.695487 19.791238999999997 15.055093999999999
7.499999999999999 21.940658 15.403913999999999
8.75767 23.983585 16.088739999999998
11.256425 23.893946 16.305304
10.879021999999999 18.620722 15.104101
12.346414 19.53239 15.672636999999998
34.927487 13.841238999999998 22.61788
36.122974 15.990658 22.26906
34.865303999999995 18.033585 21.584234
32.366549 17.943945999999997 21.367669999999997
32.743952 12.670721999999998 22.568873
31.27656 13.582389999999998 22.000337
34.927487 25.741238999999997 28.56788
36.122974 27.890658 28.21906
34.865303999999995 29.933584999999997 27.534234
32.366549 29.843946 27.31767
32.743952 24.570722 28.518873
31.27656 25.48239 27.950337
34.927487 25.741238999999997 22.61788
36.122974 27.890658 22.26906
34.865303999999995 29.933584999999997 21.584234
32.366549 29.843946 21.367669999999997
32.743952 24.570722 22.568873
31.27656 25.48239 22.000337
34.927487 19.791238999999997 28.56788
36.122974 21.940658 28.21906
34.865303999999995 23.983585 27.534234
32.366549 23.893946 27.31767
32.743952 18.620722 28.518873
31.27656 19.53239 27.950337
15.055093999999999 8.695487 25.741238999999997
15.403913999999999 7.499999999999999 27.890658
16.088739999999998 8.75767 29.933584999999997
16.305304 11.256425 29.843946
15.104101 10.879021999999999 24.570722
15.672636999999998 12.346414 25.48239
15.055093999999999 8.695487 13.841238999999998
15.403913999999999 7.499999999999999 15.990658
16.088739999999998 8.75767 18.033585
16.305304 11.256425 17.943945999999997
15.104101 10.879021999999999 12.670721999999998
15.672636999999998 12.346414 13.582389999999998
26.955094 8.695487 19.791238999999997
27.303914 7.499999999999999 21.940658
27.988739999999996 8.75767 23.983585
28.205303999999998 11.256425 23.893946
27.004101 10.879021999999999 18.620722
27.572636999999997 12.346414 19.53239
26.955094 8.695487 25.741238999999997
27.303914 7.499999999999999 27.890658
27.988739999999996 8.75767 29.933584999999997
28.205303999999998 11.256425 29.843946
27.004101 10.879021999999999 24.570722
27.572636999999997 12.346414 25.48239
15.055093999999999 34.927487 29.781734999999998
15.403913999999999 36.122974 27.632316
16.088739999999998 34.865303999999995 25.589389
16.305304 32.366549 25.679028
15.104101 32.743952 30.952251999999998
15.672636999999998 31.27656 30.040584
26.955094 34.927487 29.781734999999998
27.303914 36.122974 27.632316
27.988739999999996 34.865303999999995 25.589389
28.205303999999998 32.366549 25.679028
27.004101 32.743952 30.952251999999998
27.572636999999997 31.27656 30.040584
21.005094 34.927487 29.781734999999998
21.353914 36.122974 27.632316
22.03874 34.865303999999995 25.589389
22.255304 32.366549 25.679028
21.054101 32.743952 30.952251999999998
21.622637 31.27656 30.040584
26.955094 34.927487 17.881735
27.303914 36.122974 15.732315999999999
27.988739999999996 34.865303999999995 13.689388999999998
28.205303999999998 32.366549 13.779027999999998
27.004101 32.743952 19.052252
27.572636999999997 31.27656 18.140583999999997
25.0921 19.829828 32.546069
23.773422 18.604484999999997 32.546069
25.493939 18.075148 32.546069
24.504833 17.921018999999998 30.361745
25.720133 19.050300999999997 30.361745
24.134496 19.538141 30.361745
11.010720999999998 31.419857 24.178850999999998
11.532919 31.942054 25.820494999999998
12.277116999999999 32.686253 24.360114
13.700928999999999 31.020964 25.346487
13.219669 30.539703 23.83354
12.533812 29.853845999999997 25.179435
32.259377 11.850241999999998 17.855817
32.494928 12.085792999999999 19.62483
31.293858 10.884723 19.028813
30.247256999999998 12.927221999999999 19.740277
30.030172 12.710137 18.109946
31.137083999999998 13.817049999999998 18.659238
25.289261 17.926903 11.076905
23.747376999999997 18.855863999999997 11.076905
25.322823 19.726694 11.076905
24.323128 19.674765 13.261229
25.744136 18.818628999999998 13.261229
24.292196 18.016067999999997 13.261229
11.076905 19.838572 25.062079999999998
11.076905 18.574115 23.78086
11.076905 18.096775 25.516521
13.261229 17.912961 24.5325
13.261229 19.078291 25.713278
13.261229 19.51821 24.113682999999998
11.076905 18.595284 17.825574
11.076905 18.081612 19.550832
11.076905 19.832565 19.133055
13.261229 19.058782 19.76815
13.261229 19.532184 18.178143
13.261229 17.918495999999998 18.563167999999997
25.331963 32.546069 23.901850999999997
23.747632 32.546069 24.756409
25.279867 32.546069 25.701201
24.283773999999998 30.361745 25.601772999999998
25.743900999999997 30.361745 24.814206
24.331785 30.361745 23.943482
11.982550999999999 11.231288 25.679754999999997
10.872091 12.341747999999999 24.799905
11.966116 11.247722 23.879800999999997
12.805285999999999 13.497653 23.963247
13.828691 12.474248 24.774120999999997
12.820431999999998 13.482508 25.622094
32.512163 18.069755999999998 31.519945999999997
32.237525 19.827458999999998 31.794584
31.298475 18.612246 32.733633999999995
30.014288 19.54311 30.928721
30.267395999999998 17.923202 30.675613
31.132828999999997 19.043149 29.810178999999998
32.391949999999994 19.729532 11.982814999999999
32.374983 17.929588 11.965848
31.281231 18.850341 10.872094999999998
30.125076999999997 18.013452 12.805041999999998
30.140714 19.672289999999997 12.82068
31.148722 18.823718999999997 13.828686999999999
23.770059999999997 11.453619999999999 31.862755
25.482453 11.061136999999999 31.470271999999998
25.106948 12.306000999999998 32.715136
25.723231 13.292750999999999 30.612786
24.145081 13.654464999999998 30.9745
24.491148999999997 12.507193 29.827227
31.991421 32.040688 19.875194
32.664446999999996 31.367663 18.347303
31.392295999999998 32.639813000000004 18.286963999999998
30.494206 30.448802 17.87921
29.873943 31.069066 19.287321
31.046363 29.896645 19.34293
17.873655 11.076905 19.227740999999998
18.979067 11.076905 17.807023
19.656738999999998 11.076905 19.474697
19.723838 13.261229 18.475906
18.705084 13.261229 19.785246
18.080538999999998 13.261229 18.248309
12.209916 24.19242 32.619051
11.669210999999999 25.822036999999998 32.078345999999996
10.941631 24.345003 31.350766
12.595744999999999 25.333980999999998 29.915779
13.094062 23.832117999999998 30.414096
13.764603 25.193361 31.084636999999997
11.076905 25.7824 25.083611
11.076905 24.545847 23.775439
11.076905 24.031214 25.500411
13.261229 23.868647999999997 24.512656
13.261229 25.008262 25.718273999999997
13.261229 25.48255 24.128531
18.746385 19.871865 32.546069
17.984875 18.240768 32.546069
19.778201 18.396828999999997 32.546069
18.919525999999998 17.882278 30.361745
19.621336999999997 19.385505 30.361745
17.968598 19.241678 30.361745
31.505377 24.039129999999997 11.096241999999998
31.813733 25.785614999999996 11.404598
32.729054 24.534715 12.319918999999999
30.942148 25.475254 13.622112999999999
30.657964999999997 23.865685 13.33793
29.8144 25.018521 12.494366
31.573694999999997 11.164559999999998 23.956571
32.745452 12.336317 24.659667
31.729017 11.319880999999999 25.743222999999997
30.879185 13.559149999999999 25.551341999999998
29.799288 12.479253 24.903364
30.73604 13.416006 23.904754
32.546069 23.817898 19.213264
32.546069 24.944482999999998 17.809275999999997
32.546069 25.597078999999997 19.486921
30.361745 25.679143999999997 18.489248
30.361745 24.640877 19.78317
30.361745 24.039441 18.237043
21.481384 19.438620999999998 32.315816
21.481384 25.388620999999997 32.315816
27.431383999999998 13.488620999999998 32.315816
15.531384 19.438620999999998 32.315816
16.191589999999998 13.488620999999998 11.307158
16.191589999999998 25.388620999999997 11.307158
28.09159 13.488620999999998 11.307158
22.141589999999997 13.488620999999998 11.307158
11.307158 25.388620999999997 27.431383999999998
11.307158 19.438620999999998 27.431383999999998
11.307158 19.438620999999998 21.481384
11.307158 19.438620999999998 15.531384
32.315816 13.488620999999998 22.141589999999997
32.315816 25.388620999999997 28.09159
32.315816 25.388620999999997 22.141589999999997
32.315816 19.438620999999998 28.09159
15.531384 11.307158 25.388620999999997
15.531384 11.307158 13.488620999999998
27.431383999999998 11.307158 19.438620999999998
27.431383999999998 11.307158 25.388620999999997
15.531384 32.315816 30.134352999999997
27.431383999999998 32.315816 30.134352999999997
21.481384 32.315816 30.134352999999997
27.431383999999998 32.315816 18.234353
24.786486999999997 18.836486999999998 30.736487
12.886486999999999 30.736487 24.786486999999997
30.736487 12.886486999999999 18.836486999999998
24.786486999999997 18.836486999999998 12.886486999999999
12.886486999999999 18.836486999999998 24.786486999999997
12.886486999999999 18.836486999999998 18.836486999999998
24.786486999999997 30.736487 24.786486999999997
12.886486999999999 12.886486999999999 24.786486999999997
30.736487 18.836486999999998 30.736487
30.736487 18.836486999999998 12.886486999999999
24.786486999999997 12.886486999999999 30.736487
30.736487 30.736487 18.836486999999998
18.836486999999998 12.886486999999999 18.836486999999998
12.886486999999999 24.786486999999997 30.736487
12.886486999999999 24.786486999999997 24.786486999999997
18.836486999999998 18.836486999999998 30.736487
30.736487 24.786486999999997 12.886486999999999
30.736487 12.886486999999999 24.786486999999997
30.736487 24.786486999999997 18.836486999999998
21.825335999999997 22.919979 30.132794
21.773455 20.69982 30.103229
21.825335999999997 28.869978999999997 30.132794
21.773455 26.64982 30.103229
27.775336 16.969979 30.132794
27.723454999999998 14.74982 30.103229
15.875335999999999 22.919979 30.132794
15.823455 20.69982 30.103229
15.847638 16.969979 13.490179999999999
15.899518999999998 14.74982 13.519744999999999
15.847638 28.869978999999997 13.490179999999999
15.899518999999998 26.64982 13.519744999999999
27.747638 16.969979 13.490179999999999
27.799519 14.74982 13.519744999999999
21.797638 16.969979 13.490179999999999
21.849518999999997 14.74982 13.519744999999999
13.490179999999999 28.869978999999997 27.775336
13.519744999999999 26.64982 27.723454999999998
13.490179999999999 22.919979 27.775336
13.519744999999999 20.69982 27.723454999999998
13.490179999999999 22.919979 21.825335999999997
13.519744999999999 20.69982 21.773455
13.490179999999999 22.919979 15.875335999999999
13.519744999999999 20.69982 15.823455
30.132794 16.969979 21.797638
30.103229 14.74982 21.849518999999997
30.132794 28.869978999999997 27.747638
30.103229 26.64982 27.799519
30.132794 28.869978999999997 21.797638
30.103229 26.64982 21.849518999999997
30.132794 22.919979 27.747638
30.103229 20.69982 27.799519
15.875335999999999 13.490179999999999 28.869978999999997
15.823455 13.519744999999999 26.64982
15.875335999999999 13.490179999999999 16.969979
15.823455 13.519744999999999 14.74982
27.775336 13.490179999999999 22.919979
27.723454999999998 13.519744999999999 20.69982
27.775336 13.490179999999999 28.869978999999997
27.723454999999998 13.519744999999999 26.64982
15.875335999999999 30.132794 26.652995
15.823455 30.103229 28.873154
27.775336 30.132794 26.652995
27.723454999999998 30.103229 28.873154
21.825335999999997 30.132794 26.652995
21.773455 30.103229 28.873154
27.775336 30.132794 14.752994999999999
27.723454999999998 30.103229 16.973154
15.861486999999999 15.861486999999999 15.861486999999999
15.861486999999999 15.861486999999999 21.811487
15.861486999999999 15.861486999999999 27.761487
15.861486999999999 21.811487 15.861486999999999
15.861486999999999 21.811487 21.811487
15.861486999999999 21.811487 27.761487
15.861486999999999 27.761487 15.861486999999999
15.861486999999999 27.761487 21.811487
15.861486999999999 27.761487 27.761487
21.811487 15.861486999999999 15.861486999999999
21.811487 15.861486999999999 21.811487
21.811487 15.861486999999999 27.761487
21.811487 21.811487 15.861486999999999
21.811487 21.811487 21.811487
21.811487 21.811487 27.761487
21.811487 27.761487 15.861486999999999
21.811487 27.761487 21.811487
21.811487 27.761487 27.761487
27.761487 15.861486999999999 15.861486999999999
27.761487 15.861486999999999 21.811487
27.761487 15.861486999999999 27.761487
27.761487 21.811487 15.861486999999999
27.761487 21.811487 21.811487
27.761487 21.811487 27.761487
27.761487 27.761487 15.861486999999999
27.761487 27.761487 21.811487
27.761487 27.761487 27.761487
