1_train/24_cspbbr3_methylammonium_3_0.40\24_cspbbr3_methylammonium_3_0.40.xyz
1.0
41.897833 0 0
0 41.897833 0
0 0 41.897833
Br C Cs H N Pb 
108 19 35 114 19 27 
Cartesian
21.036371499999998 30.052169499999998 20.7856345
20.7078865 29.9229165 26.836493499999996
30.0049255 20.844995499999996 14.876363499999998
26.8080525 15.0344585 12.241353499999999
26.7174445 11.824954499999999 15.063236499999999
23.8187325 14.747010499999998 14.930998499999998
29.6788195 15.022775499999998 20.804061499999996
26.7243395 14.963947499999998 18.1781375
26.7644315 12.171588499999999 21.0819135
30.121318499999997 14.9075055 26.9988295
20.7092045 29.8037355 15.047016499999998
29.7364085 20.7546735 20.795055499999997
17.944905499999997 27.001332499999997 26.720446499999998
20.817697499999998 23.838167499999997 27.0648505
20.8191505 26.7685465 24.1004135
29.813982499999998 26.711229499999998 14.991481499999999
18.0925785 26.8534395 21.0964735
21.161491499999997 24.0008715 20.9065065
20.8857025 27.0505085 18.1581635
29.596224499999998 26.817651499999997 20.994901499999997
29.959836499999998 27.110544499999996 26.880933499999998
17.9092405 26.7147965 14.814631499999999
20.923426499999998 23.6257165 15.008891499999999
21.1367045 26.8732045 29.6544295
23.8058095 14.936150499999998 20.8280915
23.662833499999998 27.0387885 20.9341005
27.1317345 14.9657515 23.7599515
26.7672855 24.0744805 20.7766745
26.9805255 27.0073625 17.8385295
26.7525855 26.7473255 24.056259499999996
23.7115875 26.9130495 14.819401499999998
26.7411285 24.108374499999996 15.046232499999999
26.7978125 26.982411499999998 12.203168499999999
26.8565575 24.141623499999998 26.7943115
23.692122499999996 26.8707465 27.0632855
27.025937499999998 20.988186499999998 30.014770499999997
23.7992445 20.860449499999998 27.000910499999996
26.6304445 17.8539365 26.8861945
26.992962499999997 20.8317075 24.0771855
27.0438325 26.8353555 30.044984499999998
23.7423355 21.014940499999998 21.0339175
27.089560499999997 17.813604499999997 20.913267499999996
26.9930905 20.8651925 17.7480555
21.0128865 26.729006499999997 11.912368499999998
26.9446065 29.665715499999997 15.185005499999999
24.076350499999997 20.937855499999998 14.756413499999999
26.954285499999997 17.774786499999998 14.942648499999999
27.059723499999997 20.846374499999996 11.8484635
26.647077499999998 29.9625845 21.0782185
26.9415465 14.897632499999999 30.1266875
24.0865905 15.095627499999999 26.968205499999996
27.0698615 11.812706499999999 26.9354195
30.063929499999997 14.782431499999998 14.928977499999998
26.9935615 29.671449499999998 26.8946205
29.8447915 20.9584895 27.0869805
20.923606499999998 21.141478499999998 29.767919499999998
14.836991499999998 20.9025115 11.841171499999998
15.132273499999998 11.904603499999999 20.8598955
15.209166499999998 29.855420499999997 14.8544065
15.097328499999998 27.045072499999996 29.8087405
12.135363499999999 26.7249755 26.696036499999998
14.986395499999999 24.0631265 27.028557499999998
11.9115785 14.8325445 20.984787499999996
15.223894499999998 26.837034499999998 23.9633045
12.127757499999998 27.0294855 21.1114595
14.835592499999999 23.8157695 21.1374385
14.948797499999998 26.746891499999997 17.888305499999998
12.015828499999998 26.837421499999998 14.744693499999999
14.953871499999998 29.9668565 27.0852845
15.121605499999998 23.766059499999997 14.844729499999998
14.967315499999998 20.8518605 29.650622499999997
15.023551499999998 14.8066915 23.9912895
11.863213499999999 20.9916645 27.003293499999998
14.9484915 17.8914355 27.1534775
14.847736499999998 12.072980499999998 27.074651499999998
14.830933499999999 21.0619935 24.056962499999997
11.827093499999998 14.871387499999999 27.075052499999998
12.077059499999999 20.777347499999998 21.133045499999998
15.032770499999998 18.1726945 21.0648445
15.002414499999999 21.1492505 18.0979605
11.9335765 21.1289545 15.057789499999998
14.9312975 17.7792015 14.954700499999998
15.047373499999999 26.8983645 11.8476995
20.7851255 15.120445499999999 12.2327275
14.857698499999998 29.8078395 21.114000499999996
15.170003499999998 12.025699499999998 15.1917485
18.182995499999997 20.9618105 26.974835499999998
21.127317499999997 17.9686985 26.8248045
21.0729325 21.1422995 23.967481499999998
17.799172499999997 20.7981405 20.9994625
21.0243735 18.1401625 20.9085555
20.8726895 20.685835499999996 17.926401499999997
15.1579375 15.132126499999998 12.079348499999998
18.2105015 20.8727885 14.929176499999999
20.8585975 18.0957845 15.1268655
20.773397499999998 20.875654499999996 12.175790499999998
21.1325935 12.069365499999998 14.817901499999998
20.735271499999996 15.146512499999998 29.9288445
14.870347499999998 15.135942499999999 29.681260499999997
21.1131995 12.208490499999998 20.983092499999998
17.9925595 15.215278499999998 14.937577499999998
15.157497499999998 15.1604885 18.124331499999997
21.0200665 14.836329499999998 18.0300795
21.0397565 11.7831225 26.766381499999998
20.9659825 15.044754499999998 24.151157499999997
12.092125499999998 14.8350555 15.183832499999998
18.2175405 14.939093499999998 20.8277975
18.1713225 14.977607499999998 26.9311065
23.978796499999998 30.9213955 10.922980499999998
23.9507065 10.625627499999998 23.9807395
30.8645455 23.888022499999998 11.054572499999999
23.8490745 23.882847499999997 10.486675499999999
10.8993095 23.904807499999997 30.961211499999997
23.966803499999997 31.289934499999998 23.9895425
17.9199585 30.968141499999998 10.944933499999998
17.9242135 17.8968545 31.395756499999997
23.868300499999997 17.998375499999998 31.2784475
18.016501499999997 11.000451499999999 30.987350499999998
10.535952499999999 18.0460215 18.0204125
23.993500499999996 30.8683005 30.975322499999997
31.3090445 18.048021499999997 23.9880355
10.889904499999998 30.8906505 23.874618499999997
23.8700045 11.041008499999998 10.973394499999998
11.033481499999999 23.938303499999996 11.036493499999999
23.9709365 23.956765499999996 31.2665525
18.0303465 31.3303355 17.913272499999998
23.868494499999997 18.0504805 10.5976565
24.2364375 29.6047585 18.257681499999997
18.1275205 24.3748065 11.8725385
30.326265499999998 30.2383305 23.817407499999998
12.436152499999999 11.683387499999998 23.728392499999998
30.3114045 18.0548905 29.5913865
29.661488499999997 24.0927845 30.334155499999998
29.488535499999998 23.952318499999997 23.7223355
30.3054645 11.822889499999999 23.5821325
30.1790205 12.232418499999998 18.060170499999998
29.6294585 23.5351555 18.067880499999998
29.5848075 17.5284725 11.852562499999998
29.6004135 17.9853475 18.4991155
30.2003685 30.0728205 18.105894499999998
23.646260499999997 24.280924499999998 23.705394499999997
12.240513499999999 17.851490499999997 12.429817499999999
18.4814725 17.7807635 24.002709499999998
17.801315499999998 23.5673665 24.334853499999998
17.7446695 17.8016515 18.2188455
18.031169499999997 24.3480325 30.111271499999997
17.7721445 17.5427405 11.8418725
18.2803295 29.6736735 23.817946499999998
18.159096499999997 11.831398499999999 24.1829325
24.0893855 12.330732499999998 18.3469955
18.267286499999997 12.238261499999998 18.3820245
17.8810195 24.1729955 17.7189245
23.9748505 11.4497235 30.0598085
12.251264499999998 30.171137499999997 17.9264755
24.2111855 18.268651499999997 18.2653385
11.733727499999999 23.706776499999997 24.0686525
23.5001705 17.9400245 23.771842499999998
11.7093435 24.177524499999997 17.7494145
11.857842499999999 18.2902535 30.164446499999997
17.964982499999998 12.005027499999999 12.487704499999998
24.132397499999996 24.473324499999997 18.0527595
12.098796499999999 17.490816499999998 24.2646255
23.9995715 28.9647595 11.589604499999998
17.825528499999997 19.0174575 31.690481499999997
17.1302825 17.3631775 31.724392499999997
17.0721495 29.485725499999997 17.7605895
23.094167499999998 29.8882695 12.578372499999999
23.8276725 31.902413499999998 11.483844499999998
23.041996499999996 30.7166435 10.3640295
24.8534275 30.8097815 10.391044499999998
12.969501499999998 30.2702925 23.7331585
12.076647499999998 29.4366585 24.826460499999996
11.832423499999999 29.179639499999997 23.208896499999998
10.007804499999999 30.4373695 24.1441745
10.975187499999999 31.3486525 22.9458725
11.2482955 31.6933565 24.6528135
24.694396499999996 29.9976335 12.6506745
18.936817499999997 17.553281499999997 31.6468115
18.5479375 11.3136035 31.753458499999997
18.728764499999997 18.5371375 29.4644215
23.4571185 17.1295075 12.366880499999999
17.257996499999997 31.7152355 18.717249499999998
17.6911575 31.7104285 16.9676615
19.0189505 31.6761205 18.1737425
29.450974499999997 23.0172485 12.123546499999998
30.219779499999998 24.181171499999998 12.924593499999999
29.106571499999998 24.607221499999998 11.817882499999998
31.335236499999997 24.9058675 10.883830499999998
30.451053499999997 23.5967275 10.019473499999998
31.6760925 23.238766499999997 11.311525499999998
17.5868255 28.986434499999998 11.664421499999998
18.9108445 29.6783105 12.369304499999998
17.3652855 30.1124275 12.8012705
18.1033355 17.0468345 29.532573499999998
18.358061499999998 31.847202499999998 11.382160499999998
18.5927725 30.5989775 10.194148499999999
17.564224499999998 12.908806499999999 30.254440499999998
18.951882499999996 12.252187499999998 29.568298499999997
17.459393499999997 11.745427499999998 29.0429405
18.3919385 10.097054499999999 30.5086315
16.945514499999998 10.842296499999998 31.2531635
23.4301215 23.144647499999998 29.521555499999998
23.4615315 24.767103499999997 29.468932499999998
24.900262499999997 23.9251765 29.511950499999998
24.445752499999998 24.7900325 31.656252499999997
24.4364465 22.987190499999997 31.663690499999998
22.907613499999997 23.9426225 31.6613555
17.1277045 18.366967499999998 29.515651499999997
16.932761499999998 31.0737435 10.648315499999999
24.868508499999997 18.0050125 12.393692499999998
12.436078499999999 17.8137415 17.026140499999997
24.4728895 18.873814499999998 10.1731495
23.8929525 18.9073665 29.4824655
24.8090385 17.5508565 29.5001295
24.763993499999998 18.542523499999998 31.6559505
23.9986125 16.9623355 31.708169499999997
22.983256499999996 18.416092499999998 31.658727499999998
12.392696499999998 18.8822865 18.366057499999997
12.386776499999998 17.217114499999997 18.5419305
10.2316595 18.1542575 19.029915499999998
10.170010499999998 17.005190499999998 17.606105499999998
10.198911499999998 18.766636499999997 17.307114499999997
24.8692805 12.425568499999999 24.202000499999997
23.6768645 12.383718499999999 22.9677725
23.227818499999998 12.426805499999999 24.628077499999996
22.936209499999997 10.200471499999999 23.6022215
24.159657499999998 10.2380015 24.9499785
24.636190499999998 10.245286499999999 23.184557499999997
12.499131499999999 24.834548499999997 12.113386499999999
11.618622499999999 23.7124965 12.946119499999998
12.750457499999998 23.2230135 11.8278045
10.539022499999998 22.945893499999997 10.959672499999998
11.485152499999998 24.176117499999997 10.035000499999999
10.225789499999998 24.6370865 11.238936499999998
23.1186485 11.973811499999998 12.6295805
24.768261499999998 11.915414499999999 12.631504499999998
23.951662499999998 12.977016499999998 11.580055499999999
24.8343695 11.136858499999999 10.376108499999999
23.0229025 11.149095499999998 10.333559499999998
23.8973165 10.0045805 11.508444499999998
18.269077499999998 29.4999865 18.920070499999998
23.137420499999998 17.4606475 29.4569655
23.4533245 18.8262175 12.425019499999998
31.703255499999997 17.061666499999998 23.4776185
31.709573499999998 18.0136745 24.982833499999998
22.8982965 18.0151585 10.217569499999998
24.459022499999996 17.073918499999998 10.250489499999999
23.9624675 22.9892015 12.377538499999998
24.731902499999997 24.4591215 12.4292135
23.0699345 24.318765499999998 12.380967499999999
23.8773685 24.961671499999998 10.193961499999999
23.088907499999998 23.3217805 10.216106499999999
24.8754805 23.441750499999998 10.182865499999998
24.8482225 29.524336499999997 24.0946805
23.2946515 29.4714335 24.6436425
23.557559499999996 29.495734499999998 23.0186645
22.884873499999998 31.661187499999997 23.772006499999996
24.5726925 31.699097499999997 23.0929815
24.3068485 31.7077945 24.9067375
11.699721499999999 24.332477499999996 29.0203375
12.863491499999999 24.4482475 30.1352215
12.334755499999998 22.9979275 29.6854275
11.412849499999998 23.4850565 31.783115499999997
10.182474499999998 23.316120499999997 30.5385395
10.713814499999998 24.9627095 31.067324499999998
24.000178499999997 28.923612499999997 30.2557145
23.0262575 29.8722785 29.3481575
24.7000205 30.0034715 29.181184499999997
23.7854485 31.8753165 30.442939499999998
24.8726445 30.8709495 31.426965499999998
23.0515695 30.719126499999998 31.6021345
29.459283499999998 17.9027465 22.946287499999997
29.529686499999997 17.158243499999998 24.481083499999997
29.458560499999997 18.8277845 24.3255785
31.6797515 18.847415499999997 23.391433499999998
18.656118499999998 29.520331499999998 17.262576499999998
12.067109499999999 23.9050135 29.944871499999998
18.0226725 11.963996499999999 29.8706315
29.835533499999997 18.037218499999998 23.915733499999998
23.870281499999997 29.822791499999997 23.9378225
23.9781805 17.913925499999998 29.827391499999997
23.940374499999997 12.1025865 11.988363499999998
11.968316499999998 29.9130845 23.991572499999997
23.9670295 17.9968225 12.080363499999999
17.941038499999998 17.929367499999998 29.8243835
23.989254499999998 29.8975165 29.9412395
12.0921265 17.9258715 17.985082499999997
18.0170115 29.895728499999997 17.9086845
23.990545499999996 29.8058135 11.986882499999998
23.8797355 23.892835499999997 11.975969499999998
23.943115499999998 12.0556095 23.9852365
12.062185499999998 23.8651745 12.066982499999998
23.8546195 23.8835585 29.8999635
17.9663295 29.887178499999997 12.129204499999998
29.840898499999998 23.865573499999996 11.949803499999998
14.690007499999998 14.9227365 14.832274499999999
27.1021035 26.8535765 14.754410499999999
15.038890499999999 26.5775985 15.167342499999998
14.755518499999999 26.9570985 20.9279785
26.7410475 21.034899499999998 26.6951695
26.791523499999997 20.733296499999998 20.727749499999998
27.169903499999997 21.1209785 15.171567499999998
20.782428499999998 14.796076499999998 14.960686499999998
27.0836185 15.0582675 27.0383895
20.828038499999998 14.860076499999998 21.1532955
26.723797499999996 15.0702845 21.135698499999997
20.7155025 15.132835499999999 26.941787499999997
26.7040515 15.235552499999999 15.099452499999998
21.2670145 20.9583065 15.145615499999998
21.0623315 26.6900305 26.720867499999997
20.9440855 20.7410215 20.8011505
20.760183499999997 26.7289855 21.138772499999998
20.7365675 21.044202499999997 27.0898005
26.7563855 27.1092405 20.7927745
15.260067499999998 20.800087499999997 26.7207005
14.953925499999999 27.2339095 26.8464665
20.991718499999998 27.1399275 14.9008975
15.225595499999999 20.809330499999998 14.837835499999999
14.919398499999998 21.132242499999997 21.196692499999997
15.1299505 15.316561499999999 27.008567499999998
15.006119499999999 14.951467499999998 20.602766499999998
27.0820935 26.6093635 26.9977315
