3_train/231_cspbbr3_MA-AbzO_3_0.60\231_cspbbr3_MA-AbzO_3_0.60.xyz
1.0
43.622974 0 0
0 43.622974 0
0 0 43.622974
Br C Cs H N O Pb 
72 280 26 384 64 72 27 
Cartesian
15.861486999999999 15.861486999999999 18.836486999999998
15.861486999999999 12.886486999999999 21.811487
12.886486999999999 15.861486999999999 21.811487
15.861486999999999 15.861486999999999 24.786486999999997
15.861486999999999 12.886486999999999 27.761487
15.861486999999999 15.861486999999999 30.736487
15.861486999999999 18.836486999999998 15.861486999999999
15.861486999999999 21.811487 18.836486999999998
15.861486999999999 18.836486999999998 21.811487
12.886486999999999 21.811487 21.811487
15.861486999999999 21.811487 24.786486999999997
15.861486999999999 18.836486999999998 27.761487
15.861486999999999 24.786486999999997 15.861486999999999
12.886486999999999 27.761487 15.861486999999999
15.861486999999999 27.761487 18.836486999999998
15.861486999999999 24.786486999999997 21.811487
15.861486999999999 27.761487 24.786486999999997
15.861486999999999 24.786486999999997 27.761487
15.861486999999999 30.736487 15.861486999999999
15.861486999999999 30.736487 21.811487
15.861486999999999 30.736487 27.761487
18.836486999999998 15.861486999999999 15.861486999999999
21.811487 15.861486999999999 18.836486999999998
18.836486999999998 15.861486999999999 21.811487
21.811487 15.861486999999999 24.786486999999997
18.836486999999998 15.861486999999999 27.761487
21.811487 21.811487 12.886486999999999
21.811487 18.836486999999998 15.861486999999999
18.836486999999998 21.811487 15.861486999999999
21.811487 21.811487 18.836486999999998
21.811487 18.836486999999998 21.811487
18.836486999999998 21.811487 21.811487
21.811487 21.811487 24.786486999999997
21.811487 18.836486999999998 27.761487
18.836486999999998 21.811487 27.761487
21.811487 21.811487 30.736487
21.811487 24.786486999999997 15.861486999999999
18.836486999999998 27.761487 15.861486999999999
21.811487 27.761487 18.836486999999998
21.811487 24.786486999999997 21.811487
18.836486999999998 27.761487 21.811487
21.811487 27.761487 24.786486999999997
21.811487 24.786486999999997 27.761487
18.836486999999998 27.761487 27.761487
27.761487 15.861486999999999 12.886486999999999
24.786486999999997 15.861486999999999 15.861486999999999
27.761487 15.861486999999999 18.836486999999998
27.761487 12.886486999999999 21.811487
24.786486999999997 15.861486999999999 21.811487
27.761487 15.861486999999999 24.786486999999997
24.786486999999997 15.861486999999999 27.761487
27.761487 21.811487 12.886486999999999
27.761487 18.836486999999998 15.861486999999999
24.786486999999997 21.811487 15.861486999999999
27.761487 21.811487 18.836486999999998
27.761487 18.836486999999998 21.811487
24.786486999999997 21.811487 21.811487
27.761487 21.811487 24.786486999999997
27.761487 18.836486999999998 27.761487
24.786486999999997 21.811487 27.761487
27.761487 21.811487 30.736487
27.761487 24.786486999999997 15.861486999999999
24.786486999999997 27.761487 15.861486999999999
27.761487 27.761487 18.836486999999998
27.761487 24.786486999999997 21.811487
24.786486999999997 27.761487 21.811487
27.761487 27.761487 24.786486999999997
27.761487 24.786486999999997 27.761487
24.786486999999997 27.761487 27.761487
30.736487 15.861486999999999 21.811487
30.736487 21.811487 21.811487
30.736487 27.761487 21.811487
21.882717 28.994867 34.331516
22.024724 28.946177 32.943687
21.811487 27.761487 32.241088
21.29422 26.642439 34.381508999999994
21.493515 27.840559 35.041377
21.811487 27.761487 30.736487
21.506500999999997 26.567218999999998 32.978227000000004
27.832717 28.994867 34.331516
27.974724 28.946177 32.943687
27.761487 27.761487 32.241088
27.24422 26.642439 34.381508999999994
27.443515 27.840559 35.041377
27.761487 27.761487 30.736487
27.456501 26.567218999999998 32.978227000000004
27.832717 17.094867 34.331516
27.974724 17.046177 32.943687
27.761487 15.861486999999999 32.241088
27.24422 14.742439 34.381508999999994
27.443515 15.940558999999999 35.041377
27.761487 15.861486999999999 30.736487
27.456501 14.667219 32.978227000000004
15.932716999999998 28.994867 34.331516
16.074724 28.946177 32.943687
15.861486999999999 27.761487 32.241088
15.34422 26.642439 34.381508999999994
15.543515 27.840559 35.041377
15.861486999999999 27.761487 30.736487
15.556500999999999 26.567218999999998 32.978227000000004
21.882717 17.094867 34.331516
22.024724 17.046177 32.943687
21.811487 15.861486999999999 32.241088
21.29422 14.742439 34.381508999999994
21.493515 15.940558999999999 35.041377
21.811487 15.861486999999999 30.736487
21.506500999999997 14.667219 32.978227000000004
15.932716999999998 23.044867 34.331516
16.074724 22.996177 32.943687
15.861486999999999 21.811487 32.241088
15.34422 20.692439 34.381508999999994
15.543515 21.890559 35.041377
15.861486999999999 21.811487 30.736487
15.556500999999999 20.617219 32.978227000000004
15.790256999999999 28.994867 9.291457999999999
15.648249999999999 28.946177 10.679286999999999
15.861486999999999 27.761487 11.381885999999998
16.378754 26.642439 9.241464999999998
16.179458999999998 27.840559 8.581596999999999
15.861486999999999 27.761487 12.886486999999999
16.166473 26.567218999999998 10.644746999999999
27.690257 28.994867 9.291457999999999
27.54825 28.946177 10.679286999999999
27.761487 27.761487 11.381885999999998
28.278754 26.642439 9.241464999999998
28.079458999999996 27.840559 8.581596999999999
27.761487 27.761487 12.886486999999999
28.066473 26.567218999999998 10.644746999999999
21.740257 17.094867 9.291457999999999
21.598249999999997 17.046177 10.679286999999999
21.811487 15.861486999999999 11.381885999999998
22.328754 14.742439 9.241464999999998
22.129459 15.940558999999999 8.581596999999999
21.811487 15.861486999999999 12.886486999999999
22.116473 14.667219 10.644746999999999
15.790256999999999 17.094867 9.291457999999999
15.648249999999999 17.046177 10.679286999999999
15.861486999999999 15.861486999999999 11.381885999999998
16.378754 14.742439 9.241464999999998
16.179458999999998 15.940558999999999 8.581596999999999
15.861486999999999 15.861486999999999 12.886486999999999
16.166473 14.667219 10.644746999999999
15.790256999999999 23.044867 9.291457999999999
15.648249999999999 22.996177 10.679286999999999
15.861486999999999 21.811487 11.381885999999998
16.378754 20.692439 9.241464999999998
16.179458999999998 21.890559 8.581596999999999
15.861486999999999 21.811487 12.886486999999999
16.166473 20.617219 10.644746999999999
21.740257 28.994867 9.291457999999999
21.598249999999997 28.946177 10.679286999999999
21.811487 27.761487 11.381885999999998
22.328754 26.642439 9.241464999999998
22.129459 27.840559 8.581596999999999
21.811487 27.761487 12.886486999999999
22.116473 26.567218999999998 10.644746999999999
9.291457999999999 17.094867 27.832717
10.679286999999999 17.046177 27.974724
11.381885999999998 15.861486999999999 27.761487
9.241464999999998 14.742439 27.24422
8.581596999999999 15.940558999999999 27.443515
12.886486999999999 15.861486999999999 27.761487
10.644746999999999 14.667219 27.456501
9.291457999999999 23.044867 15.932716999999998
10.679286999999999 22.996177 16.074724
11.381885999999998 21.811487 15.861486999999999
9.241464999999998 20.692439 15.34422
8.581596999999999 21.890559 15.543515
12.886486999999999 21.811487 15.861486999999999
10.644746999999999 20.617219 15.556500999999999
9.291457999999999 17.094867 15.932716999999998
10.679286999999999 17.046177 16.074724
11.381885999999998 15.861486999999999 15.861486999999999
9.241464999999998 14.742439 15.34422
8.581596999999999 15.940558999999999 15.543515
12.886486999999999 15.861486999999999 15.861486999999999
10.644746999999999 14.667219 15.556500999999999
9.291457999999999 28.994867 21.882717
10.679286999999999 28.946177 22.024724
11.381885999999998 27.761487 21.811487
9.241464999999998 26.642439 21.29422
8.581596999999999 27.840559 21.493515
12.886486999999999 27.761487 21.811487
10.644746999999999 26.567218999999998 21.506500999999997
9.291457999999999 23.044867 27.832717
10.679286999999999 22.996177 27.974724
11.381885999999998 21.811487 27.761487
9.241464999999998 20.692439 27.24422
8.581596999999999 21.890559 27.443515
12.886486999999999 21.811487 27.761487
10.644746999999999 20.617219 27.456501
9.291457999999999 28.994867 27.832717
10.679286999999999 28.946177 27.974724
11.381885999999998 27.761487 27.761487
9.241464999999998 26.642439 27.24422
8.581596999999999 27.840559 27.443515
12.886486999999999 27.761487 27.761487
10.644746999999999 26.567218999999998 27.456501
34.331516 17.094867 27.690257
32.943687 17.046177 27.54825
32.241088 15.861486999999999 27.761487
34.381508999999994 14.742439 28.278754
35.041377 15.940558999999999 28.079458999999996
30.736487 15.861486999999999 27.761487
32.978227000000004 14.667219 28.066473
34.331516 17.094867 15.790256999999999
32.943687 17.046177 15.648249999999999
32.241088 15.861486999999999 15.861486999999999
34.381508999999994 14.742439 16.378754
35.041377 15.940558999999999 16.179458999999998
30.736487 15.861486999999999 15.861486999999999
32.978227000000004 14.667219 16.166473
34.331516 28.994867 27.690257
32.943687 28.946177 27.54825
32.241088 27.761487 27.761487
34.381508999999994 26.642439 28.278754
35.041377 27.840559 28.079458999999996
30.736487 27.761487 27.761487
32.978227000000004 26.567218999999998 28.066473
34.331516 23.044867 27.690257
32.943687 22.996177 27.54825
32.241088 21.811487 27.761487
34.381508999999994 20.692439 28.278754
35.041377 21.890559 28.079458999999996
30.736487 21.811487 27.761487
32.978227000000004 20.617219 28.066473
34.331516 28.994867 15.790256999999999
32.943687 28.946177 15.648249999999999
32.241088 27.761487 15.861486999999999
34.381508999999994 26.642439 16.378754
35.041377 27.840559 16.179458999999998
30.736487 27.761487 15.861486999999999
32.978227000000004 26.567218999999998 16.166473
34.331516 23.044867 15.790256999999999
32.943687 22.996177 15.648249999999999
32.241088 21.811487 15.861486999999999
34.381508999999994 20.692439 16.378754
35.041377 21.890559 16.179458999999998
30.736487 21.811487 15.861486999999999
32.978227000000004 20.617219 16.166473
21.882717 9.291457999999999 17.094867
22.024724 10.679286999999999 17.046177
21.811487 11.381885999999998 15.861486999999999
21.29422 9.241464999999998 14.742439
21.493515 8.581596999999999 15.940558999999999
21.811487 12.886486999999999 15.861486999999999
21.506500999999997 10.644746999999999 14.667219
27.832717 9.291457999999999 17.094867
27.974724 10.679286999999999 17.046177
27.761487 11.381885999999998 15.861486999999999
27.24422 9.241464999999998 14.742439
27.443515 8.581596999999999 15.940558999999999
27.761487 12.886486999999999 15.861486999999999
27.456501 10.644746999999999 14.667219
21.882717 9.291457999999999 23.044867
22.024724 10.679286999999999 22.996177
21.811487 11.381885999999998 21.811487
21.29422 9.241464999999998 20.692439
21.493515 8.581596999999999 21.890559
21.811487 12.886486999999999 21.811487
21.506500999999997 10.644746999999999 20.617219
15.932716999999998 9.291457999999999 17.094867
16.074724 10.679286999999999 17.046177
15.861486999999999 11.381885999999998 15.861486999999999
15.34422 9.241464999999998 14.742439
15.543515 8.581596999999999 15.940558999999999
15.861486999999999 12.886486999999999 15.861486999999999
15.556500999999999 10.644746999999999 14.667219
27.832717 9.291457999999999 28.994867
27.974724 10.679286999999999 28.946177
27.761487 11.381885999999998 27.761487
27.24422 9.241464999999998 26.642439
27.443515 8.581596999999999 27.840559
27.761487 12.886486999999999 27.761487
27.456501 10.644746999999999 26.567218999999998
21.882717 9.291457999999999 28.994867
22.024724 10.679286999999999 28.946177
21.811487 11.381885999999998 27.761487
21.29422 9.241464999999998 26.642439
21.493515 8.581596999999999 27.840559
21.811487 12.886486999999999 27.761487
21.506500999999997 10.644746999999999 26.567218999999998
21.882717 34.331516 14.628106999999998
22.024724 32.943687 14.676796999999999
21.811487 32.241088 15.861486999999999
21.29422 34.381508999999994 16.980535
21.493515 35.041377 15.782414999999999
21.811487 30.736487 15.861486999999999
21.506500999999997 32.978227000000004 17.055754999999998
21.882717 34.331516 20.578107
22.024724 32.943687 20.626797
21.811487 32.241088 21.811487
21.29422 34.381508999999994 22.930535
21.493515 35.041377 21.732415
21.811487 30.736487 21.811487
21.506500999999997 32.978227000000004 23.005754999999997
27.832717 34.331516 20.578107
27.974724 32.943687 20.626797
27.761487 32.241088 21.811487
27.24422 34.381508999999994 22.930535
27.443515 35.041377 21.732415
27.761487 30.736487 21.811487
27.456501 32.978227000000004 23.005754999999997
27.832717 34.331516 14.628106999999998
27.974724 32.943687 14.676796999999999
27.761487 32.241088 15.861486999999999
27.24422 34.381508999999994 16.980535
27.443515 35.041377 15.782414999999999
27.761487 30.736487 15.861486999999999
27.456501 32.978227000000004 17.055754999999998
21.882717 34.331516 26.528107
22.024724 32.943687 26.576797
21.811487 32.241088 27.761487
21.29422 34.381508999999994 28.880535
21.493515 35.041377 27.682415
21.811487 30.736487 27.761487
21.506500999999997 32.978227000000004 28.955755
27.832717 34.331516 26.528107
27.974724 32.943687 26.576797
27.761487 32.241088 27.761487
27.24422 34.381508999999994 28.880535
27.443515 35.041377 27.682415
27.761487 30.736487 27.761487
27.456501 32.978227000000004 28.955755
18.836486999999998 18.836486999999998 11.410826
31.779937 24.786486999999997 31.779937
11.843036999999999 31.779937 18.836486999999998
24.786486999999997 18.836486999999998 11.410826
18.836486999999998 24.786486999999997 11.410826
24.786486999999997 24.786486999999997 11.410826
11.410826 18.836486999999998 24.786486999999997
24.786486999999997 11.410826 24.786486999999997
11.410826 24.786486999999997 18.836486999999998
32.212148 24.786486999999997 24.786486999999997
31.779937 18.836486999999998 31.779937
24.786486999999997 24.786486999999997 32.212148
31.779937 31.779937 24.786486999999997
31.779937 11.843036999999999 24.786486999999997
32.212148 18.836486999999998 24.786486999999997
24.786486999999997 11.843036999999999 11.843036999999999
18.836486999999998 11.843036999999999 31.779937
11.843036999999999 24.786486999999997 31.779937
32.212148 18.836486999999998 18.836486999999998
18.836486999999998 11.843036999999999 11.843036999999999
11.843036999999999 11.843036999999999 18.836486999999998
11.410826 18.836486999999998 18.836486999999998
32.212148 24.786486999999997 18.836486999999998
18.836486999999998 11.410826 24.786486999999997
18.836486999999998 32.212148 18.836486999999998
18.836486999999998 18.836486999999998 32.212148
31.779937 24.786486999999997 11.843036999999999
18.836486999999998 31.779937 31.779937
12.886486999999999 12.886486999999999 24.786486999999997
12.886486999999999 18.836486999999998 12.886486999999999
12.886486999999999 24.786486999999997 24.786486999999997
12.886486999999999 30.736487 24.786486999999997
18.836486999999998 12.886486999999999 18.836486999999998
18.836486999999998 18.836486999999998 18.836486999999998
18.836486999999998 18.836486999999998 24.786486999999997
18.836486999999998 24.786486999999997 18.836486999999998
18.836486999999998 24.786486999999997 24.786486999999997
18.836486999999998 24.786486999999997 30.736487
18.836486999999998 30.736487 12.886486999999999
18.836486999999998 30.736487 24.786486999999997
24.786486999999997 12.886486999999999 18.836486999999998
24.786486999999997 12.886486999999999 30.736487
24.786486999999997 18.836486999999998 18.836486999999998
24.786486999999997 18.836486999999998 24.786486999999997
24.786486999999997 18.836486999999998 30.736487
24.786486999999997 24.786486999999997 18.836486999999998
24.786486999999997 24.786486999999997 24.786486999999997
24.786486999999997 30.736487 12.886486999999999
24.786486999999997 30.736487 18.836486999999998
24.786486999999997 30.736487 24.786486999999997
24.786486999999997 30.736487 30.736487
30.736487 12.886486999999999 18.836486999999998
30.736487 18.836486999999998 12.886486999999999
30.736487 30.736487 18.836486999999998
21.005094 25.741238999999997 34.927487
21.353914 27.890658 36.122974
22.03874 29.933584999999997 34.865303999999995
22.255304 29.843946 32.366549
21.054101 24.570722 32.743952
21.622637 25.48239 31.27656
26.955094 25.741238999999997 34.927487
27.303914 27.890658 36.122974
27.988739999999996 29.933584999999997 34.865303999999995
28.205303999999998 29.843946 32.366549
27.004101 24.570722 32.743952
27.572636999999997 25.48239 31.27656
26.955094 13.841238999999998 34.927487
27.303914 15.990658 36.122974
27.988739999999996 18.033585 34.865303999999995
28.205303999999998 17.943945999999997 32.366549
27.004101 12.670721999999998 32.743952
27.572636999999997 13.582389999999998 31.27656
15.055093999999999 25.741238999999997 34.927487
15.403913999999999 27.890658 36.122974
16.088739999999998 29.933584999999997 34.865303999999995
16.305304 29.843946 32.366549
15.104101 24.570722 32.743952
15.672636999999998 25.48239 31.27656
21.005094 13.841238999999998 34.927487
21.353914 15.990658 36.122974
22.03874 18.033585 34.865303999999995
22.255304 17.943945999999997 32.366549
21.054101 12.670721999999998 32.743952
21.622637 13.582389999999998 31.27656
15.055093999999999 19.791238999999997 34.927487
15.403913999999999 21.940658 36.122974
16.088739999999998 23.983585 34.865303999999995
16.305304 23.893946 32.366549
15.104101 18.620722 32.743952
15.672636999999998 19.53239 31.27656
16.667879999999997 25.741238999999997 8.695487
16.31906 27.890658 7.499999999999999
15.634234 29.933584999999997 8.75767
15.41767 29.843946 11.256425
16.618873 24.570722 10.879021999999999
16.050337 25.48239 12.346414
28.56788 25.741238999999997 8.695487
28.21906 27.890658 7.499999999999999
27.534234 29.933584999999997 8.75767
27.31767 29.843946 11.256425
28.518873 24.570722 10.879021999999999
27.950337 25.48239 12.346414
22.61788 13.841238999999998 8.695487
22.26906 15.990658 7.499999999999999
21.584234 18.033585 8.75767
21.367669999999997 17.943945999999997 11.256425
22.568873 12.670721999999998 10.879021999999999
22.000337 13.582389999999998 12.346414
16.667879999999997 13.841238999999998 8.695487
16.31906 15.990658 7.499999999999999
15.634234 18.033585 8.75767
15.41767 17.943945999999997 11.256425
16.618873 12.670721999999998 10.879021999999999
16.050337 13.582389999999998 12.346414
16.667879999999997 19.791238999999997 8.695487
16.31906 21.940658 7.499999999999999
15.634234 23.983585 8.75767
15.41767 23.893946 11.256425
16.618873 18.620722 10.879021999999999
16.050337 19.53239 12.346414
22.61788 25.741238999999997 8.695487
22.26906 27.890658 7.499999999999999
21.584234 29.933584999999997 8.75767
21.367669999999997 29.843946 11.256425
22.568873 24.570722 10.879021999999999
22.000337 25.48239 12.346414
8.695487 13.841238999999998 26.955094
7.499999999999999 15.990658 27.303914
8.75767 18.033585 27.988739999999996
11.256425 17.943945999999997 28.205303999999998
10.879021999999999 12.670721999999998 27.004101
12.346414 13.582389999999998 27.572636999999997
8.695487 19.791238999999997 15.055093999999999
7.499999999999999 21.940658 15.403913999999999
8.75767 23.983585 16.088739999999998
11.256425 23.893946 16.305304
10.879021999999999 18.620722 15.104101
12.346414 19.53239 15.672636999999998
8.695487 13.841238999999998 15.055093999999999
7.499999999999999 15.990658 15.403913999999999
8.75767 18.033585 16.088739999999998
11.256425 17.943945999999997 16.305304
10.879021999999999 12.670721999999998 15.104101
12.346414 13.582389999999998 15.672636999999998
8.695487 25.741238999999997 21.005094
7.499999999999999 27.890658 21.353914
8.75767 29.933584999999997 22.03874
11.256425 29.843946 22.255304
10.879021999999999 24.570722 21.054101
12.346414 25.48239 21.622637
8.695487 19.791238999999997 26.955094
7.499999999999999 21.940658 27.303914
8.75767 23.983585 27.988739999999996
11.256425 23.893946 28.205303999999998
10.879021999999999 18.620722 27.004101
12.346414 19.53239 27.572636999999997
8.695487 25.741238999999997 26.955094
7.499999999999999 27.890658 27.303914
8.75767 29.933584999999997 27.988739999999996
11.256425 29.843946 28.205303999999998
10.879021999999999 24.570722 27.004101
12.346414 25.48239 27.572636999999997
34.927487 13.841238999999998 28.56788
36.122974 15.990658 28.21906
34.865303999999995 18.033585 27.534234
32.366549 17.943945999999997 27.31767
32.743952 12.670721999999998 28.518873
31.27656 13.582389999999998 27.950337
34.927487 13.841238999999998 16.667879999999997
36.122974 15.990658 16.31906
34.865303999999995 18.033585 15.634234
32.366549 17.943945999999997 15.41767
32.743952 12.670721999999998 16.618873
31.27656 13.582389999999998 16.050337
34.927487 25.741238999999997 28.56788
36.122974 27.890658 28.21906
34.865303999999995 29.933584999999997 27.534234
32.366549 29.843946 27.31767
32.743952 24.570722 28.518873
31.27656 25.48239 27.950337
34.927487 19.791238999999997 28.56788
36.122974 21.940658 28.21906
34.865303999999995 23.983585 27.534234
32.366549 23.893946 27.31767
32.743952 18.620722 28.518873
31.27656 19.53239 27.950337
34.927487 25.741238999999997 16.667879999999997
36.122974 27.890658 16.31906
34.865303999999995 29.933584999999997 15.634234
32.366549 29.843946 15.41767
32.743952 24.570722 16.618873
31.27656 25.48239 16.050337
34.927487 19.791238999999997 16.667879999999997
36.122974 21.940658 16.31906
34.865303999999995 23.983585 15.634234
32.366549 23.893946 15.41767
32.743952 18.620722 16.618873
31.27656 19.53239 16.050337
21.005094 8.695487 13.841238999999998
21.353914 7.499999999999999 15.990658
22.03874 8.75767 18.033585
22.255304 11.256425 17.943945999999997
21.054101 10.879021999999999 12.670721999999998
21.622637 12.346414 13.582389999999998
26.955094 8.695487 13.841238999999998
27.303914 7.499999999999999 15.990658
27.988739999999996 8.75767 18.033585
28.205303999999998 11.256425 17.943945999999997
27.004101 10.879021999999999 12.670721999999998
27.572636999999997 12.346414 13.582389999999998
21.005094 8.695487 19.791238999999997
21.353914 7.499999999999999 21.940658
22.03874 8.75767 23.983585
22.255304 11.256425 23.893946
21.054101 10.879021999999999 18.620722
21.622637 12.346414 19.53239
15.055093999999999 8.695487 13.841238999999998
15.403913999999999 7.499999999999999 15.990658
16.088739999999998 8.75767 18.033585
16.305304 11.256425 17.943945999999997
15.104101 10.879021999999999 12.670721999999998
15.672636999999998 12.346414 13.582389999999998
26.955094 8.695487 25.741238999999997
27.303914 7.499999999999999 27.890658
27.988739999999996 8.75767 29.933584999999997
28.205303999999998 11.256425 29.843946
27.004101 10.879021999999999 24.570722
27.572636999999997 12.346414 25.48239
21.005094 8.695487 25.741238999999997
21.353914 7.499999999999999 27.890658
22.03874 8.75767 29.933584999999997
22.255304 11.256425 29.843946
21.054101 10.879021999999999 24.570722
21.622637 12.346414 25.48239
21.005094 34.927487 17.881735
21.353914 36.122974 15.732315999999999
22.03874 34.865303999999995 13.689388999999998
22.255304 32.366549 13.779027999999998
21.054101 32.743952 19.052252
21.622637 31.27656 18.140583999999997
21.005094 34.927487 23.831735
21.353914 36.122974 21.682315999999997
22.03874 34.865303999999995 19.639388999999998
22.255304 32.366549 19.729028
21.054101 32.743952 25.002252
21.622637 31.27656 24.090584
26.955094 34.927487 23.831735
27.303914 36.122974 21.682315999999997
27.988739999999996 34.865303999999995 19.639388999999998
28.205303999999998 32.366549 19.729028
27.004101 32.743952 25.002252
27.572636999999997 31.27656 24.090584
26.955094 34.927487 17.881735
27.303914 36.122974 15.732315999999999
27.988739999999996 34.865303999999995 13.689388999999998
28.205303999999998 32.366549 13.779027999999998
27.004101 32.743952 19.052252
27.572636999999997 31.27656 18.140583999999997
21.005094 34.927487 29.781734999999998
21.353914 36.122974 27.632316
22.03874 34.865303999999995 25.589389
22.255304 32.366549 25.679028
21.054101 32.743952 30.952251999999998
21.622637 31.27656 30.040584
26.955094 34.927487 29.781734999999998
27.303914 36.122974 27.632316
27.988739999999996 34.865303999999995 25.589389
28.205303999999998 32.366549 25.679028
27.004101 32.743952 30.952251999999998
27.572636999999997 31.27656 30.040584
18.305830999999998 17.942883 11.076905
18.327931 19.742850999999998 11.076905
19.875698999999997 18.823726999999998 11.076905
19.325543 19.660037 13.261229
19.305175 18.001177 13.261229
17.878743999999998 18.848247 13.261229
32.703119 24.417691 31.328989999999997
31.898363 25.812363 32.133746
31.446682 24.129406 32.585426999999996
29.838302 25.126369999999998 31.104706999999998
30.57997 23.841033999999997 30.363039
30.996240999999998 25.392056 29.946768
10.873579 31.282715 18.903938999999998
12.014895 32.42403 19.700916
11.932284 32.341419 17.904607
13.827319999999999 31.147354 18.774323
12.775476999999999 30.095512 18.039825
12.851612999999999 30.171647 19.695313
25.633751999999998 19.438373 11.076905
24.884103 17.801790999999998 11.076905
23.841606 19.269296999999998 11.076905
24.005643 18.281785999999997 13.261229
24.696524 19.790067999999998 13.261229
25.657293999999997 18.437607 13.261229
18.438989999999997 23.826216 11.076905
18.203616 25.610865 11.076905
19.866855 24.92238 11.076905
19.202821999999998 25.671477999999997 13.261229
19.419743999999998 24.026736 13.261229
17.886895 24.661247 13.261229
25.393105 23.942603 11.076905
23.752353 24.683082 11.076905
25.214002999999998 25.733774999999998 11.076905
24.227425 25.564215 13.261229
25.739549999999998 24.881784999999997 13.261229
24.392485999999998 23.913460999999998 13.261229
11.076905 19.781746 25.21847
11.076905 18.737966 23.751876999999997
11.076905 17.989749 25.389114
13.261229 17.965331 24.388369
13.261229 18.927284999999998 25.739988999999998
13.261229 19.616844999999998 24.231103
24.582365 11.076905 23.767439
25.771069999999998 11.076905 25.119235999999997
24.006026 11.076905 25.472786
24.974605999999998 13.261229 25.725647
23.879091 13.261229 24.479823
25.505764 13.261229 24.153991
11.076905 24.262590999999997 17.938903
11.076905 24.271103999999998 19.738985999999997
11.076905 25.825765999999998 18.831571999999998
13.261229 25.269313 19.663705
13.261229 25.261466 18.004739
13.261229 23.828681999999997 18.841017
32.546069 25.411020999999998 25.617199
32.546069 23.754802 24.911993999999996
32.546069 25.193637 23.830268999999998
30.361745 24.210913 24.020898999999996
30.361745 25.737292999999998 24.670818999999998
30.361745 24.411255 25.667742999999998
32.607412 18.219464 31.424697
32.098224 19.869260999999998 31.933885
31.342527999999998 18.420735999999998 32.689581000000004
29.926506 19.405138 31.016503
30.395777 17.884677 30.547231
31.092229999999997 19.219645 29.850779
23.857277 25.251991999999998 32.546069
24.847953 23.749016 32.546069
25.65423 25.358454 32.546069
25.642852 24.357476 30.361745
24.729839 25.742625999999998 30.361745
23.986769999999996 24.259359 30.361745
32.345786000000004 31.686322999999998 23.857682
31.282414 32.749695 24.847053
32.419964 31.612144999999998 25.654726
30.167623 30.775385999999997 25.642478999999998
31.147631 29.795377 24.730669
30.099259 30.843749 23.986313
32.746016 12.336880999999998 24.90664
31.577495 11.16836 25.620427
31.724652 11.315517 23.832393999999997
29.798768 12.478732999999998 24.675752999999997
30.875683 13.555648 24.017923999999997
30.740061999999998 13.420027 25.665785
32.546069 19.806611 25.159291999999997
32.546069 18.028565999999998 25.440237
32.546069 18.674284 23.759932
30.361745 17.942415999999998 24.442906999999998
30.361745 19.581070999999998 24.183988
30.361745 18.985974 25.732564999999997
24.758745 12.341546999999998 10.872291999999998
25.700089 11.256594 11.957244999999999
23.900626999999997 11.222617 11.991221999999999
24.812054 12.474432999999998 13.828505999999999
23.944506 13.474331 12.828608
25.602901 13.505645 12.797294999999998
17.804797999999998 11.695637999999999 32.104772999999994
19.243674 10.930781999999999 31.339917
19.460988999999998 12.194337999999998 32.603474
19.787297 13.069706 30.389740999999997
18.461221 13.774600999999999 31.094635999999998
18.260942999999997 12.610100999999998 29.930135999999997
12.036036 25.630194999999997 32.445171
10.875698 24.890192 31.284833
11.909023999999999 23.839074999999998 32.31816
12.755993999999998 24.008920999999997 30.076027999999997
13.825366999999998 24.690913 31.145401999999997
12.873047999999999 25.659626999999997 30.193082
32.546069 19.492241999999997 18.030192999999997
32.546069 19.206879999999998 19.807534999999998
32.546069 17.810337999999998 18.671733
30.361745 18.232139 19.579570999999998
30.361745 18.495131 17.941564
30.361745 19.782190999999997 18.988325
18.097941 11.089872999999999 12.123966
18.572509999999998 12.317708 10.896130999999999
19.83901 11.413177 11.800661999999999
19.517135 13.627982 12.674957
19.079769 12.496402999999999 13.806536
17.912557 13.330023999999998 12.972915999999998
10.90083 12.313008 19.124587
11.783539 11.430299999999999 17.827658
12.136388 11.077449999999999 19.557215999999997
13.802204999999999 12.500733999999998 18.570973
12.988696 13.314243999999999 19.766229
12.663508 13.639430999999998 18.172258999999997
11.076905 19.729706999999998 19.36779
11.076905 18.849998999999997 17.797283999999998
11.076905 17.929755 19.344386999999998