124_cspbbr3_3\124_cspbbr3_3.xyz
1.0
38.709424 0 0
0 38.709424 0
0 0 38.709424
Br Cs Pb 
108 54 27 
Cartesian
13.443236 16.639068 19.484641000000003
25.533248 13.235710000000001 10.508917
25.473309 22.339259 25.059016
22.458762 25.367091000000002 25.455047
19.206165 28.400191 25.316879
25.425497 25.421349 28.154441
19.547395 28.179872000000003 19.206331
19.218142 28.305618000000003 13.553601
13.593092 19.166055 16.463771
19.40124 25.466718 28.423472000000004
25.148493000000002 28.444955999999998 13.322859
16.303535 25.523733 25.420831
19.24456 25.494726 22.137239
25.172843999999998 10.388045 13.277318
16.227109 25.147433 19.511793000000004
19.248759 22.495205 19.2414
19.362713 25.063422000000003 16.417036000000003
25.187034000000004 28.271628999999997 19.500142000000004
25.59001 28.256214999999997 25.324719
16.524219000000002 25.123599 13.259684
19.499961 22.476589000000004 13.563286
19.102818 25.323044000000003 10.519977
13.265265000000001 13.537233 22.155334000000003
19.222386999999998 19.420631999999998 28.417091
25.13402 25.084335000000003 10.377709000000001
19.497727000000005 22.242326 25.468256000000004
22.509904 13.287947 13.547695000000001
25.406453 25.171416999999998 22.437098
10.296285000000001 13.276384 19.489029000000002
10.158043000000001 13.452256 13.398736000000001
22.491235000000003 25.507916 13.469316000000001
25.412669 19.297473000000004 28.136169000000002
22.189472000000002 19.426606 25.526854
25.471527000000002 16.30802 25.148274
25.490081000000004 19.422683 22.516846
13.172785 10.509575 13.313877
25.429684 25.173159 16.452838
22.213931000000002 19.162617000000004 19.484329000000002
25.445376000000003 16.441937000000003 19.212562
25.275195000000004 19.191191000000003 16.507229000000002
25.320968999999998 22.059908 19.429896
16.198700000000002 19.40556 25.346742
22.374766 19.099284000000004 13.4688
25.103874000000005 19.566816000000003 10.401293
13.441714 13.141481 16.400106
22.456453000000003 25.435631 19.279137
25.449784 13.219352 28.137191
22.486652 13.618178 25.296563
25.445405 10.591145000000001 25.510074000000003
25.500147 13.189476 22.267524
13.628181 10.517142 19.350520000000003
13.218611000000001 13.424485 10.608296000000001
22.217197 13.526159 19.221889000000004
25.149473 10.539834 19.183661999999998
25.283924 13.1769 16.214394
25.138615 16.551738 13.471492
19.314101 16.247273 25.423997
28.336024000000002 13.351826 13.17057
13.24897 10.471976 25.460397999999998
13.406292 19.559286 10.642579
19.210931000000002 19.346871 22.505128
28.154355000000002 19.232165000000002 25.362448999999998
13.626144 28.436644 19.448204000000004
13.521449 28.126811000000004 13.448383
13.194267 25.425878000000004 28.362721999999998
10.305810000000001 25.387228999999998 25.425976
13.611899 22.364145 25.109295000000003
13.269171 25.266756 22.454365000000003
13.148026 16.396174000000002 13.485169
28.13031 25.141591 13.326733
10.288989 25.148456000000003 19.481734000000003
13.591465000000001 22.474925 19.457566
13.215745 25.346490000000003 16.573422
10.682072 19.343035999999998 13.346277
10.216761 25.135004000000002 13.427486
13.330117 22.169442000000004 13.517149
13.301301 25.270152000000003 10.574956
28.422958 25.134424000000003 19.363581000000003
13.434368000000001 19.595436 28.147025
28.102237000000002 25.260929000000004 25.290356000000003
10.274621 19.546302000000004 25.198480000000004
13.233251000000001 16.23901 25.204702000000005
13.396636 19.490095000000004 22.074933
10.545801 19.509260000000005 19.203887
19.328378 13.162582 10.450152000000001
19.483456000000004 10.404434 13.593102
13.481722 28.396465 25.070228
25.479303 22.325675000000004 13.487251
19.341383 16.327706 13.215795
19.202354 19.154181 10.321915
10.633415000000001 13.435186 25.101976
13.613113 13.283482000000001 28.309834000000002
19.127231000000002 19.499952 16.375709999999998
16.267872 13.277752000000001 13.517117
19.471270000000004 13.507181000000001 28.186836999999997
28.062541000000003 13.282191000000001 25.261554000000004
16.264232 13.543635 25.176896
19.480736999999998 16.376027 19.554557000000003
16.192774 19.472166 13.470295
19.102746000000003 10.369225 25.249821000000004
28.359637999999997 19.249097 13.249662
16.474694 13.192495000000001 19.427552
16.397002999999998 19.429582000000003 19.108247
19.209693 10.313486000000001 19.326182000000003
19.130418 13.568150000000001 16.484405000000002
28.110066000000003 19.208955000000003 19.224426
19.23641 13.437203 22.179243
28.441346000000003 13.411402 19.208809000000002
22.546311000000003 28.651211000000004 27.886101000000004
21.988833 22.568452 16.099406000000002
28.478353 22.83231 28.511801
28.188443 10.797232000000001 16.164716
22.570934 22.38787 28.579044000000003
28.220784000000002 21.869197 16.027014
28.771652000000003 10.717524000000001 22.117905999999998
22.147633 22.637010000000004 22.126991000000004
27.833475999999997 16.726016 10.398214000000001
28.473228 22.644072 10.086279000000001
28.183957 16.040623 28.168559000000002
22.337236000000004 28.446646 10.835018
28.04041 16.157738000000002 21.923777
28.223883 22.777188000000002 22.047508999999998
21.881582 28.165647999999997 16.393574
16.310717 27.958446000000002 10.122444
21.937737 16.250366 28.631121999999998
15.946157000000001 16.64405 10.522116
16.778769000000004 10.526502 27.909168
10.808643 16.631368000000002 10.658112000000001
16.781171 10.601442 22.154862
16.70321 10.121975 16.042391000000002
16.542982000000002 10.3155 10.085135000000001
10.341808 28.326717000000002 21.805318
10.694429 28.098846 16.581765000000004
10.212327 22.318027 27.977606
10.684426 22.589905 22.574531999999998
10.274848 22.444068 16.896936000000004
10.134932000000001 16.07582 16.235397
10.178195 22.743154000000004 10.55312
10.283773 16.141284 27.987594
10.428558 15.974770000000001 22.168741000000004
16.694414000000002 16.127507 16.382061999999998
16.483598999999998 15.814649000000001 22.482891000000002
16.473125000000003 15.96916 28.442901
16.510728999999998 22.605342 10.069896
10.418106 10.695822 16.09786
22.40083 16.036270000000002 22.022179
22.415187000000003 16.480483 15.888426
22.481395 15.864416 10.390555
21.895194000000004 10.055602 28.332444000000002
22.438457 10.277425000000001 22.669221
21.997574999999998 10.50284 16.114666
22.482526 22.058604000000003 9.962634
10.441699 10.787034 22.537243000000004
16.568357 28.645808000000002 28.672058
16.639691 28.595621 22.054916
16.122498 28.539264000000003 16.093966
16.146349 22.442923999999998 27.731983999999997
15.998054000000002 22.656711 22.566558999999998
28.302501 28.635553 16.496561999999997
16.602068000000003 22.042906000000002 15.98277
22.002459 10.627107 10.056307
28.522458999999998 28.595923 22.415318
13.357190000000001 13.542701 13.588245
13.58943 25.088531000000003 19.191546000000002
13.45135 25.041384 25.446221
19.482526 13.26855 13.188231
19.214216999999998 13.414916 19.118335000000002
19.140324 13.504538 25.410329000000004
19.430243000000004 19.341203 13.09763
19.229903999999998 19.597070000000002 19.402356000000005
19.500562000000002 19.185313 25.437711
19.448334000000003 25.618828999999998 13.462736000000001
19.183569 25.30482 25.050482000000002
25.532241 13.432718 13.344781
25.469076 13.555533 19.192397
25.478909 13.110072 25.188889000000003
25.049393000000002 19.483988000000004 13.379738
25.316336 19.220737 19.156573
25.440824 19.321249 25.480901000000003
25.502377000000003 25.539287 13.296475000000001
25.209537000000005 25.099539 19.144351
25.257047 25.440870000000004 25.624476
13.634830000000001 25.48758 13.306499
13.232552 19.406735000000005 25.121158
19.13919 25.401568000000005 19.169691999999998
13.18362 19.288843 19.510066000000002
13.579577 19.449965 13.271282000000001
13.237505 13.151605 19.353883000000003
13.147726 13.537899000000001 25.243396000000004
