3_train/271_cspbbr3_MA-PDC_4_0.20\271_cspbbr3_MA-PDC_4_0.20.xyz
1.0
53.049758 0 0
0 53.049758 0
0 0 53.049758
Br C Cs H N O Pb 
216 161 95 198 65 96 64 
Cartesian
17.599878999999998 17.599878999999998 14.624878999999998
17.599878999999998 14.624878999999998 17.599878999999998
14.624878999999998 17.599878999999998 17.599878999999998
17.599878999999998 17.599878999999998 20.574878999999996
14.624878999999998 17.599878999999998 23.549878999999997
17.599878999999998 17.599878999999998 26.524879
17.599878999999998 14.624878999999998 29.499879
14.624878999999998 17.599878999999998 29.499879
17.599878999999998 17.599878999999998 32.474879
17.599878999999998 17.599878999999998 38.424879
17.599878999999998 20.574878999999996 17.599878999999998
14.624878999999998 23.549878999999997 17.599878999999998
17.599878999999998 23.549878999999997 20.574878999999996
17.599878999999998 20.574878999999996 23.549878999999997
14.624878999999998 23.549878999999997 23.549878999999997
17.599878999999998 23.549878999999997 26.524879
17.599878999999998 20.574878999999996 29.499879
14.624878999999998 23.549878999999997 29.499879
17.599878999999998 23.549878999999997 32.474879
17.599878999999998 20.574878999999996 35.449878999999996
14.624878999999998 23.549878999999997 35.449878999999996
17.599878999999998 23.549878999999997 38.424879
17.599878999999998 26.524879 17.599878999999998
17.599878999999998 29.499879 20.574878999999996
17.599878999999998 26.524879 23.549878999999997
14.624878999999998 29.499879 23.549878999999997
17.599878999999998 29.499879 26.524879
17.599878999999998 26.524879 29.499879
17.599878999999998 29.499879 32.474879
17.599878999999998 26.524879 35.449878999999996
14.624878999999998 29.499879 35.449878999999996
17.599878999999998 29.499879 38.424879
17.599878999999998 32.474879 17.599878999999998
17.599878999999998 35.449878999999996 20.574878999999996
17.599878999999998 32.474879 23.549878999999997
14.624878999999998 35.449878999999996 23.549878999999997
17.599878999999998 35.449878999999996 26.524879
17.599878999999998 32.474879 29.499879
14.624878999999998 35.449878999999996 29.499879
17.599878999999998 35.449878999999996 32.474879
17.599878999999998 32.474879 35.449878999999996
14.624878999999998 35.449878999999996 35.449878999999996
17.599878999999998 35.449878999999996 38.424879
17.599878999999998 38.424879 17.599878999999998
17.599878999999998 38.424879 23.549878999999997
17.599878999999998 38.424879 29.499879
17.599878999999998 38.424879 35.449878999999996
23.549878999999997 17.599878999999998 14.624878999999998
23.549878999999997 14.624878999999998 17.599878999999998
20.574878999999996 17.599878999999998 17.599878999999998
23.549878999999997 17.599878999999998 20.574878999999996
23.549878999999997 14.624878999999998 23.549878999999997
20.574878999999996 17.599878999999998 23.549878999999997
23.549878999999997 17.599878999999998 26.524879
23.549878999999997 14.624878999999998 29.499879
20.574878999999996 17.599878999999998 29.499879
23.549878999999997 17.599878999999998 32.474879
23.549878999999997 14.624878999999998 35.449878999999996
20.574878999999996 17.599878999999998 35.449878999999996
23.549878999999997 17.599878999999998 38.424879
23.549878999999997 23.549878999999997 14.624878999999998
23.549878999999997 20.574878999999996 17.599878999999998
20.574878999999996 23.549878999999997 17.599878999999998
23.549878999999997 23.549878999999997 20.574878999999996
23.549878999999997 20.574878999999996 23.549878999999997
20.574878999999996 23.549878999999997 23.549878999999997
23.549878999999997 23.549878999999997 26.524879
23.549878999999997 20.574878999999996 29.499879
20.574878999999996 23.549878999999997 29.499879
23.549878999999997 23.549878999999997 32.474879
23.549878999999997 20.574878999999996 35.449878999999996
20.574878999999996 23.549878999999997 35.449878999999996
23.549878999999997 23.549878999999997 38.424879
23.549878999999997 29.499879 14.624878999999998
23.549878999999997 26.524879 17.599878999999998
20.574878999999996 29.499879 17.599878999999998
23.549878999999997 29.499879 20.574878999999996
23.549878999999997 26.524879 23.549878999999997
20.574878999999996 29.499879 23.549878999999997
23.549878999999997 29.499879 26.524879
23.549878999999997 26.524879 29.499879
20.574878999999996 29.499879 29.499879
23.549878999999997 29.499879 32.474879
23.549878999999997 26.524879 35.449878999999996
20.574878999999996 29.499879 35.449878999999996
23.549878999999997 29.499879 38.424879
23.549878999999997 35.449878999999996 14.624878999999998
23.549878999999997 32.474879 17.599878999999998
20.574878999999996 35.449878999999996 17.599878999999998
23.549878999999997 35.449878999999996 20.574878999999996
23.549878999999997 32.474879 23.549878999999997
20.574878999999996 35.449878999999996 23.549878999999997
23.549878999999997 35.449878999999996 26.524879
23.549878999999997 32.474879 29.499879
20.574878999999996 35.449878999999996 29.499879
23.549878999999997 35.449878999999996 32.474879
23.549878999999997 32.474879 35.449878999999996
20.574878999999996 35.449878999999996 35.449878999999996
23.549878999999997 35.449878999999996 38.424879
23.549878999999997 38.424879 17.599878999999998
23.549878999999997 38.424879 29.499879
23.549878999999997 38.424879 35.449878999999996
29.499879 17.599878999999998 14.624878999999998
26.524879 17.599878999999998 17.599878999999998
29.499879 17.599878999999998 20.574878999999996
29.499879 14.624878999999998 23.549878999999997
26.524879 17.599878999999998 23.549878999999997
29.499879 17.599878999999998 26.524879
26.524879 17.599878999999998 29.499879
29.499879 17.599878999999998 32.474879
29.499879 14.624878999999998 35.449878999999996
26.524879 17.599878999999998 35.449878999999996
29.499879 17.599878999999998 38.424879
29.499879 23.549878999999997 14.624878999999998
29.499879 20.574878999999996 17.599878999999998
26.524879 23.549878999999997 17.599878999999998
29.499879 23.549878999999997 20.574878999999996
29.499879 20.574878999999996 23.549878999999997
26.524879 23.549878999999997 23.549878999999997
29.499879 23.549878999999997 26.524879
29.499879 20.574878999999996 29.499879
26.524879 23.549878999999997 29.499879
29.499879 23.549878999999997 32.474879
29.499879 20.574878999999996 35.449878999999996
26.524879 23.549878999999997 35.449878999999996
29.499879 23.549878999999997 38.424879
29.499879 29.499879 14.624878999999998
29.499879 26.524879 17.599878999999998
26.524879 29.499879 17.599878999999998
29.499879 29.499879 20.574878999999996
29.499879 26.524879 23.549878999999997
26.524879 29.499879 23.549878999999997
29.499879 29.499879 26.524879
29.499879 26.524879 29.499879
26.524879 29.499879 29.499879
29.499879 29.499879 32.474879
29.499879 26.524879 35.449878999999996
26.524879 29.499879 35.449878999999996
29.499879 35.449878999999996 14.624878999999998
29.499879 32.474879 17.599878999999998
26.524879 35.449878999999996 17.599878999999998
29.499879 35.449878999999996 20.574878999999996
29.499879 32.474879 23.549878999999997
26.524879 35.449878999999996 23.549878999999997
29.499879 35.449878999999996 26.524879
29.499879 32.474879 29.499879
26.524879 35.449878999999996 29.499879
29.499879 35.449878999999996 32.474879
29.499879 32.474879 35.449878999999996
26.524879 35.449878999999996 35.449878999999996
29.499879 38.424879 23.549878999999997
35.449878999999996 14.624878999999998 17.599878999999998
32.474879 17.599878999999998 17.599878999999998
35.449878999999996 17.599878999999998 20.574878999999996
35.449878999999996 14.624878999999998 23.549878999999997
32.474879 17.599878999999998 23.549878999999997
35.449878999999996 17.599878999999998 26.524879
35.449878999999996 14.624878999999998 29.499879
32.474879 17.599878999999998 29.499879
35.449878999999996 17.599878999999998 32.474879
35.449878999999996 14.624878999999998 35.449878999999996
32.474879 17.599878999999998 35.449878999999996
35.449878999999996 23.549878999999997 14.624878999999998
35.449878999999996 20.574878999999996 17.599878999999998
32.474879 23.549878999999997 17.599878999999998
35.449878999999996 23.549878999999997 20.574878999999996
35.449878999999996 20.574878999999996 23.549878999999997
32.474879 23.549878999999997 23.549878999999997
35.449878999999996 23.549878999999997 26.524879
35.449878999999996 20.574878999999996 29.499879
32.474879 23.549878999999997 29.499879
35.449878999999996 23.549878999999997 32.474879
35.449878999999996 20.574878999999996 35.449878999999996
32.474879 23.549878999999997 35.449878999999996
35.449878999999996 29.499879 14.624878999999998
35.449878999999996 26.524879 17.599878999999998
32.474879 29.499879 17.599878999999998
35.449878999999996 29.499879 20.574878999999996
35.449878999999996 26.524879 23.549878999999997
32.474879 29.499879 23.549878999999997
35.449878999999996 29.499879 26.524879
35.449878999999996 26.524879 29.499879
32.474879 29.499879 29.499879
35.449878999999996 29.499879 32.474879
35.449878999999996 26.524879 35.449878999999996
32.474879 29.499879 35.449878999999996
35.449878999999996 29.499879 38.424879
35.449878999999996 35.449878999999996 14.624878999999998
35.449878999999996 32.474879 17.599878999999998
32.474879 35.449878999999996 17.599878999999998
35.449878999999996 35.449878999999996 20.574878999999996
35.449878999999996 32.474879 23.549878999999997
32.474879 35.449878999999996 23.549878999999997
35.449878999999996 35.449878999999996 26.524879
35.449878999999996 32.474879 29.499879
32.474879 35.449878999999996 29.499879
35.449878999999996 35.449878999999996 32.474879
35.449878999999996 32.474879 35.449878999999996
32.474879 35.449878999999996 35.449878999999996
35.449878999999996 35.449878999999996 38.424879
35.449878999999996 38.424879 17.599878999999998
35.449878999999996 38.424879 23.549878999999997
35.449878999999996 38.424879 29.499879
35.449878999999996 38.424879 35.449878999999996
38.424879 17.599878999999998 17.599878999999998
38.424879 17.599878999999998 23.549878999999997
38.424879 17.599878999999998 29.499879
38.424879 17.599878999999998 35.449878999999996
38.424879 23.549878999999997 23.549878999999997
38.424879 23.549878999999997 35.449878999999996
38.424879 29.499879 17.599878999999998
38.424879 29.499879 23.549878999999997
38.424879 29.499879 35.449878999999996
38.424879 35.449878999999996 17.599878999999998
38.424879 35.449878999999996 29.499879
38.424879 35.449878999999996 35.449878999999996
35.442301 19.003808999999997 40.883063
35.449878999999996 17.599878999999998 40.819438999999996
35.451139999999995 17.488422 43.090241999999996
35.445918999999996 18.892514999999996 43.15385
35.456019 16.955143999999997 39.464284
35.447722999999996 19.540897 44.507437
35.442301 24.953809 40.883063
35.449878999999996 23.549878999999997 40.819438999999996
35.451139999999995 23.438421999999996 43.090241999999996
35.445918999999996 24.842515 43.15385
35.456019 22.905144 39.464284
35.447722999999996 25.490896999999997 44.507437
29.492300999999998 36.853809 40.883063
29.499879 35.449878999999996 40.819438999999996
29.50114 35.338422 43.090241999999996
29.495919 36.742515 43.15385
29.506019000000002 34.805144 39.464284
29.497723 37.390896999999995 44.507437
29.492300999999998 30.903808999999995 40.883063
29.499879 29.499879 40.819438999999996
29.50114 29.388422 43.090241999999996
29.495919 30.792515 43.15385
29.506019000000002 28.855143999999996 39.464284
29.497723 31.440897 44.507437
17.607456999999997 36.853809 12.166694999999997
17.599878999999998 35.449878999999996 12.230318999999998
17.598618 35.338422 9.959515999999997
17.603839 36.742515 9.895907999999999
17.593739 34.805144 13.585473999999998
17.602035 37.390896999999995 8.542320999999998
17.607456999999997 30.903808999999995 12.166694999999997
17.599878999999998 29.499879 12.230318999999998
17.598618 29.388422 9.959515999999997
17.603839 30.792515 9.895907999999999
17.593739 28.855143999999996 13.585473999999998
17.602035 31.440897 8.542320999999998
35.457457 19.003808999999997 12.166694999999997
35.449878999999996 17.599878999999998 12.230318999999998
35.448617999999996 17.488422 9.959515999999997
35.453838999999995 18.892514999999996 9.895907999999999
35.443739 16.955143999999997 13.585473999999998
35.452034999999995 19.540897 8.542320999999998
17.607456999999997 24.953809 12.166694999999997
17.599878999999998 23.549878999999997 12.230318999999998
17.598618 23.438421999999996 9.959515999999997
17.603839 24.842515 9.895907999999999
17.593739 22.905144 13.585473999999998
17.602035 25.490896999999997 8.542320999999998
12.166694999999997 30.903808999999995 29.492300999999998
12.230318999999998 29.499879 29.499879
9.959515999999997 29.388422 29.50114
9.895907999999999 30.792515 29.495919
13.585473999999998 28.855143999999996 29.506019000000002
8.542320999999998 31.440897 29.497723
12.166694999999997 36.853809 17.592301
12.230318999999998 35.449878999999996 17.599878999999998
9.959515999999997 35.338422 17.60114
9.895907999999999 36.742515 17.595919
13.585473999999998 34.805144 17.606018999999996
8.542320999999998 37.390896999999995 17.597723
12.166694999999997 30.903808999999995 17.592301
12.230318999999998 29.499879 17.599878999999998
9.959515999999997 29.388422 17.60114
9.895907999999999 30.792515 17.595919
13.585473999999998 28.855143999999996 17.606018999999996
8.542320999999998 31.440897 17.597723
12.166694999999997 19.003808999999997 35.442301
12.230318999999998 17.599878999999998 35.449878999999996
9.959515999999997 17.488422 35.451139999999995
9.895907999999999 18.892514999999996 35.445918999999996
13.585473999999998 16.955143999999997 35.456019
8.542320999999998 19.540897 35.447722999999996
40.883063 24.953809 29.507457000000002
40.819438999999996 23.549878999999997 29.499879
43.090241999999996 23.438421999999996 29.498618
43.15385 24.842515 29.503839
39.464284 22.905144 29.493738999999998
44.507437 25.490896999999997 29.502035
40.883063 36.853809 23.557457
40.819438999999996 35.449878999999996 23.549878999999997
43.090241999999996 35.338422 23.548617999999998
43.15385 36.742515 23.553838999999996
39.464284 34.805144 23.543739000000002
44.507437 37.390896999999995 23.552034999999997
40.883063 24.953809 17.607456999999997
40.819438999999996 23.549878999999997 17.599878999999998
43.090241999999996 23.438421999999996 17.598618
43.15385 24.842515 17.603839
39.464284 22.905144 17.593739
44.507437 25.490896999999997 17.602035
40.883063 30.903808999999995 29.507457000000002
40.819438999999996 29.499879 29.499879
43.090241999999996 29.388422 29.498618
43.15385 30.792515 29.503839
39.464284 28.855143999999996 29.493738999999998
44.507437 31.440897 29.502035
17.592301 12.166694999999997 24.953809
17.599878999999998 12.230318999999998 23.549878999999997
17.60114 9.959515999999997 23.438421999999996
17.595919 9.895907999999999 24.842515
17.606018999999996 13.585473999999998 22.905144
17.597723 8.542320999999998 25.490896999999997
29.492300999999998 12.166694999999997 19.003808999999997
29.499879 12.230318999999998 17.599878999999998
29.50114 9.959515999999997 17.488422
29.495919 9.895907999999999 18.892514999999996
29.506019000000002 13.585473999999998 16.955143999999997
29.497723 8.542320999999998 19.540897
17.592301 12.166694999999997 36.853809
17.599878999999998 12.230318999999998 35.449878999999996
17.60114 9.959515999999997 35.338422
17.595919 9.895907999999999 36.742515
17.606018999999996 13.585473999999998 34.805144
17.597723 8.542320999999998 37.390896999999995
29.492300999999998 12.166694999999997 30.903808999999995
29.499879 12.230318999999998 29.499879
29.50114 9.959515999999997 29.388422
29.495919 9.895907999999999 30.792515
29.506019000000002 13.585473999999998 28.855143999999996
29.497723 8.542320999999998 31.440897
29.492300999999998 40.883063 34.045949
29.499879 40.819438999999996 35.449878999999996
29.50114 43.090241999999996 35.561336
29.495919 43.15385 34.157243
29.506019000000002 39.464284 36.094614
29.497723 44.507437 33.508860999999996
29.492300999999998 40.883063 28.095948999999997
29.499879 40.819438999999996 29.499879
29.50114 43.090241999999996 29.611336
29.495919 43.15385 28.207243
29.506019000000002 39.464284 30.144613999999997
29.497723 44.507437 27.558861
29.492300999999998 40.883063 16.195949
29.499879 40.819438999999996 17.599878999999998
29.50114 43.090241999999996 17.711335999999996
29.495919 43.15385 16.307243
29.506019000000002 39.464284 18.244614
29.497723 44.507437 15.658860999999998
23.542301000000002 40.883063 22.145948999999998
23.549878999999997 40.819438999999996 23.549878999999997
23.551139999999997 43.090241999999996 23.661336
23.545918999999998 43.15385 22.257242999999995
23.556019 39.464284 24.194614
23.547722999999998 44.507437 21.608860999999997
32.474879 13.149217999999998 32.474879
32.474879 39.90054 20.574878999999996
32.474879 13.149217999999998 26.524879
20.574878999999996 39.468329000000004 39.468329000000004
39.468329000000004 20.574878999999996 39.468329000000004
20.574878999999996 39.468329000000004 13.581428999999998
26.524879 39.90054 20.574878999999996
32.474879 20.574878999999996 39.90054
39.468329000000004 39.468329000000004 32.474879
20.574878999999996 13.581428999999998 39.468329000000004
26.524879 13.581428999999998 39.468329000000004
39.468329000000004 20.574878999999996 13.581428999999998
26.524879 39.90054 32.474879
32.474879 13.581428999999998 13.581428999999998
13.581428999999998 39.468329000000004 26.524879
20.574878999999996 13.149217999999998 26.524879
32.474879 39.468329000000004 39.468329000000004
14.624878999999998 14.624878999999998 20.574878999999996
14.624878999999998 14.624878999999998 26.524879
14.624878999999998 14.624878999999998 32.474879
14.624878999999998 20.574878999999996 14.624878999999998
14.624878999999998 20.574878999999996 26.524879
14.624878999999998 20.574878999999996 32.474879
14.624878999999998 20.574878999999996 38.424879
14.624878999999998 26.524879 14.624878999999998
14.624878999999998 26.524879 20.574878999999996
14.624878999999998 26.524879 26.524879
14.624878999999998 26.524879 32.474879
14.624878999999998 26.524879 38.424879
14.624878999999998 32.474879 20.574878999999996
14.624878999999998 32.474879 26.524879
14.624878999999998 32.474879 32.474879
14.624878999999998 32.474879 38.424879
14.624878999999998 38.424879 32.474879
20.574878999999996 14.624878999999998 14.624878999999998
20.574878999999996 14.624878999999998 32.474879
20.574878999999996 20.574878999999996 14.624878999999998
20.574878999999996 20.574878999999996 20.574878999999996
20.574878999999996 20.574878999999996 26.524879
20.574878999999996 20.574878999999996 32.474879
20.574878999999996 20.574878999999996 38.424879
20.574878999999996 26.524879 14.624878999999998
20.574878999999996 26.524879 20.574878999999996
20.574878999999996 26.524879 26.524879
20.574878999999996 26.524879 32.474879
20.574878999999996 26.524879 38.424879
20.574878999999996 32.474879 14.624878999999998
20.574878999999996 32.474879 20.574878999999996
20.574878999999996 32.474879 26.524879
20.574878999999996 32.474879 32.474879
20.574878999999996 32.474879 38.424879
20.574878999999996 38.424879 20.574878999999996
20.574878999999996 38.424879 26.524879
20.574878999999996 38.424879 32.474879
26.524879 14.624878999999998 14.624878999999998
26.524879 14.624878999999998 20.574878999999996
26.524879 14.624878999999998 26.524879
26.524879 20.574878999999996 14.624878999999998
26.524879 20.574878999999996 20.574878999999996
26.524879 20.574878999999996 26.524879
26.524879 20.574878999999996 32.474879
26.524879 20.574878999999996 38.424879
26.524879 26.524879 14.624878999999998
26.524879 26.524879 20.574878999999996
26.524879 26.524879 26.524879
26.524879 26.524879 32.474879
26.524879 26.524879 38.424879
26.524879 32.474879 14.624878999999998
26.524879 32.474879 20.574878999999996
26.524879 32.474879 26.524879
26.524879 32.474879 32.474879
26.524879 32.474879 38.424879
26.524879 38.424879 14.624878999999998
26.524879 38.424879 26.524879
26.524879 38.424879 38.424879
32.474879 14.624878999999998 20.574878999999996
32.474879 14.624878999999998 38.424879
32.474879 20.574878999999996 14.624878999999998
32.474879 20.574878999999996 20.574878999999996
32.474879 20.574878999999996 26.524879
32.474879 20.574878999999996 32.474879
32.474879 26.524879 14.624878999999998
32.474879 26.524879 20.574878999999996
32.474879 26.524879 26.524879
32.474879 26.524879 32.474879
32.474879 26.524879 38.424879
32.474879 32.474879 14.624878999999998
32.474879 32.474879 20.574878999999996
32.474879 32.474879 26.524879
32.474879 32.474879 32.474879
32.474879 32.474879 38.424879
32.474879 38.424879 14.624878999999998
32.474879 38.424879 26.524879
32.474879 38.424879 32.474879
38.424879 14.624878999999998 20.574878999999996
38.424879 14.624878999999998 26.524879
38.424879 14.624878999999998 32.474879
38.424879 20.574878999999996 20.574878999999996
38.424879 20.574878999999996 26.524879
38.424879 20.574878999999996 32.474879
38.424879 26.524879 14.624878999999998
38.424879 26.524879 20.574878999999996
38.424879 26.524879 26.524879
38.424879 26.524879 32.474879
38.424879 26.524879 38.424879
38.424879 32.474879 14.624878999999998
38.424879 32.474879 20.574878999999996
38.424879 32.474879 26.524879
38.424879 32.474879 32.474879
38.424879 32.474879 38.424879
38.424879 38.424879 20.574878999999996
38.424879 38.424879 26.524879
35.45409 16.896322999999995 44.008302
35.438443 19.595633 39.964795
35.482499 15.300842999999999 38.576536999999995
35.448702 21.200336999999998 45.387011
35.45409 22.846322999999998 44.008302
35.438443 25.545633000000002 39.964795
35.482499 21.250842999999996 38.576536999999995
35.448702 27.150337 45.387011
29.504089999999998 34.746323 44.008302
29.488442999999997 37.445633 39.964795
29.532499 33.150842999999995 38.576536999999995
29.498702 39.050337 45.387011
29.504089999999998 28.796323 44.008302
29.488442999999997 31.495632999999998 39.964795
29.532499 27.200843 38.576536999999995
29.498702 33.100336999999996 45.387011
17.595667999999996 34.746323 9.041455999999998
17.611314999999998 37.445633 13.084962999999998
17.567259 33.150842999999995 14.473220999999999
17.601056 39.050337 7.662746999999998
17.595667999999996 28.796323 9.041455999999998
17.611314999999998 31.495632999999998 13.084962999999998
17.567259 27.200843 14.473220999999999
17.601056 33.100336999999996 7.662746999999998
35.445668 16.896322999999995 9.041455999999998
35.461315 19.595633 13.084962999999998
35.417259 15.300842999999999 14.473220999999999
35.451056 21.200336999999998 7.662746999999998
17.595667999999996 22.846322999999998 9.041455999999998
17.611314999999998 25.545633000000002 13.084962999999998
17.567259 21.250842999999996 14.473220999999999
17.601056 27.150337 7.662746999999998
9.041455999999998 28.796323 29.504089999999998
13.084962999999998 31.495632999999998 29.488442999999997
14.473220999999999 27.200843 29.532499
7.662746999999998 33.100336999999996 29.498702
9.041455999999998 34.746323 17.60409
13.084962999999998 37.445633 17.588442999999998
14.473220999999999 33.150842999999995 17.632498999999996
7.662746999999998 39.050337 17.598701999999996
9.041455999999998 28.796323 17.60409
13.084962999999998 31.495632999999998 17.588442999999998
14.473220999999999 27.200843 17.632498999999996
7.662746999999998 33.100336999999996 17.598701999999996
9.041455999999998 16.896322999999995 35.45409
13.084962999999998 19.595633 35.438443
14.473220999999999 15.300842999999999 35.482499
7.662746999999998 21.200336999999998 35.448702
44.008302 22.846322999999998 29.495668000000002
39.964795 25.545633000000002 29.511314999999996
38.576536999999995 21.250842999999996 29.467259
45.387011 27.150337 29.501056
44.008302 34.746323 23.545668
39.964795 37.445633 23.561315
38.576536999999995 33.150842999999995 23.517258999999996
45.387011 39.050337 23.551055999999996
44.008302 22.846322999999998 17.595667999999996
39.964795 25.545633000000002 17.611314999999998
38.576536999999995 21.250842999999996 17.567259
45.387011 27.150337 17.601056
44.008302 28.796323 29.495668000000002
39.964795 31.495632999999998 29.511314999999996
38.576536999999995 27.200843 29.467259
45.387011 33.100336999999996 29.501056
17.60409 9.041455999999998 22.846322999999998
17.588442999999998 13.084962999999998 25.545633000000002
17.632498999999996 14.473220999999999 21.250842999999996
17.598701999999996 7.662746999999998 27.150337
29.504089999999998 9.041455999999998 16.896322999999995
29.488442999999997 13.084962999999998 19.595633
29.532499 14.473220999999999 15.300842999999999
29.498702 7.662746999999998 21.200336999999998
17.60409 9.041455999999998 34.746323
17.588442999999998 13.084962999999998 37.445633
17.632498999999996 14.473220999999999 33.150842999999995
17.598701999999996 7.662746999999998 39.050337
29.504089999999998 9.041455999999998 28.796323
29.488442999999997 13.084962999999998 31.495632999999998
29.532499 14.473220999999999 27.200843
29.498702 7.662746999999998 33.100336999999996
29.504089999999998 44.008302 36.153434999999995
29.488442999999997 39.964795 33.454125
29.532499 38.576536999999995 37.748915
29.498702 45.387011 31.849421
29.504089999999998 44.008302 30.203435
29.488442999999997 39.964795 27.504125000000002
29.532499 38.576536999999995 31.798915
29.498702 45.387011 25.899420999999997
29.504089999999998 44.008302 18.303435
29.488442999999997 39.964795 15.604124999999998
29.532499 38.576536999999995 19.898914999999995
29.498702 45.387011 13.999420999999998
23.554090000000002 44.008302 24.253434999999996
23.538443 39.964795 21.554125
23.582499 38.576536999999995 25.848914999999998
23.548702 45.387011 19.949421
31.965151999999996 12.815296999999997 31.569173
33.514106999999996 12.815296999999997 32.486295
31.945377999999998 12.815296999999997 33.369167999999995
32.944646 14.999620999999998 33.309582
31.517120999999996 14.999620999999998 32.464357
32.962869999999995 14.999620999999998 31.650697
31.965151999999996 40.234461 21.480584999999998
33.514106999999996 40.234461 20.563463
31.945377999999998 40.234461 19.680589999999995
32.944646 38.050137 19.740175999999998
31.517120999999996 38.050137 20.585400999999997
32.962869999999995 38.050137 21.399060999999996
31.965151999999996 12.815296999999997 25.619172999999996
33.514106999999996 12.815296999999997 26.536294999999996
31.945377999999998 12.815296999999997 27.419168
32.944646 14.999620999999998 27.359581999999996
31.517120999999996 14.999620999999998 26.514356999999997
32.962869999999995 14.999620999999998 25.700696999999998
20.065151999999998 39.064015999999995 40.344877000000004
21.614106999999997 39.712519 39.696374
20.045378 40.336805 39.072089
21.044646 38.750121 37.569672
19.617120999999997 38.152456 38.167336
21.062869999999997 37.577112 38.742681
39.344015 19.669173 40.064878
40.439292 20.586295 38.969601
39.330033 21.469167999999996 40.07886
38.492072 21.409582 37.827721
37.482659 20.564357 38.837133
38.504957999999995 19.750696999999995 37.814834999999995
20.065151999999998 40.344877000000004 13.985741999999998
21.614106999999997 39.696374 13.337238999999999
20.045378 39.072089 12.712952999999999
21.044646 37.569672 14.299636999999997
19.617120999999997 38.167336 14.897301999999998
21.062869999999997 38.742681 15.472645999999997
26.015152 40.234461 21.480584999999998
27.564107 40.234461 20.563463
25.995378000000002 40.234461 19.680589999999995
26.994645999999996 38.050137 19.740175999999998
25.567121 38.050137 20.585400999999997
27.01287 38.050137 21.399060999999996
31.965151999999996 19.669173 40.234461
33.514106999999996 20.586295 40.234461
31.945377999999998 21.469167999999996 40.234461
32.944646 21.409582 38.050137
31.517120999999996 20.564357 38.050137
32.962869999999995 19.750696999999995 38.050137
39.902436 39.506457000000005 33.475741
40.218352 39.190541 31.731961
38.992551 40.416342 32.216935
37.977427999999996 38.342365 31.552478999999998
37.686278 38.633514 33.159555999999995
38.815982999999996 37.50381 32.712602
20.065151999999998 12.704880999999999 39.064015999999995
21.614106999999997 13.353383999999998 39.712519
20.045378 13.977668999999999 40.336805
21.044646 15.480085999999998 38.750121
19.617120999999997 14.882421999999998 38.152456
21.062869999999997 14.307076999999998 37.577112
26.015152 12.704880999999999 39.064015999999995
27.564107 13.353383999999998 39.712519
25.995378000000002 13.977668999999999 40.336805
26.994645999999996 15.480085999999998 38.750121
25.567121 14.882421999999998 38.152456
27.01287 14.307076999999998 37.577112
40.064878 19.669173 13.705742999999998
38.969601 20.586295 12.610465999999999
40.07886 21.469167999999996 13.719724999999999
37.827721 21.409582 14.557685999999999
38.837133 20.564357 15.567098999999999
37.814834999999995 19.750696999999995 14.544799999999999
26.015152 40.234461 33.380584999999996
27.564107 40.234461 32.463463
25.995378000000002 40.234461 31.58059
26.994645999999996 38.050137 31.640175999999997
25.567121 38.050137 32.485400999999996
27.01287 38.050137 33.299060999999995
31.965151999999996 13.985741999999998 12.704880999999999
33.514106999999996 13.337238999999999 13.353383999999998
31.945377999999998 12.712952999999999 13.977668999999999
32.944646 14.299636999999997 15.480085999999998
31.517120999999996 14.897301999999998 14.882421999999998
32.962869999999995 15.472645999999997 14.307076999999998
12.637594999999997 38.99673 26.804878000000002
13.870633999999999 40.229769 27.251652
13.527705999999998 39.886841 25.518107
15.542096999999998 38.812132 26.26683