3_train/240_cspbbr3_MA-INC_4_0.60\240_cspbbr3_MA-INC_4_0.60.xyz
1.0
47.637190000000004 0 0
0 47.637190000000004 0
0 0 47.637190000000004
Br C Cs H N O Pb 
180 411 61 546 111 120 64 
Cartesian
14.893595000000001 11.918595000000002 14.893595000000001
14.893595000000001 14.893595000000001 17.868595
14.893595000000001 11.918595000000002 20.843595
11.918595000000002 14.893595000000001 20.843595
14.893595000000001 14.893595000000001 23.818595000000002
11.918595000000002 14.893595000000001 26.793595000000003
14.893595000000001 14.893595000000001 29.768595000000005
14.893595000000001 20.843595 11.918595000000002
14.893595000000001 17.868595 14.893595000000001
14.893595000000001 20.843595 17.868595
14.893595000000001 17.868595 20.843595
14.893595000000001 20.843595 23.818595000000002
14.893595000000001 17.868595 26.793595000000003
11.918595000000002 20.843595 26.793595000000003
14.893595000000001 20.843595 29.768595000000005
14.893595000000001 17.868595 32.743595
14.893595000000001 26.793595000000003 11.918595000000002
14.893595000000001 23.818595000000002 14.893595000000001
14.893595000000001 26.793595000000003 17.868595
14.893595000000001 23.818595000000002 20.843595
14.893595000000001 26.793595000000003 23.818595000000002
14.893595000000001 23.818595000000002 26.793595000000003
11.918595000000002 26.793595000000003 26.793595000000003
14.893595000000001 26.793595000000003 29.768595000000005
14.893595000000001 23.818595000000002 32.743595
14.893595000000001 29.768595000000005 14.893595000000001
14.893595000000001 32.743595 17.868595
14.893595000000001 29.768595000000005 20.843595
14.893595000000001 32.743595 23.818595000000002
14.893595000000001 29.768595000000005 26.793595000000003
11.918595000000002 32.743595 26.793595000000003
14.893595000000001 32.743595 29.768595000000005
14.893595000000001 29.768595000000005 32.743595
11.918595000000002 32.743595 32.743595
14.893595000000001 35.718595 32.743595
17.868595 14.893595000000001 14.893595000000001
20.843595 14.893595000000001 17.868595
17.868595 14.893595000000001 20.843595
20.843595 14.893595000000001 23.818595000000002
17.868595 14.893595000000001 26.793595000000003
20.843595 14.893595000000001 29.768595000000005
20.843595 11.918595000000002 32.743595
17.868595 14.893595000000001 32.743595
20.843595 14.893595000000001 35.718595
20.843595 17.868595 14.893595000000001
17.868595 20.843595 14.893595000000001
20.843595 20.843595 17.868595
20.843595 17.868595 20.843595
17.868595 20.843595 20.843595
20.843595 20.843595 23.818595000000002
20.843595 17.868595 26.793595000000003
17.868595 20.843595 26.793595000000003
20.843595 20.843595 29.768595000000005
20.843595 17.868595 32.743595
17.868595 20.843595 32.743595
20.843595 26.793595000000003 11.918595000000002
20.843595 23.818595000000002 14.893595000000001
17.868595 26.793595000000003 14.893595000000001
20.843595 26.793595000000003 17.868595
20.843595 23.818595000000002 20.843595
17.868595 26.793595000000003 20.843595
20.843595 26.793595000000003 23.818595000000002
20.843595 23.818595000000002 26.793595000000003
17.868595 26.793595000000003 26.793595000000003
20.843595 26.793595000000003 29.768595000000005
20.843595 23.818595000000002 32.743595
17.868595 26.793595000000003 32.743595
20.843595 26.793595000000003 35.718595
20.843595 29.768595000000005 14.893595000000001
17.868595 32.743595 14.893595000000001
20.843595 32.743595 17.868595
20.843595 29.768595000000005 20.843595
17.868595 32.743595 20.843595
20.843595 32.743595 23.818595000000002
20.843595 29.768595000000005 26.793595000000003
17.868595 32.743595 26.793595000000003
20.843595 32.743595 29.768595000000005
20.843595 29.768595000000005 32.743595
17.868595 32.743595 32.743595
20.843595 32.743595 35.718595
20.843595 35.718595 14.893595000000001
20.843595 35.718595 26.793595000000003
23.818595000000002 14.893595000000001 14.893595000000001
26.793595000000003 14.893595000000001 17.868595
23.818595000000002 14.893595000000001 20.843595
26.793595000000003 14.893595000000001 23.818595000000002
23.818595000000002 14.893595000000001 26.793595000000003
26.793595000000003 14.893595000000001 29.768595000000005
23.818595000000002 14.893595000000001 32.743595
26.793595000000003 17.868595 14.893595000000001
23.818595000000002 20.843595 14.893595000000001
26.793595000000003 20.843595 17.868595
26.793595000000003 17.868595 20.843595
23.818595000000002 20.843595 20.843595
26.793595000000003 20.843595 23.818595000000002
26.793595000000003 17.868595 26.793595000000003
23.818595000000002 20.843595 26.793595000000003
26.793595000000003 20.843595 29.768595000000005
26.793595000000003 17.868595 32.743595
23.818595000000002 20.843595 32.743595
26.793595000000003 26.793595000000003 11.918595000000002
26.793595000000003 23.818595000000002 14.893595000000001
23.818595000000002 26.793595000000003 14.893595000000001
26.793595000000003 26.793595000000003 17.868595
26.793595000000003 23.818595000000002 20.843595
23.818595000000002 26.793595000000003 20.843595
26.793595000000003 26.793595000000003 23.818595000000002
26.793595000000003 23.818595000000002 26.793595000000003
23.818595000000002 26.793595000000003 26.793595000000003
26.793595000000003 26.793595000000003 29.768595000000005
26.793595000000003 23.818595000000002 32.743595
23.818595000000002 26.793595000000003 32.743595
26.793595000000003 26.793595000000003 35.718595
26.793595000000003 29.768595000000005 14.893595000000001
23.818595000000002 32.743595 14.893595000000001
26.793595000000003 32.743595 17.868595
26.793595000000003 29.768595000000005 20.843595
23.818595000000002 32.743595 20.843595
26.793595000000003 32.743595 23.818595000000002
26.793595000000003 29.768595000000005 26.793595000000003
23.818595000000002 32.743595 26.793595000000003
26.793595000000003 32.743595 29.768595000000005
26.793595000000003 29.768595000000005 32.743595
23.818595000000002 32.743595 32.743595
26.793595000000003 32.743595 35.718595
26.793595000000003 35.718595 14.893595000000001
26.793595000000003 35.718595 26.793595000000003
32.743595 11.918595000000002 14.893595000000001
29.768595000000005 14.893595000000001 14.893595000000001
32.743595 14.893595000000001 17.868595
29.768595000000005 14.893595000000001 20.843595
32.743595 14.893595000000001 23.818595000000002
32.743595 11.918595000000002 26.793595000000003
29.768595000000005 14.893595000000001 26.793595000000003
32.743595 14.893595000000001 29.768595000000005
32.743595 11.918595000000002 32.743595
29.768595000000005 14.893595000000001 32.743595
32.743595 20.843595 11.918595000000002
32.743595 17.868595 14.893595000000001
29.768595000000005 20.843595 14.893595000000001
32.743595 20.843595 17.868595
32.743595 17.868595 20.843595
29.768595000000005 20.843595 20.843595
32.743595 20.843595 23.818595000000002
32.743595 17.868595 26.793595000000003
29.768595000000005 20.843595 26.793595000000003
32.743595 20.843595 29.768595000000005
32.743595 17.868595 32.743595
29.768595000000005 20.843595 32.743595
32.743595 23.818595000000002 14.893595000000001
29.768595000000005 26.793595000000003 14.893595000000001
32.743595 26.793595000000003 17.868595
32.743595 23.818595000000002 20.843595
29.768595000000005 26.793595000000003 20.843595
32.743595 26.793595000000003 23.818595000000002
32.743595 23.818595000000002 26.793595000000003
29.768595000000005 26.793595000000003 26.793595000000003
32.743595 26.793595000000003 29.768595000000005
32.743595 23.818595000000002 32.743595
29.768595000000005 26.793595000000003 32.743595
32.743595 32.743595 11.918595000000002
32.743595 29.768595000000005 14.893595000000001
29.768595000000005 32.743595 14.893595000000001
32.743595 32.743595 17.868595
32.743595 29.768595000000005 20.843595
29.768595000000005 32.743595 20.843595
32.743595 32.743595 23.818595000000002
32.743595 29.768595000000005 26.793595000000003
29.768595000000005 32.743595 26.793595000000003
32.743595 32.743595 29.768595000000005
32.743595 29.768595000000005 32.743595
29.768595000000005 32.743595 32.743595
32.743595 32.743595 35.718595
32.743595 35.718595 20.843595
35.718595 14.893595000000001 26.793595000000003
35.718595 20.843595 14.893595000000001
35.718595 20.843595 32.743595
35.718595 32.743595 14.893595000000001
35.718595 32.743595 20.843595
35.718595 32.743595 26.793595000000003
15.952037000000002 21.270432 39.45812300000001
16.008134000000002 21.29605 38.052737
14.893595000000001 20.843595 37.361436000000005
13.832999000000001 20.408586 39.45536500000001
14.893595000000001 20.843595 35.718595
13.778362000000001 20.389214000000003 38.05026900000001
15.817190000000002 32.073177 39.45812300000001
15.868679000000002 32.039235000000005 38.052737
14.893595000000001 32.743595 37.361436000000005
13.961931000000002 33.411500000000004 39.45536500000001
14.893595000000001 32.743595 35.718595
13.916510000000002 33.447521 38.05026900000001
26.141349000000005 15.830112000000002 39.45812300000001
26.103861000000002 15.879079000000003 38.052737
26.793595000000003 14.893595000000001 37.361436000000005
27.454287 13.956802000000001 39.45536500000001
26.793595000000003 14.893595000000001 35.718595
27.485362000000002 13.907865000000001 38.05026900000001
32.117545 21.797823 39.45812300000001
32.081427000000005 21.847809000000005 38.052737
32.743595 20.843595 37.361436000000005
33.378080000000004 19.888857 39.45536500000001
32.743595 20.843595 35.718595
33.407787 19.839078 38.05026900000001
14.592513000000002 27.89443 39.45812300000001
14.573580000000002 27.953122 38.052737
14.893595000000001 26.793595000000003 37.361436000000005
15.202544000000001 25.689672 39.45536500000001
14.893595000000001 26.793595000000003 35.718595
15.215442000000001 25.633155000000002 38.05026900000001
33.717046 14.297875000000001 39.45812300000001
33.771044 14.268087000000001 38.052737
32.743595 14.893595000000001 37.361436000000005
31.762298 15.486176000000002 39.45536500000001
32.743595 14.893595000000001 35.718595
31.714186000000005 15.518513000000002 38.05026900000001
16.019304 15.081395000000002 39.45812300000001
16.079614 15.094273000000001 38.052737
14.893595000000001 14.893595000000001 37.361436000000005
13.764016000000002 14.698282 39.45536500000001
14.893595000000001 14.893595000000001 35.718595
13.706482000000001 14.691187000000001 38.05026900000001
32.829516 25.655567000000005 39.45812300000001
32.836924 25.594345000000004 38.052737
32.743595 26.793595000000003 37.361436000000005
32.65054 27.936152 39.45536500000001
32.743595 26.793595000000003 35.718595
32.648641000000005 27.99409 38.05026900000001
19.936427000000002 21.536079 39.45812300000001
19.885771000000002 21.571252 38.052737
20.843595 20.843595 37.361436000000005
21.75889 20.153428 39.45536500000001
20.843595 20.843595 35.718595
21.803429 20.116324000000002 38.05026900000001
25.665079000000006 21.013715000000005 39.45812300000001
25.603746 21.020151000000006 38.052737
26.793595000000003 20.843595 37.361436000000005
27.928118000000005 20.679419000000003 39.45536500000001
26.793595000000003 20.843595 35.718595
27.98502 20.668345000000002 38.05026900000001
26.298499 15.921880000000002 8.179067000000002
26.274277000000005 15.978593000000002 9.584453000000002
26.793595000000003 14.893595000000001 10.275754000000003
27.284780000000005 13.857819000000001 8.181825000000002
26.793595000000003 14.893595000000001 11.918595000000002
27.312129000000006 13.806706000000002 9.586921000000002
21.605466 31.893864999999998 8.179067000000002
21.644524000000004 31.846141000000003 9.584453000000002
20.843595 32.743595 10.275754000000003
20.083394000000002 33.60161 8.181825000000002
20.843595 32.743595 11.918595000000002
20.042892000000002 33.643084 9.586921000000002
13.890401000000002 33.287738000000004 8.179067000000002
13.837572000000002 33.319553 9.584453000000002
14.893595000000001 32.743595 10.275754000000003
15.898001000000002 32.191089 8.181825000000002
14.893595000000001 32.743595 11.918595000000002
15.950089000000002 32.165644 9.586921000000002
26.403095 19.771215 8.179067000000002
26.379405000000006 19.714277000000003 9.584453000000002
26.793595000000003 20.843595 10.275754000000003
27.192189 21.918406000000004 8.181825000000002
26.793595000000003 20.843595 11.918595000000002
27.209686000000005 21.973672 9.586921000000002
32.346002 27.863365 8.179067000000002
32.327143 27.922081 9.584453000000002
32.743595 26.793595000000003 10.275754000000003
33.1366 25.716728000000003 8.181825000000002
32.743595 26.793595000000003 11.918595000000002
33.159091000000004 25.663299000000002 9.586921000000002
31.605071000000002 14.972669000000002 8.179067000000002
31.543805 14.979709000000001 9.584453000000002
32.743595 14.893595000000001 10.275754000000003
33.886691 14.807414000000001 8.181825000000002
32.743595 14.893595000000001 11.918595000000002
33.94464 14.805864000000001 9.586921000000002
27.927682000000004 32.615781 8.179067000000002
27.988590000000002 32.606121 9.584453000000002
26.793595000000003 32.743595 10.275754000000003
25.655245 32.878706 8.181825000000002
26.793595000000003 32.743595 11.918595000000002
25.597416000000003 32.882739 9.586921000000002
20.765542000000003 19.705001000000003 8.179067000000002
20.758557000000003 19.643728000000003 9.584453000000002
20.843595 20.843595 10.275754000000003
20.928751000000005 21.986768000000005 8.181825000000002
20.843595 20.843595 11.918595000000002
20.930249000000003 22.044718000000003 9.586921000000002
15.519233000000002 13.939097000000002 8.179067000000002
15.550682000000002 13.886049000000002 9.584453000000002
14.893595000000001 14.893595000000001 10.275754000000003
14.270852000000001 15.856032 8.181825000000002
14.893595000000001 14.893595000000001 11.918595000000002
14.237037000000003 15.903118000000001 9.586921000000002
21.321028000000005 15.930199000000002 8.179067000000002
21.349323000000005 15.984994000000002 9.584453000000002
20.843595 14.893595000000001 10.275754000000003
20.357896000000004 13.855235000000002 8.181825000000002
20.843595 14.893595000000001 11.918595000000002
20.335909 13.801596000000002 9.586921000000002
8.179067000000002 27.248265000000004 15.940383000000002
9.584453000000002 27.275357 15.995783000000001
10.275754000000003 26.793595000000003 14.893595000000001
8.181825000000002 26.330699000000003 13.844871000000001
11.918595000000002 26.793595000000003 14.893595000000001
9.586921000000002 26.309889000000005 13.790765000000002
8.179067000000002 33.764767 15.403199000000003
9.584453000000002 33.821132 15.428222000000002
10.275754000000003 32.743595 14.893595000000001
8.181825000000002 31.714877 14.387795000000002
11.918595000000002 32.743595 14.893595000000001
9.586921000000002 31.664156 14.359725000000001
8.179067000000002 19.748378000000002 32.422676
9.584453000000002 19.688476 32.408018
10.275754000000003 20.843595 32.743595
8.181825000000002 21.945566 33.059435
11.918595000000002 20.843595 32.743595
9.586921000000002 22.000452000000003 33.07809
8.179067000000002 20.126477 19.955771000000002
9.584453000000002 20.085605 19.909591
10.275754000000003 20.843595 20.843595
8.181825000000002 21.569157000000004 21.731094000000006
11.918595000000002 20.843595 20.843595
9.586921000000002 21.603629000000005 21.777701
8.179067000000002 13.795676000000002 33.055144
9.584453000000002 13.737167000000001 33.074634
10.275754000000003 14.893595000000001 32.743595
8.181825000000002 15.994527000000001 32.424151
11.918595000000002 14.893595000000001 32.743595
9.586921000000002 16.050918000000003 32.410715
8.179067000000002 26.370773 21.903647
9.584453000000002 26.350529 21.961899000000003
10.275754000000003 26.793595000000003 20.843595
8.181825000000002 27.211998 19.776340000000005
11.918595000000002 26.793595000000003 20.843595
9.586921000000002 27.235748 19.723458
8.179067000000002 15.882995000000001 15.462434000000002
9.584453000000002 15.937788000000001 15.490732000000001
10.275754000000003 14.893595000000001 14.893595000000001
8.181825000000002 13.896438000000002 14.328109000000001
11.918595000000002 14.893595000000001 14.893595000000001
9.586921000000002 13.847459000000002 14.297102
8.179067000000002 32.014708 21.721782000000005
9.584453000000002 31.9775 21.770962000000004
10.275754000000003 32.743595 20.843595
8.181825000000002 33.470497 19.957193000000004
11.918595000000002 32.743595 20.843595
9.586921000000002 33.509386 19.914203
8.179067000000002 20.472906000000002 13.814207000000001
9.584453000000002 20.450268 13.756843000000002
10.275754000000003 20.843595 14.893595000000001
8.181825000000002 21.222331000000004 15.975563000000003
11.918595000000002 20.843595 14.893595000000001
9.586921000000002 21.238808000000006 16.031141
8.179067000000002 26.742380000000004 31.603478000000003
9.584453000000002 26.73684 31.542058000000004
10.275754000000003 26.793595000000003 32.743595
8.181825000000002 26.851803000000004 33.888456000000005
11.918595000000002 26.793595000000003 32.743595
9.586921000000002 26.851936000000002 33.946426
39.45812300000001 26.468133 31.649719000000005
38.052737 26.453227000000005 31.589878
37.361436000000005 26.793595000000003 32.743595
39.45536500000001 27.114006000000003 33.844246
35.718595 26.793595000000003 32.743595
38.05026900000001 27.132888 33.899054
39.45812300000001 27.368498000000002 21.829483000000003
38.052737 27.397132 21.884102000000006
37.361436000000005 26.793595000000003 20.843595
39.45536500000001 26.221997 19.84993
35.718595 26.793595000000003 20.843595
38.05026900000001 26.190689 19.801141
39.45812300000001 32.537212000000004 33.866046000000004
38.052737 32.523339 33.926134000000005
37.361436000000005 32.743595 32.743595
39.45536500000001 32.957554 31.617399
35.718595 32.743595 32.743595
38.05026900000001 32.9656 31.559991000000004
39.45812300000001 27.934552000000004 14.867028000000001
38.052737 27.996207 14.868371000000002
37.361436000000005 26.793595000000003 14.893595000000001
39.45536500000001 25.647428000000005 14.913508000000002
35.718595 26.793595000000003 14.893595000000001
38.05026900000001 25.589584000000002 14.917324000000002
39.45812300000001 21.585373000000004 27.660921000000002
38.052737 21.623303 27.709546000000003
37.361436000000005 20.843595 26.793595000000003
39.45536500000001 20.103680000000004 25.918026000000005
35.718595 20.843595 26.793595000000003
38.05026900000001 20.06416 25.875615000000003
39.45812300000001 13.920090000000002 14.297964000000002
38.052737 13.868989000000001 14.263441000000002
37.361436000000005 14.893595000000001 14.893595000000001
39.45536500000001 15.867876 15.497641000000002
35.718595 14.893595000000001 14.893595000000001
38.05026900000001 15.918568000000002 15.525763000000001
39.45812300000001 26.873393 25.655122000000006
38.052737 26.880471 25.59386
37.361436000000005 26.793595000000003 26.793595000000003
39.45536500000001 26.706687000000002 27.936636
35.718595 26.793595000000003 26.793595000000003
38.05026900000001 26.7051 27.994584000000003
39.45812300000001 14.119889000000002 31.904626
38.052737 14.080166000000002 31.857455
37.361436000000005 14.893595000000001 32.743595
39.45536500000001 15.665748000000002 33.59087
35.718595 14.893595000000001 32.743595
38.05026900000001 15.706826000000001 33.631773
39.45812300000001 21.940267000000006 20.527685000000005
38.052737 22.000236 20.513301000000006
37.361436000000005 20.843595 20.843595
39.45536500000001 19.740192 21.154395
35.718595 20.843595 20.843595
38.05026900000001 19.685221 21.172799000000005
39.45812300000001 14.230073000000003 19.915033
38.052737 14.196516 19.863293
37.361436000000005 14.893595000000001 20.843595
39.45536500000001 15.554544000000002 21.780207000000004
35.718595 14.893595000000001 20.843595
38.05026900000001 15.590225000000002 21.825894000000005
14.004340000000001 8.179067000000002 33.458938
13.954596000000002 9.584453000000002 33.495388
14.893595000000001 10.275754000000003 32.743595
15.791033 8.181825000000002 32.030363
14.893595000000001 11.918595000000002 32.743595
15.834614000000002 9.586921000000002 31.992137
20.913046 8.179067000000002 25.654444000000005
20.919568000000005 9.584453000000002 25.59312
20.843595 10.275754000000003 26.793595000000003
20.767075000000006 8.181825000000002 27.937378000000002
20.843595 11.918595000000002 26.793595000000003
20.766015000000003 9.586921000000002 27.995338000000004
25.653375000000004 8.179067000000002 26.744736000000003
25.591943 9.584453000000002 26.739323000000006
26.793595000000003 10.275754000000003 26.793595000000003
27.938574000000003 8.181825000000002 26.849437
26.793595000000003 11.918595000000002 26.793595000000003
27.996544 9.586921000000002 26.849450000000004
26.568954000000005 8.179067000000002 13.774656000000002
26.559551 9.584453000000002 13.713707000000001
26.793595000000003 10.275754000000003 14.893595000000001
27.012590000000003 8.181825000000002 16.018822
26.793595000000003 11.918595000000002 14.893595000000001
27.026411000000003 9.586921000000002 16.075120000000002
21.042364 8.179067000000002 13.769771000000002
21.05583 9.584453000000002 13.709590000000002
20.843595 10.275754000000003 14.893595000000001
20.637276 8.181825000000002 16.021215
20.843595 11.918595000000002 14.893595000000001
20.629620000000003 9.586921000000002 16.078677
26.787039 8.179067000000002 33.884843000000004
26.783907 9.584453000000002 33.946433
26.793595000000003 10.275754000000003 32.743595
26.806953 8.181825000000002 31.597333
26.793595000000003 11.918595000000002 32.743595
26.804817 9.586921000000002 31.539403
27.573641000000002 8.179067000000002 21.676672000000003
27.613721000000005 9.584453000000002 21.723541000000004
26.793595000000003 10.275754000000003 20.843595
26.015039 8.181825000000002 20.002200000000002
26.793595000000003 11.918595000000002 20.843595
25.973652 9.586921000000002 19.96161
19.828102 8.179067000000002 21.364425000000004
19.772017 9.584453000000002 21.390068
20.843595 10.275754000000003 20.843595
21.866675 8.181825000000002 20.326486000000003
20.843595 11.918595000000002 20.843595
21.917083000000005 9.586921000000002 20.297858
31.864875000000005 8.179067000000002 21.571839000000004
31.815668000000002 9.584453000000002 21.609012
32.743595 10.275754000000003 20.843595
33.630528 8.181825000000002 20.117341000000003
32.743595 11.918595000000002 20.843595
33.673547 9.586921000000002 20.078484000000003
15.615455000000003 8.179067000000002 25.909622000000006
15.656573000000002 9.584453000000002 25.863662000000005
14.893595000000001 10.275754000000003 26.793595000000003
14.163293000000001 8.181825000000002 27.677198000000004
14.893595000000001 11.918595000000002 26.793595000000003
14.128572000000002 9.586921000000002 27.723619
27.933114000000003 39.45812300000001 20.780466000000004
27.994473 38.052737 20.774284
26.793595000000003 37.361436000000005 20.843595
25.649405 39.45536500000001 20.913767
26.793595000000003 35.718595 20.843595
25.591440000000006 38.05026900000001 20.914506000000003
15.499326000000002 39.45812300000001 19.876341000000004
15.529669000000002 38.052737 19.822653000000003
14.893595000000001 37.361436000000005 20.843595
14.290923000000001 39.45536500000001 21.818727000000003
14.893595000000001 35.718595 20.843595
14.258091000000002 38.05026900000001 21.866503
33.041639 39.45812300000001 13.791933000000002
33.055046000000004 38.052737 13.731739000000001
32.743595 37.361436000000005 14.893595000000001
32.45077 39.45536500000001 16.001904000000003
32.743595 35.718595 14.893595000000001
32.433262 38.05026900000001 16.057167
26.776284000000004 39.45812300000001 31.60246
26.772572000000004 38.052737 31.540902000000003
26.793595000000003 37.361436000000005 32.743595
26.817755000000005 39.45536500000001 33.88968
26.793595000000003 35.718595 32.743595
26.816166000000003 38.05026900000001 33.947628
32.285377000000004 39.45812300000001 25.748356
32.258097 38.052737 25.693048000000005
32.743595 37.361436000000005 26.793595000000003
33.210046 39.45536500000001 27.840743000000003
32.743595 35.718595 26.793595000000003
33.231039 38.05026900000001 27.894778000000002
20.054684 39.45812300000001 21.668282000000005
20.014105 38.052737 21.71472
20.843595 37.361436000000005 20.843595
21.631105000000005 39.45536500000001 20.010574000000002
20.843595 35.718595 20.843595
21.672924000000002 38.05026900000001 19.970429000000003
15.294218000000003 39.45812300000001 27.862235000000005
15.318445000000002 38.052737 27.918946
14.893595000000001 37.361436000000005 26.793595000000003
14.484856000000002 39.45536500000001 25.722601000000004
14.893595000000001 35.718595 26.793595000000003
14.466837000000002 38.05026900000001 25.667503000000004
19.744767000000003 39.45812300000001 33.051922000000005
19.686201000000004 38.052737 33.071241
20.843595 37.361436000000005 32.743595
21.945459 39.45536500000001 32.427381000000004
20.843595 35.718595 32.743595
22.001889000000006 38.05026900000001 32.414111
32.699024 39.45812300000001 33.883991
32.699394 38.052737 33.945659
32.743595 37.361436000000005 32.743595
32.781595 39.45536500000001 31.597885000000005
32.743595 35.718595 32.743595
32.786324 38.05026900000001 31.540109
16.033328000000004 39.45812300000001 14.952738000000002
16.094996000000002 38.052737 14.953157000000003
14.893595000000001 37.361436000000005 14.893595000000001
13.748464000000002 39.45536500000001 14.840954000000002
14.893595000000001 35.718595 14.893595000000001
13.690753 38.05026900000001 14.835487000000002
17.868595 37.194256 17.868595
29.768595000000005 36.76204500000001 36.76204500000001
36.76204500000001 29.768595000000005 36.76204500000001
17.868595 23.818595000000002 10.442934000000001
29.768595000000005 10.875145000000002 10.875145000000002
36.76204500000001 10.875145000000002 17.868595
17.868595 36.76204500000001 10.875145000000002
10.442934000000001 17.868595 23.818595000000002
23.818595000000002 37.194256 17.868595
29.768595000000005 36.76204500000001 10.875145000000002
23.818595000000002 36.76204500000001 10.875145000000002
10.875145000000002 10.875145000000002 17.868595
17.868595 29.768595000000005 10.442934000000001
23.818595000000002 37.194256 29.768595000000005
17.868595 29.768595000000005 37.194256
10.442934000000001 17.868595 17.868595
36.76204500000001 10.875145000000002 29.768595000000005
17.868595 23.818595000000002 37.194256
17.868595 37.194256 29.768595000000005
10.875145000000002 17.868595 10.875145000000002
37.194256 29.768595000000005 17.868595
29.768595000000005 23.818595000000002 37.194256
10.875145000000002 29.768595000000005 36.76204500000001
29.768595000000005 10.442934000000001 17.868595
36.76204500000001 17.868595 36.76204500000001
23.818595000000002 23.818595000000002 10.442934000000001
29.768595000000005 17.868595 37.194256
23.818595000000002 17.868595 37.194256
10.875145000000002 23.818595000000002 36.76204500000001
36.76204500000001 23.818595000000002 36.76204500000001
23.818595000000002 10.442934000000001 17.868595
17.868595 10.875145000000002 36.76204500000001
29.768595000000005 10.442934000000001 23.818595000000002
10.442934000000001 23.818595000000002 17.868595
10.875145000000002 36.76204500000001 17.868595
36.76204500000001 36.76204500000001 29.768595000000005
10.875145000000002 36.76204500000001 29.768595000000005
36.76204500000001 36.76204500000001 17.868595
29.768595000000005 29.768595000000005 37.194256
37.194256 17.868595 17.868595
37.194256 29.768595000000005 29.768595000000005
17.868595 17.868595 10.442934000000001
23.818595000000002 37.194256 23.818595000000002
10.875145000000002 23.818595000000002 10.875145000000002
10.442934000000001 29.768595000000005 17.868595
29.768595000000005 10.442934000000001 29.768595000000005
17.868595 10.442934000000001 29.768595000000005
17.868595 10.442934000000001 23.818595000000002
17.868595 10.442934000000001 17.868595
29.768595000000005 23.818595000000002 10.442934000000001
37.194256 17.868595 23.818595000000002
11.918595000000002 11.918595000000002 23.818595000000002
11.918595000000002 11.918595000000002 29.768595000000005
11.918595000000002 17.868595 29.768595000000005
11.918595000000002 17.868595 35.718595
11.918595000000002 23.818595000000002 23.818595000000002
11.918595000000002 23.818595000000002 29.768595000000005
11.918595000000002 29.768595000000005 11.918595000000002
11.918595000000002 29.768595000000005 23.818595000000002
11.918595000000002 29.768595000000005 29.768595000000005
17.868595 11.918595000000002 11.918595000000002
17.868595 17.868595 17.868595
17.868595 17.868595 23.818595000000002
17.868595 17.868595 29.768595000000005
17.868595 17.868595 35.718595
17.868595 23.818595000000002 17.868595
17.868595 23.818595000000002 23.818595000000002
17.868595 23.818595000000002 29.768595000000005
17.868595 29.768595000000005 17.868595
17.868595 29.768595000000005 23.818595000000002
17.868595 29.768595000000005 29.768595000000005
17.868595 35.718595 23.818595000000002
17.868595 35.718595 35.718595
23.818595000000002 11.918595000000002 11.918595000000002
23.818595000000002 11.918595000000002 29.768595000000005
23.818595000000002 17.868595 11.918595000000002
23.818595000000002 17.868595 17.868595
23.818595000000002 17.868595 23.818595000000002
23.818595000000002 17.868595 29.768595000000005
23.818595000000002 23.818595000000002 17.868595
23.818595000000002 23.818595000000002 23.818595000000002
23.818595000000002 23.818595000000002 29.768595000000005
23.818595000000002 23.818595000000002 35.718595
23.818595000000002 29.768595000000005 11.918595000000002
23.818595000000002 29.768595000000005 17.868595
23.818595000000002 29.768595000000005 23.818595000000002
23.818595000000002 29.768595000000005 29.768595000000005