143_cspbbr3_4\143_cspbbr3_4.xyz
1.0
44.782262 0 0
0 44.782262 0
0 0 44.782262
Br Cs Pb 
240 112 64 
Cartesian
22.549755 25.307135 19.519955999999997
25.532714 22.545828 19.453491
25.229895 25.466389 16.577456
13.610505 22.528812 25.29074
25.55934 22.292223 13.340382
25.357887 25.084979999999998 10.465219
13.330183 16.530586 13.566408
25.408963 19.34018 34.457764999999995
22.447677 25.35869 13.684017999999998
13.282846 19.522882 10.650253
25.215263 25.533421999999998 22.513948
34.39059399999999 31.145884 31.237728
25.497632999999997 22.53624 25.394147999999998
22.499543999999997 25.531149 25.514824
31.448007 28.488373 19.555694
13.274828999999999 13.503139 34.148741
25.252429 25.492544 28.475942
25.177322 22.412237 31.299919
22.193158999999998 25.379603 31.455963999999998
31.42167 31.468821 16.267376
25.446968000000002 25.122432999999997 34.379728
10.583169 13.275675999999999 31.444101
13.508099 10.69775 31.252717999999998
25.522375 31.43726 10.609902
25.489616 28.219178 13.701041
28.222258999999998 31.429666 19.579046
31.316299 31.524033 22.502954
25.485894 16.232514 31.431171
22.340538 31.137242999999998 13.390495
13.669728 25.298572 22.290221
25.21073 10.34282 19.547343
22.18068 13.63312 19.344218
28.49083 31.432941 31.410633999999998
34.283874 31.406402 25.532128
25.619902999999997 13.501095 22.527382
25.100526 10.454258999999999 25.492281000000002
22.391685 13.261267 25.344322000000002
31.189211 28.200119 31.502909
10.390498 19.353334 19.562411
25.194343999999997 13.576576 28.308993
25.405164 10.394067999999999 31.5874
22.263771000000002 13.597976 31.5414
31.471272 31.183201 28.422342
22.492541999999997 19.471391999999998 31.481727
25.497698 13.522179 34.42393799999999
13.704234 19.36206 16.407930999999998
25.240618 19.275602 10.669179999999999
25.498717 16.210570999999998 13.369342
22.431237999999997 19.233549999999997 13.298172999999998
25.438844 19.580537 16.431293
25.194349 16.307903 19.514228999999997
22.484021 19.574248 19.338402
28.312821 31.22478 25.161728999999998
25.457801999999997 19.544822 22.262257
25.094068 16.44252 25.475379999999998
22.372266999999997 19.599973 25.235774
31.466116 28.205036 25.204708999999998
10.337225 19.327310999999998 13.246412
25.50144 19.451002 28.491567
13.294563 16.245086999999998 19.307104
13.265616 13.612608 28.507887999999998
28.480211999999998 31.466579 13.337898
25.209158 28.362113 19.166681
31.157784 10.354699 31.305369
28.245321999999998 13.611460999999998 31.399466999999998
31.426205 13.688557 34.41550099999999
28.304645 25.536376999999998 25.602579
13.358835 13.730032 16.461676999999998
31.462039 19.333281 10.571988
31.407214 16.589578 13.517686999999999
28.153854 19.605964 13.436561
31.104997 22.252153 25.404268
31.141721 19.297041 16.293882
31.340466 16.265023 19.500127
28.511788 19.233259999999998 19.38376
31.471502 25.424007999999997 22.564023
31.437763 13.534984 28.541837
31.121785 19.329793 22.422712999999998
28.228856 19.241733999999997 25.487424999999998
10.539209999999999 13.245254 13.365751
13.679863999999998 10.550664999999999 13.656479
31.504269999999998 19.418285 28.111881999999998
31.130083 16.300731 31.385129
28.313489999999998 19.664792 31.209543
31.209391 19.67218 34.35633899999999
28.212792 25.242175 19.57948
13.576830999999999 13.317991 10.25832
31.217434 25.185140999999998 10.629641999999999
31.310729 22.539320999999997 13.586046999999999
28.513983 25.181438 13.442860999999999
31.455004 22.321152 19.265341
31.446258999999998 16.36406 25.112215
13.580259 10.253371999999999 19.327051
10.349713999999999 13.615141999999999 19.277297
28.224622999999998 13.615953999999999 25.269959
22.533393 31.486566 19.453092
25.291873 31.230024 22.207724
25.282614 28.183111 25.135949
22.182835999999998 31.251811 25.177121
31.489648 28.436704 13.430999
10.383948 13.358884999999999 25.186363
25.519344 31.17589 28.387477999999998
25.515781999999998 28.227327 31.220883999999998
22.575717 31.263627 31.332892
31.145478 31.254424999999998 10.443353
25.251617999999997 31.109389 34.289857999999995
13.439269999999999 10.204733999999998 25.365016999999998
25.413793000000002 34.066058 13.549807999999999
25.43009 34.205034 19.191931
31.271682 25.357310000000002 34.08219799999999
25.482135 34.428743999999995 25.314246999999998
25.553186 34.323144 31.390275
28.439433 25.480442 31.162855
31.482294 22.309687999999998 31.473656
13.282912 13.40912 22.546344
31.107823 13.539048 10.477068
31.573221999999998 10.562035999999999 13.469066
28.298788 13.538687 13.294308
31.140505 25.368466 28.550207999999998
31.300607 13.313987999999998 16.671259
31.133464 10.684425999999998 19.360314
28.294213 13.394086999999999 19.621716
31.428501 13.446603 22.188408
31.443917 10.421221 25.258675999999998
25.386827999999998 31.580066 16.541616
22.282256 13.585913999999999 13.291727
25.485806999999998 13.422301 16.292025
25.207607 13.547979999999999 10.671344
34.23808199999999 19.223447 31.511907
34.211274 31.415928 13.256636
19.660203 13.312659 16.518864999999998
19.501883 10.309662 19.418426
16.33531 13.210336999999999 19.428943
10.306503999999999 25.48466 13.488924999999998
19.210668000000002 13.351848 22.559227
19.441495 10.462606 25.546513
16.579879 13.483958 25.128998
34.531898999999996 19.430825 25.315651
13.22871 22.442579 13.325944999999999
19.471518999999997 13.685374999999999 28.471688999999998
19.611683 10.399832 31.493081999999998
16.593017 13.326327 31.348601
19.461385 13.656033999999998 34.33172499999999
34.38743099999999 19.512921 19.538338999999997
13.367647 25.174198999999998 10.542447
19.536144 19.437685 10.356052
19.432339 16.261114 13.561093999999999
16.346288 19.536531 13.619257
19.252868 19.216413 16.572202
19.284947 16.617752 19.562988999999998
25.545810999999997 10.644174 13.43056
34.159994999999995 19.515809 13.693691999999999
19.247698 19.269717 22.318988
19.573795 16.413854 25.484454
16.33784 19.279104 25.188239999999997
16.628156999999998 13.556203 13.651677
19.158379 10.534564999999999 13.534550999999999
19.558871 13.278576 10.383346999999999
13.181071 34.323285999999996 31.261528
10.510216 25.195395 25.212697
13.284503999999998 25.211135 28.487643
13.412291999999999 22.251439 31.432074
10.334638 25.309574 31.443437
34.442876 25.454759999999997 31.427654999999998
13.463199999999999 25.213584 34.44163399999999
13.251007 31.418451 10.527498999999999
13.364366 28.432881 13.225387
10.464125999999998 31.460022 13.695172999999999
10.624718 25.199239 19.459844999999998
13.322033999999999 31.441555 16.438218
13.298511 28.157458 19.442657999999998
10.497855 31.348107 19.144496999999998
13.668402 19.331985999999997 34.416842
34.053089 25.348422 25.250835
13.437888999999998 31.458800999999998 22.21856
13.701538 28.387211999999998 25.365934999999997
10.366164 31.392139 25.242496
13.430064999999999 25.14453 16.362464
13.593575 31.269462 28.513346
13.368801 28.122802999999998 31.221379
10.589824 31.118702 31.248155
34.193597999999994 25.463942999999997 19.202945
13.365507999999998 31.096795 34.252438
13.492356999999998 34.273151999999996 13.199257
13.457654 34.081526 19.445608
34.06401699999999 25.4895 13.461929
13.553512 34.434116 25.203737999999998
13.312850999999998 22.248382 19.572728
19.296727 19.426312 28.201665
16.331381999999998 19.550023 19.305721000000002
16.385179 19.518013 31.176918999999998
19.243108 31.257637 10.667409999999999
19.255337 28.359287 13.599969
16.621452 31.140131999999998 13.502500999999999
34.40379899999999 13.641199 13.436861
19.530193 16.62185 31.447236
19.225013 31.422135 16.533859
19.26989 28.247474999999998 19.471292000000002
16.612613 31.486662 19.582655
10.321318 19.274488 25.429345
19.436808 31.430291999999998 22.165178
19.624146 28.238421 25.437481000000002
16.309096 31.506266 25.332519
31.496688 34.337473 31.398315
13.573794999999999 16.264263 25.206269
19.521659 31.2496 28.09132
19.477262 28.188245 31.465263
16.271968 31.376448 31.364549
19.321836 31.394422 34.115117999999995
31.483173 34.24958699999999 25.497517
19.511151 34.052662 13.433053
19.608543 34.429851 19.575841999999998
31.498122 34.224115 19.498831
19.40971 34.538827 25.304585999999997
19.225087 34.26227399999999 31.231199999999998
31.204917 34.240695 13.687885
31.153271999999998 31.162046 34.211499
13.489792999999999 19.204258 22.184239
19.610446 25.181400999999997 34.24364299999999
16.512529999999998 25.346118999999998 31.058753
31.545739 25.196474 16.388586
19.453785999999997 22.288222 31.152279
19.706705 22.396656 13.527459
34.420236 13.64115 25.530796
10.410592 19.39136 31.599864
19.330721999999998 25.574265999999998 16.408015
19.307331 25.279344 10.309178999999999
19.472888 22.568141999999998 19.571392999999997
16.716959 25.25369 19.437551
34.475328000000005 31.325338 19.362247999999997
13.619378 16.327317999999998 31.419954
19.209948 25.171938 22.464324
19.380028 22.652123999999997 25.250716999999998
16.590047 25.384728 13.632311999999999
19.518891999999997 25.624393 28.37078
19.280904 19.503788 34.152806
13.403877 19.185725 28.469573
34.078672999999995 13.325764999999999 31.443158999999998
34.513071999999994 13.40457 19.563923
16.466656 25.552974 25.323722999999998
27.916715 28.516066 16.587917
28.114007 27.977567 34.441767
34.462998999999996 22.847697 34.262432000000004
28.443832999999998 33.767410999999996 22.283624
28.321594 34.23731099999999 17.009707
34.683696999999995 22.439 28.502153
34.661985 28.154207 16.260803
34.166623 10.082457999999999 28.559563
34.002117999999996 34.551069 16.620804
27.89707 22.782236 22.361801
33.978937 16.711078999999998 10.493234999999999
34.44878299999999 27.885907 10.772898
34.180330999999995 22.111752 21.87767
34.68350699999999 16.328459 16.622952
33.929562000000004 10.193505 16.424185
28.195831 22.234618 34.848923
34.213751 28.031534999999998 22.606618
34.44425199999999 16.694951999999997 34.610637999999994
28.224141 28.686041 10.126899
33.917925 28.389366 28.627015999999998
34.540375 22.156127 10.639481
27.871918 28.41818 22.414994
34.55535999999999 22.74489 16.388745999999998
28.341502 34.86471999999999 34.37099499999999
27.995153 22.285794 28.738920999999998
28.748807 28.056019 28.338376
34.254738 16.023322 22.675286
34.459132 11.021148 22.624171999999998
33.899596 16.594085 28.719807
28.24247 34.720821 28.691523
34.18145199999999 28.717093 34.124325
22.700532 10.727748 34.11658799999999
28.578304 22.634705999999998 10.730229
16.533365999999997 10.73043 16.88028
16.526577999999997 10.548587999999999 22.856218000000002
16.483694999999997 10.765096 28.827665
16.112819 10.217267 34.52762299999999
16.597932 16.224336 10.796330999999999
16.84227 16.560979999999997 16.226556
16.742073 16.219717 22.281910999999997
16.492811 10.110145 10.82733
16.808446999999997 16.803714 28.421249
16.715495999999998 22.019752 10.621194
16.117074 22.752692999999997 16.674367
16.850483 21.975793 22.273583
16.669031 21.917911999999998 28.466760999999998
16.757336 28.142461 10.169779
16.896646999999998 28.430134 16.268365
16.302604 28.047387 22.182573
16.670174 16.868743 34.513965
16.789498 28.04404 28.588759
10.837045999999999 34.282388 28.49341
10.425849 34.51829099999999 16.790692
10.875202 10.182020999999999 16.761668
10.845499 10.827065999999999 22.535219
10.994911 16.515086999999998 10.468625999999999
10.877443999999999 16.901733 16.402963
10.770441 16.444882999999997 22.768871999999998
10.727039 16.194267 28.538616
10.799123999999999 16.239832 34.465237
10.127116 34.146383 22.309434
10.359022999999999 22.631646999999997 10.812835999999999
10.532369999999998 21.924888 22.023892999999997
10.49053 21.879516 28.582584
10.339424999999999 22.645819 34.02256
10.812365 28.557838 16.304848
10.150691 28.529127 22.731683
10.161831 28.019614 28.072212
10.33456 28.052101999999998 34.601134
10.230590999999999 22.732522999999997 16.497235999999997
16.069972999999997 28.571082 33.90979899999999
16.767037 34.763222 10.301870999999998
16.852614 34.528116999999995 16.483421
22.335238999999998 28.085371 28.728341999999998
22.134199 28.089175 34.136048
22.16583 34.553732999999994 10.834271
22.814482 34.459586 16.122754999999998
22.340678 34.685232 22.202240999999997
22.654996 34.18544 27.8874
22.746692 34.576995999999994 34.274187999999995
22.764225999999997 28.337792 21.998845999999997
28.310610999999998 10.772326999999999 10.951018
27.977619999999998 10.145653999999999 28.002041
28.206122999999998 10.223792999999999 34.051227
28.141955 16.061708 10.74106
28.150575 16.75265 16.811972
28.636419999999998 15.956589 22.530753999999998
28.181642999999998 16.816997999999998 28.77874
28.04965 16.167403 34.236705
28.284212999999998 10.216927 16.728776999999997
22.414026 28.175084 16.941305
22.109312999999997 28.520124 10.817252
22.774134 22.333119999999997 34.550062
16.812802 33.924582 22.626577
16.761655 34.636105 28.048348
16.876226 34.059197999999995 34.507446
22.037481 10.727043 10.841004
22.464093000000002 10.409678 16.891192
22.512036 10.94426 22.510408
22.315759 10.203776 28.064183
34.055869 34.603612999999996 22.622607
22.484655999999998 16.728756999999998 10.153779
22.471211 16.697112999999998 16.901722
22.307087 16.609347 22.064849
21.927097999999997 16.582432999999998 28.367855
22.751989 16.137883 34.631896999999995
22.192696 22.284142999999997 10.952395999999998
22.510735999999998 22.338936999999998 15.855419
22.141869 22.162414000000002 22.197528000000002
22.566511 22.460300999999998 27.848077
28.276291 22.011315 15.972968999999999
34.21233099999999 33.803445999999994 28.447003
13.329407999999999 13.701827999999999 13.646393999999999
25.419178 13.677674 31.159288999999998
25.397221 13.213269 25.233244
25.330738 13.632891999999998 19.63938
25.254752 13.545760999999999 13.19698
19.372921 31.562734 31.557361
31.454185 25.481786 19.549055999999997
19.447346999999997 31.413180999999998 19.611403
19.547737 31.368947 13.669694999999999
19.366277999999998 25.587444 31.227876
19.745355999999997 25.47888 25.272113
19.243074 25.240546 19.339149
19.400105 25.195154 13.310025
19.601411 19.267542 31.210760999999998
19.557805 19.663864999999998 25.250398
19.610975999999997 19.436471 19.296958
19.605816 19.207998999999997 13.576844
19.424919 13.259144 31.146834
19.309652 13.636448999999999 25.205487
19.305681 13.596858 19.573535
19.231474 13.721599 13.450023
13.427785 31.392702 31.531668
13.405641 31.518013 25.50277
13.372316999999999 31.166028999999998 19.554101999999997
31.096657 31.212125999999998 31.295348
13.275293999999999 31.097008 13.572628
25.559769999999997 19.224695999999998 13.517569
25.093483 19.394749 25.132873
31.468581 25.537345 13.730431
31.443443 19.569108 31.154733
31.650845999999998 25.308341 25.36879
31.273303 19.50159 25.692727
31.39488 19.312791999999998 19.592775
31.285512999999998 19.425983 13.165811
31.219606 13.303821 31.159263
31.145716 25.279656999999997 31.200308
31.284459 13.304110999999999 25.068517
31.153986 13.491844 19.655374
31.194482 13.542786 13.669163
31.526215999999998 31.505501 13.512428
25.052440999999998 31.398834 31.347609
25.495582 31.516046 25.316486
25.201418 31.214728 19.593611
25.468756 31.056652 13.279473999999999
31.536322 31.486189 19.600887
25.598533 25.399523 31.107022999999998
25.238747 25.500795999999998 25.238122
25.638082 25.404338 19.242924
25.508049 25.226685 13.311585999999998
31.46809 31.152459 25.199056
25.643925999999997 19.526282 31.281841
25.212574999999998 19.271097 19.577204
13.380042999999999 25.355057 31.563627999999998
19.287429 31.567145 25.243382999999998
13.288315999999998 13.531586999999998 19.244325999999997
13.669265 19.400454 25.663591999999998
13.381506 25.190628999999998 25.659198999999997
13.634077 13.366774 31.176696
13.624027 25.211248 13.561440999999999
13.203945999999998 19.477031 31.430101
13.400905 19.260816000000002 19.097005999999997
13.655313 13.522912 25.605242
13.454158 25.446955 19.161736
13.517 19.233452 13.313267999999999
