3_train/273_cspbbr3_MA-PDC_4_0.60\273_cspbbr3_MA-PDC_4_0.60.xyz
1.0
53.049758 0 0
0 53.049758 0
0 0 53.049758
Br C Cs H N O Pb 
180 411 61 546 171 240 64 
Cartesian
17.599878999999998 17.599878999999998 14.624878999999998
17.599878999999998 14.624878999999998 17.599878999999998
17.599878999999998 17.599878999999998 20.574878999999996
17.599878999999998 17.599878999999998 26.524879
14.624878999999998 17.599878999999998 29.499879
17.599878999999998 17.599878999999998 32.474879
17.599878999999998 20.574878999999996 17.599878999999998
17.599878999999998 23.549878999999997 20.574878999999996
17.599878999999998 20.574878999999996 23.549878999999997
14.624878999999998 23.549878999999997 23.549878999999997
17.599878999999998 23.549878999999997 26.524879
17.599878999999998 20.574878999999996 29.499879
14.624878999999998 23.549878999999997 29.499879
17.599878999999998 23.549878999999997 32.474879
17.599878999999998 20.574878999999996 35.449878999999996
14.624878999999998 23.549878999999997 35.449878999999996
17.599878999999998 29.499879 14.624878999999998
17.599878999999998 26.524879 17.599878999999998
17.599878999999998 29.499879 20.574878999999996
17.599878999999998 26.524879 23.549878999999997
17.599878999999998 29.499879 26.524879
17.599878999999998 26.524879 29.499879
14.624878999999998 29.499879 29.499879
17.599878999999998 29.499879 32.474879
17.599878999999998 26.524879 35.449878999999996
17.599878999999998 35.449878999999996 14.624878999999998
17.599878999999998 32.474879 17.599878999999998
17.599878999999998 35.449878999999996 20.574878999999996
17.599878999999998 32.474879 23.549878999999997
17.599878999999998 35.449878999999996 26.524879
17.599878999999998 32.474879 29.499879
14.624878999999998 35.449878999999996 29.499879
17.599878999999998 35.449878999999996 32.474879
17.599878999999998 32.474879 35.449878999999996
17.599878999999998 35.449878999999996 38.424879
17.599878999999998 38.424879 29.499879
17.599878999999998 38.424879 35.449878999999996
23.549878999999997 17.599878999999998 14.624878999999998
23.549878999999997 14.624878999999998 17.599878999999998
20.574878999999996 17.599878999999998 17.599878999999998
23.549878999999997 17.599878999999998 20.574878999999996
20.574878999999996 17.599878999999998 23.549878999999997
23.549878999999997 17.599878999999998 26.524879
23.549878999999997 14.624878999999998 29.499879
20.574878999999996 17.599878999999998 29.499879
23.549878999999997 17.599878999999998 32.474879
23.549878999999997 14.624878999999998 35.449878999999996
20.574878999999996 17.599878999999998 35.449878999999996
23.549878999999997 20.574878999999996 17.599878999999998
20.574878999999996 23.549878999999997 17.599878999999998
23.549878999999997 23.549878999999997 20.574878999999996
23.549878999999997 20.574878999999996 23.549878999999997
20.574878999999996 23.549878999999997 23.549878999999997
23.549878999999997 23.549878999999997 26.524879
23.549878999999997 20.574878999999996 29.499879
20.574878999999996 23.549878999999997 29.499879
23.549878999999997 23.549878999999997 32.474879
23.549878999999997 20.574878999999996 35.449878999999996
20.574878999999996 23.549878999999997 35.449878999999996
23.549878999999997 29.499879 14.624878999999998
23.549878999999997 26.524879 17.599878999999998
20.574878999999996 29.499879 17.599878999999998
23.549878999999997 29.499879 20.574878999999996
23.549878999999997 26.524879 23.549878999999997
20.574878999999996 29.499879 23.549878999999997
23.549878999999997 29.499879 26.524879
23.549878999999997 26.524879 29.499879
20.574878999999996 29.499879 29.499879
23.549878999999997 29.499879 32.474879
23.549878999999997 26.524879 35.449878999999996
20.574878999999996 29.499879 35.449878999999996
23.549878999999997 29.499879 38.424879
23.549878999999997 32.474879 17.599878999999998
20.574878999999996 35.449878999999996 17.599878999999998
23.549878999999997 35.449878999999996 20.574878999999996
23.549878999999997 32.474879 23.549878999999997
20.574878999999996 35.449878999999996 23.549878999999997
23.549878999999997 35.449878999999996 26.524879
23.549878999999997 32.474879 29.499879
20.574878999999996 35.449878999999996 29.499879
23.549878999999997 35.449878999999996 32.474879
23.549878999999997 32.474879 35.449878999999996
20.574878999999996 35.449878999999996 35.449878999999996
23.549878999999997 38.424879 35.449878999999996
26.524879 17.599878999999998 17.599878999999998
29.499879 17.599878999999998 20.574878999999996
26.524879 17.599878999999998 23.549878999999997
29.499879 17.599878999999998 26.524879
29.499879 14.624878999999998 29.499879
26.524879 17.599878999999998 29.499879
29.499879 17.599878999999998 32.474879
26.524879 17.599878999999998 35.449878999999996
29.499879 20.574878999999996 17.599878999999998
26.524879 23.549878999999997 17.599878999999998
29.499879 23.549878999999997 20.574878999999996
29.499879 20.574878999999996 23.549878999999997
26.524879 23.549878999999997 23.549878999999997
29.499879 23.549878999999997 26.524879
29.499879 20.574878999999996 29.499879
26.524879 23.549878999999997 29.499879
29.499879 23.549878999999997 32.474879
29.499879 20.574878999999996 35.449878999999996
26.524879 23.549878999999997 35.449878999999996
29.499879 23.549878999999997 38.424879
29.499879 26.524879 17.599878999999998
26.524879 29.499879 17.599878999999998
29.499879 29.499879 20.574878999999996
29.499879 26.524879 23.549878999999997
26.524879 29.499879 23.549878999999997
29.499879 29.499879 26.524879
29.499879 26.524879 29.499879
26.524879 29.499879 29.499879
29.499879 29.499879 32.474879
29.499879 26.524879 35.449878999999996
26.524879 29.499879 35.449878999999996
29.499879 29.499879 38.424879
29.499879 32.474879 17.599878999999998
26.524879 35.449878999999996 17.599878999999998
29.499879 35.449878999999996 20.574878999999996
29.499879 32.474879 23.549878999999997
26.524879 35.449878999999996 23.549878999999997
29.499879 35.449878999999996 26.524879
29.499879 32.474879 29.499879
26.524879 35.449878999999996 29.499879
29.499879 35.449878999999996 32.474879
29.499879 32.474879 35.449878999999996
26.524879 35.449878999999996 35.449878999999996
29.499879 38.424879 35.449878999999996
32.474879 17.599878999999998 17.599878999999998
35.449878999999996 17.599878999999998 20.574878999999996
35.449878999999996 14.624878999999998 23.549878999999997
32.474879 17.599878999999998 23.549878999999997
35.449878999999996 17.599878999999998 26.524879
32.474879 17.599878999999998 29.499879
35.449878999999996 17.599878999999998 32.474879
32.474879 17.599878999999998 35.449878999999996
35.449878999999996 17.599878999999998 38.424879
35.449878999999996 20.574878999999996 17.599878999999998
32.474879 23.549878999999997 17.599878999999998
35.449878999999996 23.549878999999997 20.574878999999996
35.449878999999996 20.574878999999996 23.549878999999997
32.474879 23.549878999999997 23.549878999999997
35.449878999999996 23.549878999999997 26.524879
35.449878999999996 20.574878999999996 29.499879
32.474879 23.549878999999997 29.499879
35.449878999999996 23.549878999999997 32.474879
35.449878999999996 20.574878999999996 35.449878999999996
32.474879 23.549878999999997 35.449878999999996
35.449878999999996 29.499879 14.624878999999998
35.449878999999996 26.524879 17.599878999999998
32.474879 29.499879 17.599878999999998
35.449878999999996 29.499879 20.574878999999996
35.449878999999996 26.524879 23.549878999999997
32.474879 29.499879 23.549878999999997
35.449878999999996 29.499879 26.524879
35.449878999999996 26.524879 29.499879
32.474879 29.499879 29.499879
35.449878999999996 29.499879 32.474879
35.449878999999996 26.524879 35.449878999999996
32.474879 29.499879 35.449878999999996
35.449878999999996 32.474879 17.599878999999998
32.474879 35.449878999999996 17.599878999999998
35.449878999999996 35.449878999999996 20.574878999999996
35.449878999999996 32.474879 23.549878999999997
32.474879 35.449878999999996 23.549878999999997
35.449878999999996 35.449878999999996 26.524879
35.449878999999996 32.474879 29.499879
32.474879 35.449878999999996 29.499879
35.449878999999996 35.449878999999996 32.474879
35.449878999999996 32.474879 35.449878999999996
32.474879 35.449878999999996 35.449878999999996
35.449878999999996 35.449878999999996 38.424879
35.449878999999996 38.424879 29.499879
35.449878999999996 38.424879 35.449878999999996
38.424879 17.599878999999998 17.599878999999998
38.424879 17.599878999999998 23.549878999999997
38.424879 23.549878999999997 17.599878999999998
38.424879 23.549878999999997 35.449878999999996
38.424879 29.499879 17.599878999999998
38.424879 35.449878999999996 29.499879
29.492300999999998 36.853809 40.883063
29.499879 35.449878999999996 40.819438999999996
29.50114 35.338422 43.090241999999996
29.495919 36.742515 43.15385
29.506019000000002 34.805144 39.464284
29.497723 37.390896999999995 44.507437
23.542301000000002 24.953809 40.883063
23.549878999999997 23.549878999999997 40.819438999999996
23.551139999999997 23.438421999999996 43.090241999999996
23.545918999999998 24.842515 43.15385
23.556019 22.905144 39.464284
23.547722999999998 25.490896999999997 44.507437
35.442301 24.953809 40.883063
35.449878999999996 23.549878999999997 40.819438999999996
35.451139999999995 23.438421999999996 43.090241999999996
35.445918999999996 24.842515 43.15385
35.456019 22.905144 39.464284
35.447722999999996 25.490896999999997 44.507437
17.592301 30.903808999999995 40.883063
17.599878999999998 29.499879 40.819438999999996
17.60114 29.388422 43.090241999999996
17.595919 30.792515 43.15385
17.606018999999996 28.855143999999996 39.464284
17.597723 31.440897 44.507437
17.592301 24.953809 40.883063
17.599878999999998 23.549878999999997 40.819438999999996
17.60114 23.438421999999996 43.090241999999996
17.595919 24.842515 43.15385
17.606018999999996 22.905144 39.464284
17.597723 25.490896999999997 44.507437
35.442301 30.903808999999995 40.883063
35.449878999999996 29.499879 40.819438999999996
35.451139999999995 29.388422 43.090241999999996
35.445918999999996 30.792515 43.15385
35.456019 28.855143999999996 39.464284
35.447722999999996 31.440897 44.507437
23.542301000000002 36.853809 40.883063
23.549878999999997 35.449878999999996 40.819438999999996
23.551139999999997 35.338422 43.090241999999996
23.545918999999998 36.742515 43.15385
23.556019 34.805144 39.464284
23.547722999999998 37.390896999999995 44.507437
17.592301 19.003808999999997 40.883063
17.599878999999998 17.599878999999998 40.819438999999996
17.60114 17.488422 43.090241999999996
17.595919 18.892514999999996 43.15385
17.606018999999996 16.955143999999997 39.464284
17.597723 19.540897 44.507437
29.492300999999998 19.003808999999997 40.883063
29.499879 17.599878999999998 40.819438999999996
29.50114 17.488422 43.090241999999996
29.495919 18.892514999999996 43.15385
29.506019000000002 16.955143999999997 39.464284
29.497723 19.540897 44.507437
23.542301000000002 19.003808999999997 40.883063
23.549878999999997 17.599878999999998 40.819438999999996
23.551139999999997 17.488422 43.090241999999996
23.545918999999998 18.892514999999996 43.15385
23.556019 16.955143999999997 39.464284
23.547722999999998 19.540897 44.507437
29.507457000000002 19.003808999999997 12.166694999999997
29.499879 17.599878999999998 12.230318999999998
29.498618 17.488422 9.959515999999997
29.503839 18.892514999999996 9.895907999999999
29.493738999999998 16.955143999999997 13.585473999999998
29.502035 19.540897 8.542320999999998
35.457457 24.953809 12.166694999999997
35.449878999999996 23.549878999999997 12.230318999999998
35.448617999999996 23.438421999999996 9.959515999999997
35.453838999999995 24.842515 9.895907999999999
35.443739 22.905144 13.585473999999998
35.452034999999995 25.490896999999997 8.542320999999998
29.507457000000002 36.853809 12.166694999999997
29.499879 35.449878999999996 12.230318999999998
29.498618 35.338422 9.959515999999997
29.503839 36.742515 9.895907999999999
29.493738999999998 34.805144 13.585473999999998
29.502035 37.390896999999995 8.542320999999998
29.507457000000002 24.953809 12.166694999999997
29.499879 23.549878999999997 12.230318999999998
29.498618 23.438421999999996 9.959515999999997
29.503839 24.842515 9.895907999999999
29.493738999999998 22.905144 13.585473999999998
29.502035 25.490896999999997 8.542320999999998
23.557457 36.853809 12.166694999999997
23.549878999999997 35.449878999999996 12.230318999999998
23.548617999999998 35.338422 9.959515999999997
23.553838999999996 36.742515 9.895907999999999
23.543739000000002 34.805144 13.585473999999998
23.552034999999997 37.390896999999995 8.542320999999998
29.507457000000002 30.903808999999995 12.166694999999997
29.499879 29.499879 12.230318999999998
29.498618 29.388422 9.959515999999997
29.503839 30.792515 9.895907999999999
29.493738999999998 28.855143999999996 13.585473999999998
29.502035 31.440897 8.542320999999998
35.457457 36.853809 12.166694999999997
35.449878999999996 35.449878999999996 12.230318999999998
35.448617999999996 35.338422 9.959515999999997
35.453838999999995 36.742515 9.895907999999999
35.443739 34.805144 13.585473999999998
35.452034999999995 37.390896999999995 8.542320999999998
35.457457 19.003808999999997 12.166694999999997
35.449878999999996 17.599878999999998 12.230318999999998
35.448617999999996 17.488422 9.959515999999997
35.453838999999995 18.892514999999996 9.895907999999999
35.443739 16.955143999999997 13.585473999999998
35.452034999999995 19.540897 8.542320999999998
23.557457 24.953809 12.166694999999997
23.549878999999997 23.549878999999997 12.230318999999998
23.548617999999998 23.438421999999996 9.959515999999997
23.553838999999996 24.842515 9.895907999999999
23.543739000000002 22.905144 13.585473999999998
23.552034999999997 25.490896999999997 8.542320999999998
17.607456999999997 24.953809 12.166694999999997
17.599878999999998 23.549878999999997 12.230318999999998
17.598618 23.438421999999996 9.959515999999997
17.603839 24.842515 9.895907999999999
17.593739 22.905144 13.585473999999998
17.602035 25.490896999999997 8.542320999999998
12.166694999999997 36.853809 35.442301
12.230318999999998 35.449878999999996 35.449878999999996
9.959515999999997 35.338422 35.451139999999995
9.895907999999999 36.742515 35.445918999999996
13.585473999999998 34.805144 35.456019
8.542320999999998 37.390896999999995 35.447722999999996
12.166694999999997 30.903808999999995 17.592301
12.230318999999998 29.499879 17.599878999999998
9.959515999999997 29.388422 17.60114
9.895907999999999 30.792515 17.595919
13.585473999999998 28.855143999999996 17.606018999999996
8.542320999999998 31.440897 17.597723
12.166694999999997 30.903808999999995 35.442301
12.230318999999998 29.499879 35.449878999999996
9.959515999999997 29.388422 35.451139999999995
9.895907999999999 30.792515 35.445918999999996
13.585473999999998 28.855143999999996 35.456019
8.542320999999998 31.440897 35.447722999999996
12.166694999999997 24.953809 17.592301
12.230318999999998 23.549878999999997 17.599878999999998
9.959515999999997 23.438421999999996 17.60114
9.895907999999999 24.842515 17.595919
13.585473999999998 22.905144 17.606018999999996
8.542320999999998 25.490896999999997 17.597723
12.166694999999997 19.003808999999997 35.442301
12.230318999999998 17.599878999999998 35.449878999999996
9.959515999999997 17.488422 35.451139999999995
9.895907999999999 18.892514999999996 35.445918999999996
13.585473999999998 16.955143999999997 35.456019
8.542320999999998 19.540897 35.447722999999996
12.166694999999997 36.853809 17.592301
12.230318999999998 35.449878999999996 17.599878999999998
9.959515999999997 35.338422 17.60114
9.895907999999999 36.742515 17.595919
13.585473999999998 34.805144 17.606018999999996
8.542320999999998 37.390896999999995 17.597723
12.166694999999997 19.003808999999997 23.542301000000002
12.230318999999998 17.599878999999998 23.549878999999997
9.959515999999997 17.488422 23.551139999999997
9.895907999999999 18.892514999999996 23.545918999999998
13.585473999999998 16.955143999999997 23.556019
8.542320999999998 19.540897 23.547722999999998
12.166694999999997 19.003808999999997 17.592301
12.230318999999998 17.599878999999998 17.599878999999998
9.959515999999997 17.488422 17.60114
9.895907999999999 18.892514999999996 17.595919
13.585473999999998 16.955143999999997 17.606018999999996
8.542320999999998 19.540897 17.597723
12.166694999999997 30.903808999999995 23.542301000000002
12.230318999999998 29.499879 23.549878999999997
9.959515999999997 29.388422 23.551139999999997
9.895907999999999 30.792515 23.545918999999998
13.585473999999998 28.855143999999996 23.556019
8.542320999999998 31.440897 23.547722999999998
12.166694999999997 36.853809 23.542301000000002
12.230318999999998 35.449878999999996 23.549878999999997
9.959515999999997 35.338422 23.551139999999997
9.895907999999999 36.742515 23.545918999999998
13.585473999999998 34.805144 23.556019
8.542320999999998 37.390896999999995 23.547722999999998
40.883063 24.953809 29.507457000000002
40.819438999999996 23.549878999999997 29.499879
43.090241999999996 23.438421999999996 29.498618
43.15385 24.842515 29.503839
39.464284 22.905144 29.493738999999998
44.507437 25.490896999999997 29.502035
40.883063 30.903808999999995 35.457457
40.819438999999996 29.499879 35.449878999999996
43.090241999999996 29.388422 35.448617999999996
43.15385 30.792515 35.453838999999995
39.464284 28.855143999999996 35.443739
44.507437 31.440897 35.452034999999995
40.883063 19.003808999999997 29.507457000000002
40.819438999999996 17.599878999999998 29.499879
43.090241999999996 17.488422 29.498618
43.15385 18.892514999999996 29.503839
39.464284 16.955143999999997 29.493738999999998
44.507437 19.540897 29.502035
40.883063 24.953809 23.557457
40.819438999999996 23.549878999999997 23.549878999999997
43.090241999999996 23.438421999999996 23.548617999999998
43.15385 24.842515 23.553838999999996
39.464284 22.905144 23.543739000000002
44.507437 25.490896999999997 23.552034999999997
40.883063 36.853809 23.557457
40.819438999999996 35.449878999999996 23.549878999999997
43.090241999999996 35.338422 23.548617999999998
43.15385 36.742515 23.553838999999996
39.464284 34.805144 23.543739000000002
44.507437 37.390896999999995 23.552034999999997
40.883063 36.853809 35.457457
40.819438999999996 35.449878999999996 35.449878999999996
43.090241999999996 35.338422 35.448617999999996
43.15385 36.742515 35.453838999999995
39.464284 34.805144 35.443739
44.507437 37.390896999999995 35.452034999999995
40.883063 30.903808999999995 23.557457
40.819438999999996 29.499879 23.549878999999997
43.090241999999996 29.388422 23.548617999999998
43.15385 30.792515 23.553838999999996
39.464284 28.855143999999996 23.543739000000002
44.507437 31.440897 23.552034999999997
40.883063 19.003808999999997 35.457457
40.819438999999996 17.599878999999998 35.449878999999996
43.090241999999996 17.488422 35.448617999999996
43.15385 18.892514999999996 35.453838999999995
39.464284 16.955143999999997 35.443739
44.507437 19.540897 35.452034999999995
40.883063 36.853809 17.607456999999997
40.819438999999996 35.449878999999996 17.599878999999998
43.090241999999996 35.338422 17.598618
43.15385 36.742515 17.603839
39.464284 34.805144 17.593739
44.507437 37.390896999999995 17.602035
40.883063 30.903808999999995 29.507457000000002
40.819438999999996 29.499879 29.499879
43.090241999999996 29.388422 29.498618
43.15385 30.792515 29.503839
39.464284 28.855143999999996 29.493738999999998
44.507437 31.440897 29.502035
35.442301 12.166694999999997 19.003808999999997
35.449878999999996 12.230318999999998 17.599878999999998
35.451139999999995 9.959515999999997 17.488422
35.445918999999996 9.895907999999999 18.892514999999996
35.456019 13.585473999999998 16.955143999999997
35.447722999999996 8.542320999999998 19.540897
35.442301 12.166694999999997 30.903808999999995
35.449878999999996 12.230318999999998 29.499879
35.451139999999995 9.959515999999997 29.388422
35.445918999999996 9.895907999999999 30.792515
35.456019 13.585473999999998 28.855143999999996
35.447722999999996 8.542320999999998 31.440897
29.492300999999998 12.166694999999997 24.953809
29.499879 12.230318999999998 23.549878999999997
29.50114 9.959515999999997 23.438421999999996
29.495919 9.895907999999999 24.842515
29.506019000000002 13.585473999999998 22.905144
29.497723 8.542320999999998 25.490896999999997
23.542301000000002 12.166694999999997 24.953809
23.549878999999997 12.230318999999998 23.549878999999997
23.551139999999997 9.959515999999997 23.438421999999996
23.545918999999998 9.895907999999999 24.842515
23.556019 13.585473999999998 22.905144
23.547722999999998 8.542320999999998 25.490896999999997
17.592301 12.166694999999997 30.903808999999995
17.599878999999998 12.230318999999998 29.499879
17.60114 9.959515999999997 29.388422
17.595919 9.895907999999999 30.792515
17.606018999999996 13.585473999999998 28.855143999999996
17.597723 8.542320999999998 31.440897
17.592301 12.166694999999997 36.853809
17.599878999999998 12.230318999999998 35.449878999999996
17.60114 9.959515999999997 35.338422
17.595919 9.895907999999999 36.742515
17.606018999999996 13.585473999999998 34.805144
17.597723 8.542320999999998 37.390896999999995
17.592301 12.166694999999997 24.953809
17.599878999999998 12.230318999999998 23.549878999999997
17.60114 9.959515999999997 23.438421999999996
17.595919 9.895907999999999 24.842515
17.606018999999996 13.585473999999998 22.905144
17.597723 8.542320999999998 25.490896999999997
29.492300999999998 12.166694999999997 19.003808999999997
29.499879 12.230318999999998 17.599878999999998
29.50114 9.959515999999997 17.488422
29.495919 9.895907999999999 18.892514999999996
29.506019000000002 13.585473999999998 16.955143999999997
29.497723 8.542320999999998 19.540897
35.442301 12.166694999999997 36.853809
35.449878999999996 12.230318999999998 35.449878999999996
35.451139999999995 9.959515999999997 35.338422
35.445918999999996 9.895907999999999 36.742515
35.456019 13.585473999999998 34.805144
35.447722999999996 8.542320999999998 37.390896999999995
29.492300999999998 12.166694999999997 36.853809
29.499879 12.230318999999998 35.449878999999996
29.50114 9.959515999999997 35.338422
29.495919 9.895907999999999 36.742515
29.506019000000002 13.585473999999998 34.805144
29.497723 8.542320999999998 37.390896999999995
29.492300999999998 40.883063 22.145948999999998
29.499879 40.819438999999996 23.549878999999997
29.50114 43.090241999999996 23.661336
29.495919 43.15385 22.257242999999995
29.506019000000002 39.464284 24.194614
29.497723 44.507437 21.608860999999997
17.592301 40.883063 22.145948999999998
17.599878999999998 40.819438999999996 23.549878999999997
17.60114 43.090241999999996 23.661336
17.595919 43.15385 22.257242999999995
17.606018999999996 39.464284 24.194614
17.597723 44.507437 21.608860999999997
35.442301 40.883063 22.145948999999998
35.449878999999996 40.819438999999996 23.549878999999997
35.451139999999995 43.090241999999996 23.661336
35.445918999999996 43.15385 22.257242999999995
35.456019 39.464284 24.194614
35.447722999999996 44.507437 21.608860999999997
23.542301000000002 40.883063 16.195949
23.549878999999997 40.819438999999996 17.599878999999998
23.551139999999997 43.090241999999996 17.711335999999996
23.545918999999998 43.15385 16.307243
23.556019 39.464284 18.244614
23.547722999999998 44.507437 15.658860999999998
23.542301000000002 40.883063 28.095948999999997
23.549878999999997 40.819438999999996 29.499879
23.551139999999997 43.090241999999996 29.611336
23.545918999999998 43.15385 28.207243
23.556019 39.464284 30.144613999999997
23.547722999999998 44.507437 27.558861
35.442301 40.883063 16.195949
35.449878999999996 40.819438999999996 17.599878999999998
35.451139999999995 43.090241999999996 17.711335999999996
35.445918999999996 43.15385 16.307243
35.456019 39.464284 18.244614
35.447722999999996 44.507437 15.658860999999998
29.492300999999998 40.883063 16.195949
29.499879 40.819438999999996 17.599878999999998
29.50114 43.090241999999996 17.711335999999996
29.495919 43.15385 16.307243
29.506019000000002 39.464284 18.244614
29.497723 44.507437 15.658860999999998
29.492300999999998 40.883063 28.095948999999997
29.499879 40.819438999999996 29.499879
29.50114 43.090241999999996 29.611336
29.495919 43.15385 28.207243
29.506019000000002 39.464284 30.144613999999997
29.497723 44.507437 27.558861
17.592301 40.883063 16.195949
17.599878999999998 40.819438999999996 17.599878999999998
17.60114 43.090241999999996 17.711335999999996
17.595919 43.15385 16.307243
17.606018999999996 39.464284 18.244614
17.597723 44.507437 15.658860999999998
23.542301000000002 40.883063 22.145948999999998
23.549878999999997 40.819438999999996 23.549878999999997
23.551139999999997 43.090241999999996 23.661336
23.545918999999998 43.15385 22.257242999999995
23.556019 39.464284 24.194614
23.547722999999998 44.507437 21.608860999999997
13.149217999999998 32.474879 26.524879
26.524879 39.468329000000004 13.581428999999998
13.581428999999998 39.468329000000004 26.524879
13.149217999999998 26.524879 32.474879
20.574878999999996 32.474879 13.149217999999998
20.574878999999996 26.524879 39.90054
13.581428999999998 20.574878999999996 39.468329000000004
39.90054 26.524879 26.524879
39.90054 26.524879 32.474879
32.474879 13.149217999999998 26.524879
39.468329000000004 32.474879 39.468329000000004
32.474879 39.468329000000004 39.468329000000004
26.524879 39.90054 20.574878999999996
13.581428999999998 13.581428999999998 26.524879
39.90054 26.524879 20.574878999999996
20.574878999999996 39.90054 20.574878999999996
39.468329000000004 13.581428999999998 26.524879
13.581428999999998 20.574878999999996 13.581428999999998
26.524879 20.574878999999996 13.149217999999998
20.574878999999996 39.90054 26.524879
39.468329000000004 13.581428999999998 32.474879
26.524879 32.474879 39.90054
32.474879 39.90054 20.574878999999996
32.474879 13.149217999999998 20.574878999999996
39.90054 32.474879 26.524879
26.524879 26.524879 13.149217999999998
32.474879 13.149217999999998 32.474879
32.474879 39.90054 32.474879
39.468329000000004 26.524879 39.468329000000004
39.468329000000004 32.474879 13.581428999999998
26.524879 13.149217999999998 20.574878999999996
26.524879 13.581428999999998 13.581428999999998
13.149217999999998 26.524879 20.574878999999996
20.574878999999996 39.468329000000004 13.581428999999998
13.149217999999998 32.474879 20.574878999999996
32.474879 26.524879 39.90054
13.149217999999998 20.574878999999996 20.574878999999996
32.474879 13.581428999999998 39.468329000000004
26.524879 32.474879 13.149217999999998
20.574878999999996 13.149217999999998 20.574878999999996
20.574878999999996 20.574878999999996 13.149217999999998
26.524879 26.524879 39.90054
39.468329000000004 39.468329000000004 32.474879
39.468329000000004 13.581428999999998 20.574878999999996
13.149217999999998 20.574878999999996 26.524879
32.474879 13.581428999999998 13.581428999999998
39.468329000000004 26.524879 13.581428999999998
39.468329000000004 39.468329000000004 20.574878999999996
39.90054 20.574878999999996 32.474879
39.90054 32.474879 32.474879
26.524879 39.90054 32.474879
14.624878999999998 14.624878999999998 20.574878999999996
14.624878999999998 14.624878999999998 32.474879
14.624878999999998 26.524879 14.624878999999998
14.624878999999998 26.524879 26.524879
14.624878999999998 26.524879 38.424879
14.624878999999998 32.474879 14.624878999999998
14.624878999999998 32.474879 32.474879
14.624878999999998 32.474879 38.424879
14.624878999999998 38.424879 20.574878999999996
20.574878999999996 14.624878999999998 14.624878999999998
20.574878999999996 14.624878999999998 26.524879
20.574878999999996 14.624878999999998 32.474879
20.574878999999996 14.624878999999998 38.424879
20.574878999999996 20.574878999999996 20.574878999999996
20.574878999999996 20.574878999999996 26.524879
20.574878999999996 20.574878999999996 32.474879
20.574878999999996 20.574878999999996 38.424879
20.574878999999996 26.524879 14.624878999999998
20.574878999999996 26.524879 20.574878999999996
20.574878999999996 26.524879 26.524879
20.574878999999996 26.524879 32.474879
20.574878999999996 32.474879 20.574878999999996
20.574878999999996 32.474879 26.524879
20.574878999999996 32.474879 32.474879
20.574878999999996 32.474879 38.424879
20.574878999999996 38.424879 32.474879
26.524879 14.624878999999998 26.524879
26.524879 14.624878999999998 32.474879
26.524879 14.624878999999998 38.424879
26.524879 20.574878999999996 20.574878999999996
26.524879 20.574878999999996 26.524879
26.524879 20.574878999999996 32.474879
26.524879 20.574878999999996 38.424879
26.524879 26.524879 20.574878999999996
26.524879 26.524879 26.524879
26.524879 26.524879 32.474879
26.524879 32.474879 20.574878999999996
26.524879 32.474879 26.524879
26.524879 32.474879 32.474879
26.524879 38.424879 26.524879
26.524879 38.424879 38.424879
32.474879 20.574878999999996 14.624878999999998
32.474879 20.574878999999996 20.574878999999996
32.474879 20.574878999999996 26.524879
32.474879 20.574878999999996 32.474879
32.474879 20.574878999999996 38.424879
32.474879 26.524879 14.624878999999998
32.474879 26.524879 20.574878999999996
32.474879 26.524879 26.524879
32.474879 26.524879 32.474879
32.474879 32.474879 20.574878999999996
32.474879 32.474879 26.524879
32.474879 32.474879 32.474879
32.474879 32.474879 38.424879
32.474879 38.424879 14.624878999999998
32.474879 38.424879 26.524879
38.424879 20.574878999999996 14.624878999999998
38.424879 20.574878999999996 20.574878999999996
38.424879 20.574878999999996 38.424879