3_train/251_cspbbr3_MA-PhS_3_0.40\251_cspbbr3_MA-PhS_3_0.40.xyz
1.0
44.095282 0 0
0 44.095282 0
0 0 44.095282
Br C Cs H N Pb S 
84 163 35 234 19 27 24 
Cartesian
16.097640999999996 16.097640999999996 13.122640999999998
16.097640999999996 16.097640999999996 19.072640999999997
16.097640999999996 13.122640999999998 22.047641
16.097640999999996 16.097640999999996 25.022640999999997
16.097640999999996 19.072640999999997 16.097640999999996
13.122640999999998 22.047641 16.097640999999996
16.097640999999996 22.047641 19.072640999999997
16.097640999999996 19.072640999999997 22.047641
13.122640999999998 22.047641 22.047641
16.097640999999996 22.047641 25.022640999999997
16.097640999999996 19.072640999999997 27.997640999999998
13.122640999999998 22.047641 27.997640999999998
16.097640999999996 22.047641 30.972641
16.097640999999996 27.997640999999998 13.122640999999998
16.097640999999996 25.022640999999997 16.097640999999996
16.097640999999996 27.997640999999998 19.072640999999997
16.097640999999996 25.022640999999997 22.047641
13.122640999999998 27.997640999999998 22.047641
16.097640999999996 27.997640999999998 25.022640999999997
16.097640999999996 25.022640999999997 27.997640999999998
13.122640999999998 27.997640999999998 27.997640999999998
16.097640999999996 30.972641 16.097640999999996
16.097640999999996 30.972641 22.047641
22.047641 16.097640999999996 13.122640999999998
22.047641 13.122640999999998 16.097640999999996
19.072640999999997 16.097640999999996 16.097640999999996
22.047641 16.097640999999996 19.072640999999997
22.047641 13.122640999999998 22.047641
19.072640999999997 16.097640999999996 22.047641
22.047641 16.097640999999996 25.022640999999997
19.072640999999997 16.097640999999996 27.997640999999998
22.047641 16.097640999999996 30.972641
22.047641 22.047641 13.122640999999998
22.047641 19.072640999999997 16.097640999999996
19.072640999999997 22.047641 16.097640999999996
22.047641 22.047641 19.072640999999997
22.047641 19.072640999999997 22.047641
19.072640999999997 22.047641 22.047641
22.047641 22.047641 25.022640999999997
22.047641 19.072640999999997 27.997640999999998
19.072640999999997 22.047641 27.997640999999998
22.047641 25.022640999999997 16.097640999999996
19.072640999999997 27.997640999999998 16.097640999999996
22.047641 27.997640999999998 19.072640999999997
22.047641 25.022640999999997 22.047641
19.072640999999997 27.997640999999998 22.047641
22.047641 27.997640999999998 25.022640999999997
22.047641 25.022640999999997 27.997640999999998
19.072640999999997 27.997640999999998 27.997640999999998
22.047641 27.997640999999998 30.972641
22.047641 30.972641 16.097640999999996
22.047641 30.972641 22.047641
27.997640999999998 13.122640999999998 16.097640999999996
25.022640999999997 16.097640999999996 16.097640999999996
27.997640999999998 16.097640999999996 19.072640999999997
25.022640999999997 16.097640999999996 22.047641
27.997640999999998 16.097640999999996 25.022640999999997
27.997640999999998 13.122640999999998 27.997640999999998
25.022640999999997 16.097640999999996 27.997640999999998
27.997640999999998 22.047641 13.122640999999998
27.997640999999998 19.072640999999997 16.097640999999996
25.022640999999997 22.047641 16.097640999999996
27.997640999999998 22.047641 19.072640999999997
27.997640999999998 19.072640999999997 22.047641
25.022640999999997 22.047641 22.047641
27.997640999999998 22.047641 25.022640999999997
27.997640999999998 19.072640999999997 27.997640999999998
25.022640999999997 22.047641 27.997640999999998
27.997640999999998 22.047641 30.972641
27.997640999999998 25.022640999999997 16.097640999999996
25.022640999999997 27.997640999999998 16.097640999999996
27.997640999999998 27.997640999999998 19.072640999999997
27.997640999999998 25.022640999999997 22.047641
25.022640999999997 27.997640999999998 22.047641
27.997640999999998 27.997640999999998 25.022640999999997
27.997640999999998 25.022640999999997 27.997640999999998
25.022640999999997 27.997640999999998 27.997640999999998
27.997640999999998 27.997640999999998 30.972641
27.997640999999998 30.972641 22.047641
30.972641 16.097640999999996 22.047641
30.972641 22.047641 16.097640999999996
30.972641 22.047641 22.047641
30.972641 27.997640999999998 22.047641
30.972641 27.997640999999998 27.997640999999998
22.731669 21.042713 34.804179
22.741560999999997 21.042278999999997 33.416140999999996
22.047641 22.047641 32.684892
21.348388 23.041404999999997 34.804672
22.035657999999998 22.038859 35.503874999999994
21.351245 23.051016 33.416608
14.920506999999997 16.401170999999998 34.804179
14.912788999999998 16.394968 33.416140999999996
16.097640999999996 16.097640999999996 32.684892
17.278844999999997 15.812545999999998 34.804672
16.100848 16.112147 35.503874999999994
17.283042 15.803439999999998 33.416608
14.902035999999999 27.77786 34.804179
14.897642999999999 27.768985999999998 33.416140999999996
16.097640999999996 27.997640999999998 32.684892
17.289182999999998 28.235858999999998 34.804672
16.094448999999997 28.01215 35.503874999999994
17.296822 28.229362999999996 33.416608
28.455785 17.223641999999998 34.804179
28.450668999999998 17.23212 33.416140999999996
27.997640999999998 16.097640999999996 32.684892
27.557222999999997 14.965141999999998 34.804672
28.011588 16.092523999999997 35.503874999999994
27.547637999999996 14.962199999999998 33.416608
20.944917999999998 28.509283 9.291102999999998
20.942883 28.518973 10.679140999999998
22.047641 27.997640999999998 11.410389999999998
23.141821999999998 27.469162999999998 9.290609999999997
22.040922999999996 27.984389999999998 8.591406999999997
23.150840999999996 27.473542999999996 10.678673999999997
26.982775999999998 28.666838 9.291102999999998
26.982196999999996 28.676721999999998 10.679140999999998
27.997640999999998 27.997640999999998 11.410389999999998
29.001566 27.313056999999997 9.290609999999997
27.989036 27.985529999999997 8.591406999999997
29.011135 27.316055 10.678673999999997
29.204092999999997 16.246795999999996 9.291102999999998
29.210946999999997 16.239649999999997 10.679140999999998
27.997640999999998 16.097640999999996 11.410389999999998
26.789531 15.967291999999997 9.290609999999997
27.996332 16.11244 8.591406999999997
26.784193999999996 15.958803999999997 10.678673999999997
17.26806 21.719168999999997 9.291102999999998
17.271620999999996 21.709929999999996 10.679140999999998
16.097640999999996 22.047641 11.410389999999998
14.932957999999998 22.394099999999998 9.290609999999997
16.102149999999998 22.061797 8.591406999999997
14.924755999999999 22.388332 10.678673999999997
9.291102999999998 27.616794 17.25208
10.679140999999998 27.622472 17.260191999999996
11.410389999999998 27.997640999999998 16.097640999999996
9.290609999999997 28.360362999999996 14.937918999999997
8.591406999999997 27.983378999999996 16.09348
10.678673999999997 28.369726999999997 14.934334999999997
9.291102999999998 16.581813999999998 20.932584999999996
10.679140999999998 16.576897 20.923989999999996
11.410389999999998 16.097640999999996 22.047641
9.290609999999997 15.631037999999998 23.169604999999997
8.591406999999997 16.111466 22.053081
10.678673999999997 15.621386999999999 23.172324
9.291102999999998 15.822790999999999 17.281799999999997
10.679140999999998 15.829179999999997 17.289364999999997
11.410389999999998 16.097640999999996 16.097640999999996
9.290609999999997 16.353961999999996 14.909860999999998
8.591406999999997 16.083060999999997 16.094786999999997
10.678673999999997 16.362962999999997 14.905443999999997
9.291102999999998 15.870739999999998 26.803366999999998
10.679140999999998 15.861839999999997 26.799027
11.410389999999998 16.097640999999996 27.997640999999998
9.290609999999997 16.342954999999996 29.187742999999998
8.591406999999997 16.112130999999998 27.994362
10.678673999999997 16.336503999999998 29.195418999999998
34.804179 28.268911 14.912656999999998
33.416140999999996 28.277967 14.908651999999998
32.684892 27.997640999999998 16.097640999999996
34.804672 27.708126999999998 17.277769
35.503874999999994 27.983282999999997 16.093823999999998
33.416608 27.714285999999998 17.285680999999997
34.804179 16.825812 17.071057999999997
33.416140999999996 16.823007999999998 17.080554999999997
32.684892 16.097640999999996 16.097640999999996
34.804672 15.384974999999997 15.113451999999999
35.503874999999994 16.10984 16.089160999999997
33.416608 15.374956999999998 15.113030999999998
34.804179 17.313171999999998 27.981529
33.416140999999996 17.319201 27.989383
32.684892 16.097640999999996 27.997640999999998
34.804672 14.882521999999998 27.994877999999996
35.503874999999994 16.097960999999998 27.982787999999996
33.416608 14.876287999999999 28.002730999999997
34.804179 21.976485999999998 29.211194
33.416140999999996 21.968218999999998 29.216644
32.684892 22.047641 27.997640999999998
34.804672 22.137593 26.785853
35.503874999999994 22.062433 27.999025999999997
33.416608 22.130207 26.779071
22.737140999999998 9.291102999999998 28.998822
22.733967999999997 10.679140999999998 29.008201999999997
22.047641 11.410389999999998 27.997640999999998
21.374055999999996 9.290609999999997 26.986302999999996
22.060162 8.591406999999997 27.989645
21.364061999999997 10.678673999999997 26.98549
17.298585999999997 9.291102999999998 27.809213999999997
17.305668999999998 10.679140999999998 27.816132999999997
16.097640999999996 11.410389999999998 27.997640999999998
14.894424999999998 9.290609999999997 28.167326
16.09585 8.591406999999997 27.982892999999997
14.889367999999997 10.678673999999997 28.175983999999996
26.940516999999996 9.291102999999998 21.447421999999996
26.939282 10.679140999999998 21.437596999999997
27.997640999999998 11.410389999999998 22.047641
29.044873 9.290609999999997 22.663940999999998
27.989860999999998 8.591406999999997 22.060297
29.054221 10.678673999999997 22.660313999999996
16.94822 9.291102999999998 15.229141999999998
16.958033 10.679140999999998 15.230459999999997
16.097640999999996 11.410389999999998 16.097640999999996
15.234045999999998 9.290609999999997 16.952464999999997
16.087394999999997 8.591406999999997 16.086883
15.235161999999999 10.678673999999997 16.962429999999998
27.013119 34.804179 28.710725999999998
27.012973999999996 33.416140999999996 28.720626999999997
27.997640999999998 32.684892 27.997640999999998
28.970558999999998 34.804672 27.269664
27.988512999999998 35.503874999999994 27.985919
28.980249999999998 33.416608 27.272237999999998
21.003477999999998 34.804179 27.375147
20.994327 33.416140999999996 27.378928
22.047641 32.684892 27.997640999999998
23.100897 34.804672 28.603588999999996
22.054799999999997 35.503874999999994 27.984622999999996
23.102361999999996 33.416608 28.613508999999997
16.643361999999996 34.804179 29.083902
16.653111 33.416140999999996 29.085635
16.097640999999996 32.684892 27.997640999999998
15.535357999999999 34.804672 26.920441999999998
16.084605999999997 35.503874999999994 28.004768
15.539454999999998 33.416608 26.911289999999997
29.170195999999997 34.804179 16.418405999999997
29.178003999999998 33.416140999999996 16.412315999999997
27.997640999999998 32.684892 16.097640999999996
26.820745999999996 34.804672 15.795249999999998
27.994221999999997 35.503874999999994 16.112098999999997
26.816682999999998 33.416608 15.786083999999999
19.072640999999997 32.016091 12.079190999999998
32.448302 19.072640999999997 19.072640999999997
25.022640999999997 32.016091 12.079190999999998
11.64698 19.072640999999997 25.022640999999997
12.079190999999998 12.079190999999998 25.022640999999997
12.079190999999998 25.022640999999997 12.079190999999998
25.022640999999997 11.64698 25.022640999999997
12.079190999999998 12.079190999999998 19.072640999999997
19.072640999999997 32.016091 32.016091
19.072640999999997 11.64698 19.072640999999997
19.072640999999997 11.64698 25.022640999999997
25.022640999999997 11.64698 19.072640999999997
11.64698 25.022640999999997 25.022640999999997
25.022640999999997 19.072640999999997 32.448302
32.016091 32.016091 25.022640999999997
19.072640999999997 12.079190999999998 32.016091
32.448302 25.022640999999997 19.072640999999997
25.022640999999997 32.448302 25.022640999999997
12.079190999999998 32.016091 25.022640999999997
13.122640999999998 19.072640999999997 13.122640999999998
13.122640999999998 19.072640999999997 19.072640999999997
13.122640999999998 19.072640999999997 30.972641
13.122640999999998 25.022640999999997 19.072640999999997
13.122640999999998 30.972641 19.072640999999997
19.072640999999997 13.122640999999998 13.122640999999998
19.072640999999997 19.072640999999997 13.122640999999998
19.072640999999997 19.072640999999997 19.072640999999997
19.072640999999997 19.072640999999997 25.022640999999997
19.072640999999997 19.072640999999997 30.972641
19.072640999999997 25.022640999999997 13.122640999999998
19.072640999999997 25.022640999999997 19.072640999999997
19.072640999999997 25.022640999999997 25.022640999999997
19.072640999999997 25.022640999999997 30.972641
19.072640999999997 30.972641 19.072640999999997
19.072640999999997 30.972641 25.022640999999997
25.022640999999997 13.122640999999998 30.972641
25.022640999999997 19.072640999999997 13.122640999999998
25.022640999999997 19.072640999999997 19.072640999999997
25.022640999999997 19.072640999999997 25.022640999999997
25.022640999999997 25.022640999999997 13.122640999999998
25.022640999999997 25.022640999999997 19.072640999999997
25.022640999999997 25.022640999999997 25.022640999999997
25.022640999999997 25.022640999999997 30.972641
25.022640999999997 30.972641 19.072640999999997
25.022640999999997 30.972641 30.972641
30.972641 13.122640999999998 19.072640999999997
30.972641 13.122640999999998 25.022640999999997
30.972641 19.072640999999997 13.122640999999998
30.972641 19.072640999999997 25.022640999999997
30.972641 19.072640999999997 30.972641
30.972641 25.022640999999997 13.122640999999998
30.972641 25.022640999999997 25.022640999999997
30.972641 25.022640999999997 30.972641
30.972641 30.972641 19.072640999999997
20.809472999999997 23.816081999999998 35.353637
22.029097999999998 22.033773999999998 36.595282
23.266696999999997 20.265085999999997 35.352734999999996
23.279377999999998 20.272954 32.85907
20.820639999999997 23.825459999999996 32.859825
18.194995999999996 15.586225999999998 35.353637
16.10242 16.120296999999997 36.595282
14.005328999999998 16.632274 35.352734999999996
14.000994999999998 16.617991999999997 32.85907
18.192795999999998 15.571809999999997 32.859825
18.215539999999997 28.415905999999996 35.353637
16.092447 28.020205999999998 36.595282
13.974550999999998 27.602560999999998 35.352734999999996
13.976625999999998 27.587780999999996 32.85907
18.219607999999997 28.401902999999997 32.859825
27.21048 14.087461999999999 35.353637
28.019454999999997 16.089875999999997 36.595282
28.807138 18.099718999999997 35.352734999999996
28.793564 18.105922999999997 32.85907
27.196486999999998 14.091568999999998 32.859825
23.993774 27.06329 8.741644999999998
22.036972 27.977090999999998 7.499999999999998
20.090687 28.910839999999997 8.742546999999998
20.096390999999997 28.924632 11.236211999999998
24.001212999999996 27.075833 11.235456999999998
29.784073999999997 26.785575999999995 8.741644999999998
27.984047999999998 27.978896 7.499999999999998
26.197376 29.190388 8.742546999999998
26.205057999999998 29.203183999999997 11.236211999999998
29.793287 26.796879999999998 11.235456999999998
25.85184 15.861036999999998 8.741644999999998
27.995823999999995 16.120723999999996 7.499999999999998
30.141436 16.357919 8.742546999999998
30.143891999999997 16.343197999999997 11.236211999999998
25.852161999999996 15.846457999999998 11.235456999999998
14.027009999999997 22.658320999999997 8.741644999999998
16.104881999999996 22.069633999999997 7.499999999999998
18.175566999999997 21.459573 8.742546999999998
18.172144999999997 21.445045 11.236211999999998
14.021674999999998 22.644748999999997 11.235456999999998
8.741644999999998 28.64688 14.038773999999998
7.499999999999998 27.975351 16.091371
8.742546999999998 27.325568999999998 18.149936999999998
11.236211999999998 27.339532 18.155208
11.235456999999998 28.661118 14.041924999999997
8.741644999999998 15.264002999999999 24.038994999999996
7.499999999999998 16.119268999999996 22.055909999999997
8.742546999999998 16.953419999999998 20.064904999999996
11.236211999999998 16.939992999999998 20.058386999999996
11.235456999999998 15.250109999999998 24.034564
8.741644999999998 16.557962999999997 13.988482999999999
7.499999999999998 16.074875 16.093412999999998
8.742546999999998 15.613985999999997 18.202320999999998
11.236211999999998 15.628367999999998 18.206307
11.235456999999998 16.572428 13.990331999999999
8.741644999999998 16.528518999999996 30.11301
7.499999999999998 16.120174 27.992312
8.742546999999998 15.689916999999998 25.876942999999997
11.236211999999998 15.675149999999999 25.879105999999997
11.235456999999998 16.514539999999997 30.117161999999997
35.353637 27.488193999999996 18.195475
36.595282 27.975322 16.091476
35.352734999999996 28.484149 13.993618999999999
32.85907 28.498825 13.996330999999998
32.859825 27.502008999999997 18.200143999999998
35.353637 14.827416999999999 14.352081999999998
36.595282 16.11678 16.084609
35.352734999999996 17.387423 17.82971
32.85907 17.375860999999997 17.839146999999997
32.859825 14.814919999999997 14.359596999999997
35.353637 13.938834999999997 27.997785999999998
36.595282 16.098363 27.974496999999996
35.352734999999996 18.257046 27.973744
32.85907 18.257875 27.988646
32.859825 13.937557999999997 28.012312999999995
35.353637 22.202410999999998 25.84439
36.595282 22.070672999999996 28.000021999999998
35.352734999999996 21.916518999999997 30.153194
32.85907 21.901595999999998 30.152950999999998
32.859825 22.188012999999998 25.842074
20.846735 8.741644999999998 26.203687
22.067275999999996 7.499999999999998 27.985367999999998
23.268618 8.742546999999998 29.778881
23.256694999999997 11.236211999999998 29.787857999999996
20.833952999999998 11.235456999999998 26.210706999999996
13.960698999999998 8.741644999999998 28.304109
16.095072 7.499999999999998 27.974628999999997
18.231804999999998 8.742546999999998 27.667576999999998
18.23474 11.236211999999998 27.682211
13.961496999999998 11.235456999999998 28.318668999999996
29.860729999999997 8.741644999999998 23.138212
27.985325 7.499999999999998 22.067249
26.122035999999998 8.742546999999998 20.977265
26.128849 11.236211999999998 20.963986999999996
29.869170999999998 11.235456999999998 23.126319999999996
14.566921999999998 8.741644999999998 17.619923
16.081834999999998 7.499999999999998 16.08072
17.612036999999997 8.742546999999998 14.558093999999999
17.623132 11.236211999999998 14.568076999999999
14.576259999999998 11.235456999999998 17.631124
29.729166999999997 35.353637 26.708353999999996
27.983238999999998 36.595282 27.979511
26.251448999999997 35.352734999999996 29.268235999999998
26.259683999999996 32.85907 29.280682999999996
29.738867 32.859825 26.719241999999998
23.916347999999996 35.353637 29.078557
22.058601999999997 36.595282 27.977245
20.190306999999997 35.352734999999996 26.895864999999997
20.182128999999996 32.85907 26.90835
23.91018 32.859825 29.091770999999998
15.103161999999998 35.353637 26.081536999999997
16.077433 36.595282 28.008945
17.071315999999996 35.352734999999996 29.925219
17.084922999999996 32.85907 29.919089
15.115465999999998 32.859825 26.073711
25.908013 35.353637 15.555515999999997
27.99253 36.595282 16.120224999999998
30.081885 35.352734999999996 16.662906999999997
30.086429 32.85907 16.648691
25.910425 32.859825 15.541133999999998
18.562914 32.892639 12.483503999999998
20.111869 32.244136 11.835000999999998
18.543139999999998 31.619850999999997 11.210714999999997
19.542408 30.117434 12.797398999999999
18.114883 30.715097999999998 13.395063999999998
19.560632 31.290442999999996 13.970407999999997
32.782223 18.166935 19.582368
32.782223 19.084056999999998 18.033412999999996
32.782223 19.966929999999998 19.602141999999997
30.597898999999998 19.907344 18.602874
30.597898999999998 19.062119 20.030399
30.597898999999998 18.248458999999997 18.584649999999996
24.512914 32.892639 12.483503999999998
26.061868999999998 32.244136 11.835000999999998
24.49314 31.619850999999997 11.210714999999997
25.492407999999998 30.117434 12.797398999999999
24.064883 30.715097999999998 13.395063999999998
25.510631999999998 31.290442999999996 13.970407999999997
11.313058999999999 18.166935 24.512914
11.313058999999999 19.084056999999998 26.061868999999998
11.313058999999999 19.966929999999998 24.49314
13.497383 19.907344 25.492407999999998
13.497383 19.062119 24.064883
13.497383 18.248458999999997 25.510631999999998
12.041062999999998 11.645083999999997 24.021779
12.356978999999999 11.329167999999997 25.765559
11.131177999999998 12.554968999999998 25.280585
13.205154999999998 13.570091999999999 25.945041
12.914005999999997 13.861241999999997 24.337963999999996
14.043709999999997 12.731536999999998 24.784917999999998
12.203504999999998 24.116934999999998 11.482641999999998
11.108227999999999 25.034056999999997 12.577918999999998
12.217486999999998 25.916929999999997 11.468659999999998
13.055447999999998 25.857343999999998 13.719798999999998
14.064860999999999 25.012119 12.710386999999997
13.042561999999998 24.198458999999996 13.732684999999998
24.512914 11.313058999999999 24.116934999999998
26.061868999999998 11.313058999999999 25.034056999999997
24.49314 11.313058999999999 25.916929999999997
25.492407999999998 13.497383 25.857343999999998
24.064883 13.497383 25.012119
25.510631999999998 13.497383 24.198458999999996
12.041062999999998 11.645083999999997 18.071779
12.356978999999999 11.329167999999997 19.815558999999997
11.131177999999998 12.554968999999998 19.330585
13.205154999999998 13.570091999999999 19.995040999999997
12.914005999999997 13.861241999999997 18.387963999999997
14.043709999999997 12.731536999999998 18.834918
18.562914 31.611777999999997 32.892639
20.111869 32.260281 32.244136
18.543139999999998 32.884567 31.619850999999997
19.542408 31.297883 30.117434
18.114883 30.700218 30.715097999999998
19.560632 30.124874 31.290442999999996
18.562914 11.313058999999999 18.166935
20.111869 11.313058999999999 19.084056999999998
18.543139999999998 11.313058999999999 19.966929999999998
19.542408 13.497383 19.907344
18.114883 13.497383 19.062119
19.560632 13.497383 18.248458999999997
18.562914 11.313058999999999 24.116934999999998
20.111869 11.313058999999999 25.034056999999997
18.543139999999998 11.313058999999999 25.916929999999997
19.542408 13.497383 25.857343999999998
18.114883 13.497383 25.012119
19.560632 13.497383 24.198458999999996
24.512914 11.313058999999999 18.166935
26.061868999999998 11.313058999999999 19.084056999999998
24.49314 11.313058999999999 19.966929999999998
25.492407999999998 13.497383 19.907344
24.064883 13.497383 19.062119
25.510631999999998 13.497383 18.248458999999997
11.313058999999999 24.116934999999998 24.512914
11.313058999999999 25.034056999999997 26.061868999999998
11.313058999999999 25.916929999999997 24.49314
13.497383 25.857343999999998 25.492407999999998
13.497383 25.012119 24.064883
13.497383 24.198458999999996 25.510631999999998
24.512914 18.166935 32.782223
26.061868999999998 19.084056999999998 32.782223
24.49314 19.966929999999998 32.782223
25.492407999999998 19.907344 30.597898999999998
24.064883 19.062119 30.597898999999998
25.510631999999998 18.248458999999997 30.597898999999998
32.450198 32.054218999999996 26.023502999999998
32.766114 31.738303 24.279723
31.540312999999998 32.964104 24.764696999999998
30.52519 30.890127 24.100241
30.234039999999997 31.181275999999997 25.707317999999997
31.363744999999998 30.051571999999997 25.260364
18.562914 11.202642999999998 31.611777999999997
20.111869 11.851145999999998 32.260281
18.543139999999998 12.475430999999997 32.884567
19.542408 13.977847999999998 31.297883
18.114883 13.380183999999998 30.700218
19.560632 12.804838999999998 30.124874
32.782223 24.116934999999998 19.582368
32.782223 25.034056999999997 18.033412999999996
32.782223 25.916929999999997 19.602141999999997
30.597898999999998 25.857343999999998 18.602874
30.597898999999998 25.012119 20.030399
30.597898999999998 24.198458999999996 18.584649999999996
24.512914 32.782223 25.928347
26.061868999999998 32.782223 25.011225
24.49314 32.782223 24.128351999999996
25.492407999999998 30.597898999999998 24.187938
24.064883 30.597898999999998 25.033163
25.510631999999998 30.597898999999998 25.846822999999997
11.135356999999999 31.544491999999998 25.30264
12.368395999999997 32.777530999999996 25.749413999999998
12.025467999999998 32.434602999999996 24.015869
14.039858999999998 31.359893999999997 24.764591999999997
12.903483999999999 30.223519 24.352843999999997
13.219527999999997 30.539562999999998 25.950487
19.072640999999997 30.972641 13.122640999999998
30.972641 19.072640999999997 19.072640999999997
25.022640999999997 30.972641 13.122640999999998
13.122640999999998 19.072640999999997 25.022640999999997
13.122640999999998 13.122640999999998 25.022640999999997
13.122640999999998 25.022640999999997 13.122640999999998
25.022640999999997 13.122640999999998 25.022640999999997
13.122640999999998 13.122640999999998 19.072640999999997
19.072640999999997 30.972641 30.972641
19.072640999999997 13.122640999999998 19.072640999999997
19.072640999999997 13.122640999999998 25.022640999999997
25.022640999999997 13.122640999999998 19.072640999999997
13.122640999999998 25.022640999999997 25.022640999999997
25.022640999999997 19.072640999999997 30.972641
30.972641 30.972641 25.022640999999997
19.072640999999997 13.122640999999998 30.972641
30.972641 25.022640999999997 19.072640999999997
25.022640999999997 30.972641 25.022640999999997
13.122640999999998 30.972641 25.022640999999997
16.097640999999996 16.097640999999996 16.097640999999996
16.097640999999996 16.097640999999996 22.047641
16.097640999999996 16.097640999999996 27.997640999999998
16.097640999999996 22.047641 16.097640999999996
16.097640999999996 22.047641 22.047641
16.097640999999996 22.047641 27.997640999999998
16.097640999999996 27.997640999999998 16.097640999999996
16.097640999999996 27.997640999999998 22.047641
16.097640999999996 27.997640999999998 27.997640999999998
22.047641 16.097640999999996 16.097640999999996
22.047641 16.097640999999996 22.047641
22.047641 16.097640999999996 27.997640999999998
22.047641 22.047641 16.097640999999996
22.047641 22.047641 22.047641
22.047641 22.047641 27.997640999999998
22.047641 27.997640999999998 16.097640999999996
22.047641 27.997640999999998 22.047641
22.047641 27.997640999999998 27.997640999999998
27.997640999999998 16.097640999999996 16.097640999999996
27.997640999999998 16.097640999999996 22.047641
27.997640999999998 16.097640999999996 27.997640999999998
27.997640999999998 22.047641 16.097640999999996
27.997640999999998 22.047641 22.047641
27.997640999999998 22.047641 27.997640999999998
27.997640999999998 27.997640999999998 16.097640999999996
27.997640999999998 27.997640999999998 22.047641
27.997640999999998 27.997640999999998 27.997640999999998
22.047641 22.047641 30.972641
16.097640999999996 16.097640999999996 30.972641
16.097640999999996 27.997640999999998 30.972641
27.997640999999998 16.097640999999996 30.972641
22.047641 27.997640999999998 13.122640999999998
27.997640999999998 27.997640999999998 13.122640999999998
27.997640999999998 16.097640999999996 13.122640999999998
16.097640999999996 22.047641 13.122640999999998
13.122640999999998 27.997640999999998 16.097640999999996
13.122640999999998 16.097640999999996 22.047641
13.122640999999998 16.097640999999996 16.097640999999996
13.122640999999998 16.097640999999996 27.997640999999998
30.972641 27.997640999999998 16.097640999999996
30.972641 16.097640999999996 16.097640999999996
30.972641 16.097640999999996 27.997640999999998
30.972641 22.047641 27.997640999999998
22.047641 13.122640999999998 27.997640999999998
16.097640999999996 13.122640999999998 27.997640999999998
27.997640999999998 13.122640999999998 22.047641
16.097640999999996 13.122640999999998 16.097640999999996
27.997640999999998 30.972641 27.997640999999998
22.047641 30.972641 27.997640999999998
16.097640999999996 30.972641 27.997640999999998
27.997640999999998 30.972641 16.097640999999996
