3_train/255_cspbbr3_MA-PhS_4_0.60\255_cspbbr3_MA-PhS_4_0.60.xyz
1.0
50.045282 0 0
0 50.045282 0
0 0 50.045282
Br C Cs H N Pb S 
180 411 61 606 51 64 60 
Cartesian
16.097641 16.097641 19.072640999999997
16.097641 13.122641 22.047641
16.097641 16.097641 25.022641
16.097641 16.097641 30.972641000000003
16.097641 19.072640999999997 16.097641
16.097641 22.047641 19.072640999999997
16.097641 19.072640999999997 22.047641
16.097641 22.047641 25.022641
16.097641 19.072640999999997 27.997641
13.122641 22.047641 27.997641
16.097641 22.047641 30.972641000000003
16.097641 19.072640999999997 33.947641
13.122641 22.047641 33.947641
16.097641 27.997641 13.122641
16.097641 25.022641 16.097641
13.122641 27.997641 16.097641
16.097641 27.997641 19.072640999999997
16.097641 25.022641 22.047641
16.097641 27.997641 25.022641
16.097641 25.022641 27.997641
13.122641 27.997641 27.997641
16.097641 27.997641 30.972641000000003
16.097641 25.022641 33.947641
16.097641 30.972641000000003 16.097641
13.122641 33.947641 16.097641
16.097641 33.947641 19.072640999999997
16.097641 30.972641000000003 22.047641
16.097641 33.947641 25.022641
16.097641 30.972641000000003 27.997641
13.122641 33.947641 27.997641
16.097641 33.947641 30.972641000000003
16.097641 30.972641000000003 33.947641
16.097641 33.947641 36.922641
16.097641 36.922641 22.047641
16.097641 36.922641 27.997641
16.097641 36.922641 33.947641
19.072640999999997 16.097641 16.097641
22.047641 16.097641 19.072640999999997
19.072640999999997 16.097641 22.047641
22.047641 16.097641 25.022641
22.047641 13.122641 27.997641
19.072640999999997 16.097641 27.997641
22.047641 16.097641 30.972641000000003
19.072640999999997 16.097641 33.947641
22.047641 19.072640999999997 16.097641
19.072640999999997 22.047641 16.097641
22.047641 22.047641 19.072640999999997
22.047641 19.072640999999997 22.047641
19.072640999999997 22.047641 22.047641
22.047641 22.047641 25.022641
22.047641 19.072640999999997 27.997641
19.072640999999997 22.047641 27.997641
22.047641 22.047641 30.972641000000003
22.047641 19.072640999999997 33.947641
19.072640999999997 22.047641 33.947641
22.047641 22.047641 36.922641
22.047641 25.022641 16.097641
19.072640999999997 27.997641 16.097641
22.047641 27.997641 19.072640999999997
22.047641 25.022641 22.047641
19.072640999999997 27.997641 22.047641
22.047641 27.997641 25.022641
22.047641 25.022641 27.997641
19.072640999999997 27.997641 27.997641
22.047641 27.997641 30.972641000000003
22.047641 25.022641 33.947641
19.072640999999997 27.997641 33.947641
22.047641 27.997641 36.922641
22.047641 30.972641000000003 16.097641
19.072640999999997 33.947641 16.097641
22.047641 33.947641 19.072640999999997
22.047641 30.972641000000003 22.047641
19.072640999999997 33.947641 22.047641
22.047641 33.947641 25.022641
22.047641 30.972641000000003 27.997641
19.072640999999997 33.947641 27.997641
22.047641 33.947641 30.972641000000003
22.047641 30.972641000000003 33.947641
19.072640999999997 33.947641 33.947641
22.047641 36.922641 16.097641
27.997641 16.097641 13.122641
25.022641 16.097641 16.097641
27.997641 16.097641 19.072640999999997
27.997641 13.122641 22.047641
25.022641 16.097641 22.047641
27.997641 16.097641 25.022641
27.997641 13.122641 27.997641
25.022641 16.097641 27.997641
27.997641 16.097641 30.972641000000003
25.022641 16.097641 33.947641
27.997641 16.097641 36.922641
27.997641 22.047641 13.122641
27.997641 19.072640999999997 16.097641
25.022641 22.047641 16.097641
27.997641 22.047641 19.072640999999997
27.997641 19.072640999999997 22.047641
25.022641 22.047641 22.047641
27.997641 22.047641 25.022641
27.997641 19.072640999999997 27.997641
25.022641 22.047641 27.997641
27.997641 22.047641 30.972641000000003
27.997641 19.072640999999997 33.947641
25.022641 22.047641 33.947641
27.997641 22.047641 36.922641
27.997641 25.022641 16.097641
25.022641 27.997641 16.097641
27.997641 27.997641 19.072640999999997
27.997641 25.022641 22.047641
25.022641 27.997641 22.047641
27.997641 27.997641 25.022641
27.997641 25.022641 27.997641
25.022641 27.997641 27.997641
27.997641 27.997641 30.972641000000003
27.997641 25.022641 33.947641
25.022641 27.997641 33.947641
27.997641 33.947641 13.122641
27.997641 30.972641000000003 16.097641
25.022641 33.947641 16.097641
27.997641 33.947641 19.072640999999997
27.997641 30.972641000000003 22.047641
25.022641 33.947641 22.047641
27.997641 33.947641 25.022641
27.997641 30.972641000000003 27.997641
25.022641 33.947641 27.997641
27.997641 33.947641 30.972641000000003
27.997641 30.972641000000003 33.947641
25.022641 33.947641 33.947641
33.947641 13.122641 16.097641
30.972641000000003 16.097641 16.097641
33.947641 16.097641 19.072640999999997
30.972641000000003 16.097641 22.047641
33.947641 16.097641 25.022641
30.972641000000003 16.097641 27.997641
33.947641 16.097641 30.972641000000003
33.947641 13.122641 33.947641
30.972641000000003 16.097641 33.947641
33.947641 19.072640999999997 16.097641
30.972641000000003 22.047641 16.097641
33.947641 22.047641 19.072640999999997
33.947641 19.072640999999997 22.047641
30.972641000000003 22.047641 22.047641
33.947641 22.047641 25.022641
33.947641 19.072640999999997 27.997641
30.972641000000003 22.047641 27.997641
33.947641 22.047641 30.972641000000003
33.947641 19.072640999999997 33.947641
30.972641000000003 22.047641 33.947641
33.947641 27.997641 13.122641
33.947641 25.022641 16.097641
30.972641000000003 27.997641 16.097641
33.947641 27.997641 19.072640999999997
33.947641 25.022641 22.047641
30.972641000000003 27.997641 22.047641
33.947641 27.997641 25.022641
33.947641 25.022641 27.997641
30.972641000000003 27.997641 27.997641
33.947641 27.997641 30.972641000000003
33.947641 25.022641 33.947641
30.972641000000003 27.997641 33.947641
33.947641 27.997641 36.922641
33.947641 33.947641 13.122641
33.947641 30.972641000000003 16.097641
30.972641000000003 33.947641 16.097641
33.947641 33.947641 19.072640999999997
33.947641 30.972641000000003 22.047641
30.972641000000003 33.947641 22.047641
33.947641 33.947641 25.022641
33.947641 30.972641000000003 27.997641
30.972641000000003 33.947641 27.997641
33.947641 33.947641 30.972641000000003
33.947641 30.972641000000003 33.947641
30.972641000000003 33.947641 33.947641
33.947641 36.922641 16.097641
33.947641 36.922641 27.997641
36.922641 16.097641 27.997641
36.922641 22.047641 16.097641
36.922641 22.047641 22.047641
36.922641 27.997641 22.047641
36.922641 33.947641 16.097641
36.922641 33.947641 33.947641
34.20262 20.859045000000002 40.754179
34.211619999999996 20.854916 39.366141
33.947641 22.047641 38.634892
33.674352999999996 23.231631999999998 40.754672
33.933232 22.044022 41.453875
33.68062 23.239459000000004 39.366608
32.738671 15.970495 40.754179
32.733609 15.961985 39.366141
33.947641 16.097641 38.634892
35.153979 16.243482 40.754672
33.945574 16.112353 41.453875
35.161095 16.236418 39.366608
29.212708999999997 28.03483 40.754179
29.218389000000002 28.042941 39.366141
27.997641 27.997641 38.634892
26.783811999999998 27.941613000000004 40.754672
27.998612 27.982816 41.453875
26.777239 27.949185 39.366608
32.916395 34.591307 40.754179
32.907168 34.587714 39.366141
33.947641 33.947641 38.634892
34.988316 33.320332 40.754672
33.955064 33.96051 41.453875
34.989578 33.310385 39.366608
22.519426000000003 35.067994999999996 40.754179
22.514414000000002 35.076534 39.366141
22.047641 33.947641 38.634892
21.593502 32.820574 40.754672
22.061525000000003 33.942355 41.453875
21.583882 32.817749 39.366608
17.042009 15.332172 40.754179
17.051606999999997 15.334604 39.366141
16.097641 16.097641 38.634892
15.141906 16.848036 40.754672
16.088693 16.085780999999997 41.453875
15.141875 16.858063 39.366608
14.887896 21.928099000000003 40.754179
14.88278 21.919621 39.366141
16.097641 22.047641 38.634892
17.304872 22.185895000000002 40.754672
16.095667 22.062365999999997 41.453875
17.311943 22.178786000000002 39.366608
20.926428 15.627901 40.754179
20.924028999999997 15.618295 39.366141
22.047641 16.097641 38.634892
23.160953 16.584527 40.754672
22.041427 16.111136000000002 41.453875
23.169801 16.579810000000002 39.366608
15.133712 27.256956000000002 40.754179
15.133848 27.247055000000003 39.366141
16.097641 27.997641 38.634892
17.049549 28.752884 40.754672
16.088185 28.009099 41.453875
17.059309 28.750585 39.366608
27.76961 35.1417 40.754179
27.760705 35.146031 39.366141
27.997641 33.947641 38.634892
28.244081 32.757772 40.754672
28.012128000000004 33.950934 41.453875
28.237638000000004 32.750089 39.366608
15.034899 15.507427 9.291103
15.025867 15.511486 10.679141
16.097641 16.097641 11.41039
17.168965 16.671039 9.29061
16.104398 16.08441 8.591407
17.170734 16.680909 10.678674
32.732222 16.120692 9.291103
32.726449 16.128736 10.679141
33.947641 16.097641 11.41039
35.16204 16.055737999999998 9.29061
33.946843 16.082805999999998 8.591407
35.168524 16.063386 10.678674
21.370221 32.938247 9.291103
21.360332 32.937748 10.679141
22.047641 33.947641 11.41039
22.740358999999998 34.945971 9.29061
22.059682000000002 33.938938 8.591407
22.737439000000002 34.955563 10.678674
32.855926 22.582366999999998 9.291103
32.854093999999996 22.592098 10.679141
33.947641 22.047641 11.41039
35.030462 21.496262 9.29061
33.940646 22.034534 8.591407
35.039572 21.500452 10.678674
23.008872000000004 28.741825 9.291103
23.018414 28.739178000000003 10.679141
22.047641 27.997641 11.41039
21.075383000000002 27.268782 9.29061
22.038960000000003 28.009697000000003 8.591407
21.075128 27.258758 10.678674
20.883983999999998 15.745965 9.291103
20.876016999999997 15.751845 10.679141
22.047641 16.097641 11.41039
23.216123000000003 16.431064 9.29061
22.051442 16.083278999999997 8.591407
23.219942000000003 16.440334999999997 10.678674
16.800444 23.039529 9.291103
16.810342 23.039777 10.679141
16.097641 22.047641 11.41039
15.379826 21.067200999999997 9.29061
16.085825 22.056646 8.591407
15.382501 21.057538 10.678674
22.568956 20.949458 9.291103
22.564329 20.940704 10.679141
22.047641 22.047641 11.41039
21.543655 23.153317 9.29061
22.061275000000002 22.053541000000003 8.591407
21.533918 23.15571 10.678674
29.014589 27.331614000000002 9.291103
29.015197999999998 27.321731 10.679141
27.997641 27.997641 11.41039
26.991585 28.679088999999998 9.29061
28.006208 28.009779 8.591407
26.982025999999998 28.676062 10.678674
16.893526 33.028761 9.291103
16.891408 33.019087999999996 10.679141
16.097641 33.947641 11.41039
15.316450999999999 34.878374 9.29061
16.109202 33.956971 8.591407
15.306429 34.878078 10.678674
9.291103 33.948322 20.832003999999998
10.679141 33.940392 20.826075
11.41039 33.947641 22.047641
9.29061 33.965828 23.262627000000002
8.591407 33.962489 22.047133000000002
10.678674 33.958055 23.26896
9.291103 28.823839 33.055917
10.679141 28.822046 33.046179
11.41039 27.997641 33.947641
9.29061 27.185733 34.851703
8.591407 28.008882999999997 33.957353
10.678674 27.175727000000002 34.851071
9.291103 23.162347000000004 16.582619
10.679141 23.170945000000003 16.577708
11.41039 22.047641 16.097641
9.29061 20.926014000000002 15.630228
8.591407 22.042191000000003 16.111462
10.678674 20.923302 15.620575
9.291103 28.249784 23.236842000000003
10.679141 28.258774000000003 23.240992
11.41039 27.997641 22.047641
9.29061 27.727178000000002 20.863000999999997
8.591407 27.983224 22.051226
10.678674 27.733463999999998 20.85519
9.291103 17.173330999999997 28.563914000000004
10.679141 17.182270000000003 28.559654000000002
11.41039 16.097641 27.997641
9.29061 15.013748 27.448372
8.591407 16.091182 28.011020000000002
10.678674 15.011759 27.438544999999998
9.291103 15.245652999999999 21.180525
10.679141 15.235840999999999 21.181859
11.41039 16.097641 22.047641
9.29061 16.962623999999998 22.901061
8.591407 16.10787 22.036867
10.678674 16.961523 22.911026999999997
9.291103 32.732957 33.995789
10.679141 32.727352 34.003951
11.41039 33.947641 33.947641
9.29061 35.160916 33.880667
8.591407 33.946537 33.932826
10.678674 35.167556 33.888179
9.291103 20.961712 21.501258999999997
10.679141 20.952854000000002 21.505682999999998
11.41039 22.047641 22.047641
9.29061 23.141458999999998 22.576871000000004
8.591407 22.053853000000004 22.034146
10.678674 23.143628 22.586660000000002
9.291103 15.801436 17.276639
10.679141 15.807687 17.284319
11.41039 16.097641 16.097641
9.29061 16.375385 14.914686999999999
8.591407 16.083115 16.094524
10.678674 16.384465 14.910434
9.291103 17.305478 33.810147
10.679141 17.310467000000003 33.801594
11.41039 16.097641 33.947641
9.29061 14.892596 34.103807
8.591407 16.099834 33.962335
10.678674 14.88542 34.096804
40.754179 33.098164 21.178065
39.366141 33.099699 21.168283000000002
38.634892 33.947641 22.047641
40.754672 34.783159 22.929928000000004
41.453875 33.936659 22.057647000000003
39.366608 34.793146 22.929032
40.754179 14.939659 21.677704
39.366141 14.93643 21.668343999999998
38.634892 16.097641 22.047641
40.754672 17.24925 22.435349000000002
41.453875 16.092630999999997 22.061627
39.366608 17.257652 22.429876999999998
40.754179 22.233441 29.198996
39.366141 22.226506 29.206063
38.634892 22.047641 27.997641
40.754672 21.880589 26.794057000000002
41.453875 22.062393 27.995882
39.366608 21.871942000000004 26.788981
40.754179 21.954936000000004 32.735544
39.366141 21.962395 32.729031
38.634892 22.047641 33.947641
40.754672 22.121482999999998 35.160517
41.453875 22.032797000000002 33.948258
39.366608 22.129713000000002 35.166244
40.754179 28.331007 29.166674999999998
39.366141 28.325003000000002 29.174549
38.634892 27.997641 27.997641
40.754672 27.682601 26.824069
41.453875 28.012061000000003 27.994066000000004
39.366608 27.673391000000002 26.820104999999998
40.754179 32.732017 27.991906
39.366141 32.72613 27.983944
38.634892 33.947641 27.997641
40.754672 35.162514 28.022241
41.453875 33.947054 28.012486000000003
39.366608 35.168888 28.014501000000003
40.754179 16.246608000000002 32.741165
39.366141 16.255208 32.736258
38.634892 16.097641 33.947641
40.754672 15.93003 35.151147
41.453875 16.082969 33.945309
39.366608 15.936964 35.15839
40.754179 27.054523000000003 33.180632
39.366141 27.054932 33.170738
38.634892 27.997641 33.947641
40.754672 28.92834 34.728871
41.453875 27.987872000000003 33.958834
39.366608 28.938160000000003 34.726842
40.754179 26.78705 16.208287
39.366141 26.780427000000003 16.200926000000003
38.634892 27.997641 16.097641
40.754672 29.209291 16.005844
41.453875 27.998478 16.112474
39.366608 29.214895 15.99753
40.754179 16.495398 17.246364
39.366141 16.48984 17.254558
38.634892 16.097641 16.097641
40.754672 15.71793 14.94337
41.453875 16.11184 16.093271
39.366608 15.708514 14.939924
34.832197 9.291103 28.831508
34.831066 10.679141 28.841345000000004
33.947641 11.41039 27.997641
33.076509 9.29061 27.150499000000003
33.958202 8.591407 27.987192
33.066568 10.678674 27.151805000000003
28.33148 9.291103 14.928742
28.340736 10.679141 14.925222999999999
27.997641 11.41039 16.097641
27.645840999999997 9.29061 17.260722
27.983506 8.591407 16.093066999999998
27.651572 10.678674 17.268949999999997
22.395037000000002 9.291103 17.262583
22.389128 10.679141 17.270528
22.047641 11.41039 16.097641
21.718515000000004 9.29061 14.927940999999999
22.062016999999997 8.591407 16.093893
21.709258 10.678674 14.924088
21.418627 9.291103 32.907393
21.42235 10.679141 32.898218
22.047641 11.41039 33.947641
22.660167 9.29061 34.997085
22.034668000000003 8.591407 33.954882
22.670095000000003 10.678674 34.998488
33.999359 9.291103 23.262178
33.991684 10.679141 23.268435000000004
33.947641 11.41039 22.047641
33.914802 9.29061 20.832963
33.962497 8.591407 22.047525
33.90677 10.678674 20.826960999999997
15.051957 9.291103 34.567576
15.042814 10.679141 34.563773
16.097641 11.41039 33.947641
17.152378 9.29061 33.344274
16.104768 8.591407 33.960676
17.153866999999998 10.678674 33.334359
17.294411 9.291103 28.210988
17.298851 10.679141 28.219838000000003
16.097641 11.41039 27.997641
14.904835 9.29061 27.765835000000003
16.100755 8.591407 27.983114999999998
14.897232 10.678674 27.772371999999997
29.208429000000002 9.291103 34.056115
29.213622 10.679141 34.064546
27.997641 11.41039 33.947641
26.789196000000004 9.29061 33.820433
27.99948 8.591407 33.932899
26.78219 10.678674 33.827606
22.808489 9.291103 22.995736
22.80601 10.679141 23.005323000000004
22.047641 11.41039 22.047641
21.301923000000002 9.29061 21.088253
22.059544000000002 8.591407 22.038750999999998
21.291897 10.678674 21.088172999999998
15.299453999999999 9.291103 15.180759
15.301548 10.679141 15.171082
16.097641 11.41039 16.097641
16.881162 9.29061 17.026412
16.086103 8.591407 16.107
16.891184000000003 10.678674 17.026091
15.984208 40.754179 17.307975
15.991553999999999 39.366141 17.314614
16.097641 38.634892 16.097641
16.192225999999998 40.754672 14.886206
16.082810000000002 41.453875 16.09677
16.200554 39.366608 14.880621
23.191094 40.754179 22.460302
23.19936 39.366141 22.454850999999998
22.047641 38.634892 22.047641
20.898406 40.754672 21.652952
22.043087 41.453875 22.061782
20.895082000000002 39.366608 21.643492000000002
26.808829000000003 40.754179 16.351609
26.804692000000003 39.366141 16.360605
27.997641 38.634892 16.097641
29.181863999999997 40.754672 15.82536
27.994034 41.453875 16.083229
29.189684999999997 39.366608 15.831634
26.789700000000003 40.754179 34.084216
26.784703999999998 39.366141 34.092765
27.997641 38.634892 33.947641
29.202804 40.754672 33.792392
27.99546 41.453875 33.932946
29.209975 39.366608 33.7994
20.851523999999998 40.754179 34.164617
20.84711 39.366141 34.17348
22.047641 38.634892 33.947641
23.239739 40.754672 33.712218
22.044483 41.453875 33.933124
23.247362000000003 39.366608 33.718732
28.212270000000004 40.754179 29.194181
28.221125 39.366141 29.198611999999997
27.997641 38.634892 27.997641
27.764557000000003 40.754672 26.805084
27.983117999999997 41.453875 28.000771
27.771086000000004 39.366608 26.797474
34.776684 40.754179 34.83672
34.786527 39.366141 34.835643
33.947641 38.634892 33.947641
33.10525 40.754672 33.071914
33.937134 41.453875 33.958145
33.106609999999996 39.366608 33.06198
28.656644 40.754179 21.026128
28.653190000000002 39.366141 21.016848
27.997641 38.634892 22.047641
27.354851000000004 40.754672 23.078826
28.010398000000002 41.453875 22.055256
27.344887 39.366608 23.07994
33.788183 40.754179 20.842506999999998
33.779541 39.366141 20.837674
33.947641 38.634892 22.047641
34.125717 40.754672 23.249644000000004
33.962292 41.453875 22.045181
34.118846 39.366608 23.256946
20.884332 40.754179 27.644813
20.87636 39.366141 27.650686
22.047641 38.634892 27.997641
23.215792 40.754672 28.332221000000004
22.051456 41.453875 27.983283
23.219602000000002 39.366608 28.341496
25.022641 11.64698 25.022641
30.972641000000003 25.022641 38.398302
30.972641000000003 19.072640999999997 38.398302
30.972641000000003 19.072640999999997 11.64698
25.022641 11.64698 30.972641000000003
25.022641 38.398302 30.972641000000003
30.972641000000003 25.022641 11.64698
12.079191 30.972641000000003 37.966091000000006
30.972641000000003 11.64698 30.972641000000003
37.966091000000006 37.966091000000006 19.072640999999997
25.022641 30.972641000000003 11.64698
37.966091000000006 30.972641000000003 12.079191
30.972641000000003 38.398302 19.072640999999997
25.022641 11.64698 19.072640999999997
37.966091000000006 12.079191 25.022641
19.072640999999997 30.972641000000003 38.398302
30.972641000000003 37.966091000000006 37.966091000000006
19.072640999999997 38.398302 25.022641
37.966091000000006 37.966091000000006 30.972641000000003
38.398302 25.022641 30.972641000000003
19.072640999999997 11.64698 25.022641
12.079191 25.022641 37.966091000000006
19.072640999999997 30.972641000000003 11.64698
19.072640999999997 25.022641 38.398302
11.64698 30.972641000000003 19.072640999999997
19.072640999999997 37.966091000000006 37.966091000000006
11.64698 30.972641000000003 25.022641
38.398302 30.972641000000003 25.022641
12.079191 30.972641000000003 12.079191
37.966091000000006 19.072640999999997 37.966091000000006
38.398302 25.022641 19.072640999999997
19.072640999999997 12.079191 12.079191
25.022641 12.079191 37.966091000000006
30.972641000000003 30.972641000000003 38.398302
37.966091000000006 30.972641000000003 37.966091000000006
30.972641000000003 38.398302 30.972641000000003
11.64698 25.022641 19.072640999999997
19.072640999999997 25.022641 11.64698
19.072640999999997 38.398302 30.972641000000003
19.072640999999997 12.079191 37.966091000000006
38.398302 19.072640999999997 19.072640999999997
11.64698 30.972641000000003 30.972641000000003
11.64698 25.022641 30.972641000000003
38.398302 30.972641000000003 19.072640999999997
11.64698 19.072640999999997 25.022641
25.022641 25.022641 11.64698
37.966091000000006 12.079191 30.972641000000003
19.072640999999997 11.64698 30.972641000000003
19.072640999999997 19.072640999999997 11.64698
12.079191 37.966091000000006 25.022641
25.022641 30.972641000000003 38.398302
13.122641 13.122641 25.022641
13.122641 13.122641 30.972641000000003
13.122641 19.072640999999997 13.122641
13.122641 19.072640999999997 19.072640999999997
13.122641 19.072640999999997 30.972641000000003
13.122641 19.072640999999997 36.922641
13.122641 25.022641 13.122641
13.122641 25.022641 25.022641
13.122641 36.922641 19.072640999999997
13.122641 36.922641 30.972641000000003
19.072640999999997 13.122641 19.072640999999997
19.072640999999997 19.072640999999997 19.072640999999997
19.072640999999997 19.072640999999997 25.022641
19.072640999999997 19.072640999999997 30.972641000000003
19.072640999999997 19.072640999999997 36.922641
19.072640999999997 25.022641 19.072640999999997
19.072640999999997 25.022641 25.022641
19.072640999999997 25.022641 30.972641000000003
19.072640999999997 30.972641000000003 19.072640999999997
19.072640999999997 30.972641000000003 25.022641
19.072640999999997 30.972641000000003 30.972641000000003
19.072640999999997 36.922641 13.122641
19.072640999999997 36.922641 19.072640999999997
25.022641 13.122641 13.122641
25.022641 19.072640999999997 13.122641
25.022641 19.072640999999997 19.072640999999997
25.022641 19.072640999999997 25.022641
25.022641 19.072640999999997 30.972641000000003
25.022641 19.072640999999997 36.922641
25.022641 25.022641 19.072640999999997
25.022641 25.022641 25.022641
25.022641 25.022641 30.972641000000003
25.022641 25.022641 36.922641
25.022641 30.972641000000003 19.072640999999997
25.022641 30.972641000000003 25.022641
25.022641 30.972641000000003 30.972641000000003
25.022641 36.922641 13.122641
25.022641 36.922641 25.022641
25.022641 36.922641 36.922641
30.972641000000003 13.122641 13.122641
30.972641000000003 13.122641 19.072640999999997
30.972641000000003 19.072640999999997 19.072640999999997
30.972641000000003 19.072640999999997 25.022641
30.972641000000003 19.072640999999997 30.972641000000003
30.972641000000003 25.022641 19.072640999999997
30.972641000000003 25.022641 25.022641
30.972641000000003 25.022641 30.972641000000003
30.972641000000003 30.972641000000003 13.122641
30.972641000000003 30.972641000000003 19.072640999999997
30.972641000000003 30.972641000000003 25.022641
30.972641000000003 30.972641000000003 30.972641000000003
30.972641000000003 36.922641 13.122641
30.972641000000003 36.922641 25.022641
36.922641 13.122641 19.072640999999997
36.922641 19.072640999999997 13.122641
36.922641 19.072640999999997 25.022641
36.922641 19.072640999999997 30.972641000000003
36.922641 25.022641 13.122641
36.922641 25.022641 25.022641
36.922641 25.022641 36.922641
36.922641 30.972641000000003 30.972641000000003
33.467038 24.15227 41.303637
33.92524 22.041783000000002 42.545282
34.405222 19.937139000000002 41.302735
34.419934 19.939649000000003 38.809070000000006
33.480916 24.156750000000002 38.809825000000004
36.091442 16.351727 41.303637
33.944198 16.120538 42.545282
31.800448000000003 15.867071 41.302735
31.80138 15.852175 38.809070000000006
36.094421 16.337452 38.809825000000004
25.840904000000002 27.903149 41.303637
27.999377000000003 27.974550999999998 42.545282
30.156017 28.068431000000004 41.302735
30.156191999999997 28.083354 38.809070000000006
25.838991999999998 27.917606 38.809825000000004
35.793908 32.828828 41.303637
33.959016 33.967809 42.545282
32.11317 35.087078 41.302735
32.104739 35.074763 38.809070000000006
35.787472 32.815742 38.809825000000004
21.236125 31.94717 41.303637
22.069359 33.939612 42.545282
22.881391999999998 35.93974 41.302735
22.867894999999997 35.946109 38.809070000000006
21.222184 31.951447 38.809825000000004
14.402792 17.434776 41.303637
16.083875 16.079023 42.545282
17.77825 14.741487 41.302735
17.788128999999998 14.752673 38.809070000000006
14.410787 17.446972000000002 38.809825000000004
18.242997000000003 22.288244 41.303637
16.094341999999997 22.07056 42.545282
13.949041 21.830575000000003 41.302735
13.949879 21.815674 38.809070000000006
18.245886 22.27395 38.809825000000004
24.027589 16.958019 41.303637
22.037753000000002 16.118578 42.545282
20.057676 15.258808 41.302735
20.062856 15.244811 38.809070000000006
24.034550000000003 16.945205 38.809825000000004
17.791953999999997 29.335456 41.303637
16.082731000000003 28.015356000000004 42.545282
14.388138 26.678095 41.302735
14.396723 26.665886999999998 38.809070000000006
17.801958 29.324847 38.809825000000004
28.430521 31.832679999999996 41.303637
28.020169000000003 33.952991 42.545282
27.587909000000003 36.067952 41.302735
27.573144 36.065775 38.809070000000006
28.416546000000004 31.828516 38.809825000000004
17.998584 17.120803000000002 8.741645
16.107972 16.076919 7.5
14.207427 15.053279999999999 8.742547
14.199634999999999 15.06601 11.236212
17.992824 17.134199000000002 11.235457
36.105331 16.028247 8.741645
33.946173 16.074533000000002 7.5
31.788587 16.143315 8.742547
31.788238999999997 16.158236000000002 11.236212
36.107075 16.042724999999997 11.235457
23.27418 35.724167 8.741645
22.066274999999997 33.933896 7.5
20.840307000000003 32.157126 8.742547
20.827573 32.164911 11.236212
23.262952 35.733472 11.235457
35.873688 21.072557 8.741645
33.936542 22.027320000000003 7.5
32.010331 23.001804999999997 8.742547
32.016323 23.015473999999998 11.236212
35.881389 21.084941 11.235457
20.323347 26.698698 8.741645
22.034294000000003 28.016562 7.5
23.758122999999998 29.315916 8.742547
23.767751000000004 29.304512000000003 11.236212
20.331066999999997 26.686326 11.235457
24.122193000000003 16.694865 8.741645
22.053348 16.075200000000002 7.5
19.979083000000003 15.477427 8.742547
19.974165 15.491518 11.236212
24.119402 16.709178 11.235457
14.82644 20.302794 8.741645
16.079362 22.061854000000004 7.5
17.349998999999997 23.806959 8.742547
17.36253 23.798853 11.236212
14.837428 20.293208 11.235457
21.147655 24.009902000000004 8.741645
22.068979 22.056631000000003 7.5
22.969466000000004 20.094735999999997 8.742547
22.956266 20.087771 11.236212
21.133919 24.005007 11.235457
26.207435000000004 29.204126000000002 8.741645
28.011175 28.016427999999998 7.5
29.801619000000002 26.810516999999997 8.742547
29.793976999999998 26.797697 11.236212
26.198256999999998 29.192794 11.235457
14.705899 35.597944 8.741645
16.1158 33.962008 7.5
17.507927000000002 32.312192 8.742547
17.497069 32.301952 11.236212
14.693971 35.589555 11.235457
8.741645 33.9749 24.206274999999998
7.5 33.970773 22.046625
8.742547 33.944124 19.888106999999998
11.236212 33.929213 19.887467
11.235457 33.960391 24.207736000000004
8.741645 26.551437 35.550431
7.5 28.015309000000002 33.962608
8.742547 29.461882000000003 32.360317
11.236212 29.451372999999997 32.349719
11.235457 26.539796000000003 35.541648
8.741645 20.056888999999998 15.262565
7.5 22.039355999999998 16.119263
8.742547 24.029758 16.954852000000002
11.236212 24.036286000000004 16.94143
11.235457 20.061331000000003 15.248675
8.741645 27.522060000000003 19.941871
7.5 27.975226 22.053446
8.742547 28.450186000000002 24.159229000000003
11.236212 28.464904000000004 24.156753000000002
11.235457 27.535947999999998 19.937424999999998
8.741645 14.174267 27.017296
7.5 16.087775999999998 28.018589
8.742547 18.010764 28.99942
11.236212 18.018268 28.986519
11.235457 14.179726 27.003773000000002
8.741645 17.630831 23.567435000000003
7.5 16.113419999999998 22.030695
8.742547 14.580746 20.510556
11.236212 14.569668 20.520557
11.235457 17.621510999999998 23.578651
8.741645 36.103438 33.833699
7.5 33.945697 33.924568
8.742547 31.789991 34.037895999999996
11.236212 31.789951000000002 34.052821
11.235457 36.10548 33.848138
8.741645 23.988730000000004 22.992426000000002
7.5 22.057119 22.026515000000003
8.742547 20.116407000000002 21.081237
11.236212 20.109141 21.094274
11.235457 23.983521000000003 23.006047000000002
8.741645 16.596004999999998 13.997145999999999
7.5 16.074956 16.093003
8.742547 15.576029 18.193237
11.236212 15.590337 18.197482
11.235457 16.610433999999998 13.999257
8.741645 13.956094 34.220076
7.5 16.10128 33.970508
8.742547 18.242781 33.698692
11.236212 18.241721 33.683805
11.235457 13.952994 34.205827
41.303637 35.435702 23.611649
42.545282 33.930375 22.063069
41.302735 32.441959 20.499571
38.809070000000006 32.452185 20.488698999999997
38.809825000000004 35.447106 23.602561
41.303637 18.145215999999998 22.731659
42.545282 16.089621 22.069363000000003
41.302735 14.041971 21.385961
38.809070000000006 14.045907 21.371565
38.809825000000004 18.15103 22.718285
41.303637 21.745849 25.860034