139_cspbbr3_4\139_cspbbr3_4.xyz
1.0
44.673157 0 0
0 44.673157 0
0 0 44.673157
Br Cs Pb 
240 112 64 
Cartesian
25.1597805 22.1316855 13.5105065
22.4812445 25.4027775 13.5338335
34.246348499999996 19.523642499999998 13.3157795
25.1705675 25.2180915 16.2311745
34.306141499999995 19.5154505 19.4560745
25.5389485 22.491967499999998 19.351688499999998
25.2177795 25.3709285 10.1734695
22.1834825 25.239182500000002 19.141598499999997
34.3018775 13.609116499999999 31.3864575
31.1468205 22.253590499999998 31.115032499999998
34.166250500000004 13.5609995 25.233327499999998
34.069708500000004 19.2606215 25.3004225
22.4871555 25.360753499999998 25.4416345
34.3491645 13.2850675 19.2115035
25.2182805 25.3780985 28.5459405
34.268143499999994 13.6615365 13.478270499999999
25.2725605 22.5879845 31.154566499999998
22.476311499999998 25.468856499999998 31.3998105
25.180798499999998 25.2193735 34.4782895
31.0102445 34.2085395 31.1435615
25.2439175 31.0013345 10.5045795
25.1517995 28.4550515 13.5613625
22.2951455 31.0294645 13.2373605
31.3244515 34.2048025 25.5406955
25.1383635 25.419210500000002 22.5515555
25.1408505 22.2303575 25.487622499999997
25.5421365 19.422361499999997 28.1815435
22.3854175 19.5512055 31.0895705
22.204020500000002 13.4974885 13.2070355
34.095907499999996 31.3446145 31.4524245
25.1713575 13.187763499999999 16.4987595
25.056136499999997 10.4892345 19.4718895
22.5899595 13.4637245 19.3822375
34.064899499999996 31.3184745 25.2989315
25.2793265 13.322008499999999 22.5812305
25.0747465 10.4508725 25.4796005
22.143655499999998 13.238989499999999 25.300592499999997
34.0573485 31.2842355 19.1275315
25.1675345 13.5853115 28.1107615
25.1451775 10.316034499999999 31.445165499999998
25.156345499999997 13.5519155 34.3283115
34.0988435 31.3972485 13.254987499999999
25.4348105 19.139898499999997 34.246168499999996
25.281070500000002 19.5859195 10.5971345
22.2147895 19.2387005 13.2238635
34.4150705 25.2141635 31.0568295
34.2176865 25.069336500000002 25.375269499999998
25.3008255 19.4958095 16.141447499999998
25.0980995 16.3348875 19.333184499999998
22.5218435 19.4549385 19.5121535
34.106500499999996 25.204870500000002 19.2878355
34.3365295 25.4877955 13.5935095
25.200899500000002 19.4793385 22.4749965
25.1282545 16.2175495 25.1900735
22.4273475 19.1569265 25.260865499999998
34.389084499999996 19.287407499999997 31.3571255
25.1330505 31.278405499999998 16.3587065
25.2616555 16.4741545 31.1002415
25.1394545 16.2944735 13.4217735
25.467146500000002 28.234478499999998 19.2307775
25.1525005 28.1632465 25.1583385
22.3215525 30.9904255 19.3728275
31.2709515 16.6287695 13.4110675
28.5050305 19.445655499999997 13.5109535
28.4153605 31.0799055 19.4034615
31.1717665 19.343857500000002 16.2158145
31.373216499999998 16.5980435 19.2572425
28.4129945 19.4088045 19.2124275
31.0798235 28.4843325 19.4360695
30.9871745 31.211412499999998 16.4812545
31.4810335 19.1914195 22.4071195
31.1221515 16.4302565 25.4766445
28.2600715 19.3597985 25.027931499999998
28.4064075 31.1021905 13.302863499999999
31.4887445 19.184651499999998 28.2121075
31.4222475 16.272132499999998 31.4038425
31.0866955 28.3945935 13.4100375
28.078311499999998 19.5499975 31.3406005
31.2191515 19.3612955 33.993557499999994
31.5113195 25.2402445 10.5838105
31.0929115 31.2634625 10.6646435
31.2157765 22.126153499999997 13.4699555
28.359661499999998 25.5173315 13.3268965
31.0984195 25.371637500000002 16.2911115
31.3484025 22.1265705 19.1912775
28.1128295 25.3752935 19.174843499999998
31.3443385 25.433300499999998 34.463438499999995
28.2818985 25.013803499999998 31.2616425
31.471158499999998 25.2533585 22.1332235
31.1689975 22.1885825 25.3989815
28.1471515 25.153205500000002 25.4396365
31.3520725 19.1296455 10.3300725
31.2664375 34.1507395 19.5367785
31.3772675 13.5557595 34.3983255
31.0647175 10.2994925 31.1933775
31.4118615 34.155604499999995 13.1787445
25.1430635 31.2023075 22.5346425
31.132689499999998 25.2550865 28.1602395
31.0835345 31.1734705 34.1152975
22.2133795 31.4335255 25.4520125
25.0801135 31.2786465 28.2954015
25.4926775 28.4939565 31.161589499999998
28.1527515 31.2967425 31.3969525
22.1477115 31.2613755 31.4406895
25.215038500000002 31.4578785 34.0508385
25.0974185 34.1027005 13.3175545
25.5219335 34.29842649999999 19.2535785
25.4578035 34.1138565 25.4575305
25.1937125 34.2372625 31.4646495
31.4745345 28.3490695 31.4559585
31.1700725 31.1388615 28.0388455
31.3697815 13.1921945 10.5363335
31.1858205 10.2419715 13.517222499999999
28.5239655 13.505585499999999 13.3742765
31.2250205 13.5188625 16.2392845
31.2841765 10.2680445 19.4495715
28.3265355 13.5371975 19.5905585
28.0262425 31.1623985 25.255467499999998
31.2989985 28.5394955 25.2497335
31.3759905 13.286882499999999 22.2188185
25.247033499999997 10.660171499999999 13.5963005
28.4462705 13.4787875 25.538741499999997
31.3813495 31.4023405 22.4188175
31.3765815 13.2995235 28.1446695
28.5150175 13.442249499999999 31.3866575
31.3650405 10.5325495 25.4313885
22.218099499999997 13.5421085 31.4568945
13.4741325 34.107845499999996 25.1987055
19.5394155 13.488386499999999 10.3140795
19.373119499999998 10.3220415 13.5887475
16.301201499999998 13.5712095 13.4147025
13.1908455 19.3317365 22.285907499999997
19.4516145 13.1584235 16.364385499999997
19.5715605 10.342575499999999 19.3705045
16.3946375 13.6292025 19.262231500000002
10.329309499999999 19.4858695 19.226179499999997
19.2672585 13.279949499999999 22.2146905
19.1248005 10.2796515 25.3997735
16.567365499999998 13.3222355 25.519381499999998
13.2380795 16.3372145 19.488984499999997
13.249492499999999 19.1872475 16.521562499999998
19.4541365 13.5883665 28.165650499999998
19.2205105 10.357604499999999 31.4083765
16.5675845 13.6161405 31.2180695
10.568284499999999 19.1989135 13.5515815
19.267144499999997 13.5500915 34.338281499999994
13.2571935 16.4833475 13.575210499999999
19.4312185 19.1580995 10.3045865
19.4546515 16.2021885 13.5619355
16.1425775 19.2881875 13.3708385
13.211292499999999 19.4066935 10.218705499999999
19.4511325 19.4616285 16.5290885
13.5768875 22.420893500000002 19.225219499999998
16.6232205 19.2916955 19.5011795
19.5363035 19.5035665 22.307713500000002
19.3812965 16.5491155 25.1646265
16.387147499999998 19.5052335 25.1994705
13.556697499999999 16.5286535 25.2178105
10.3751985 19.4584795 25.096873499999997
13.5368295 34.18476749999999 31.4785205
25.181939500000002 13.3899475 10.295503499999999
13.3398155 25.472360499999997 22.491418499999998
13.3796255 22.5644505 25.4156055
10.5172295 25.0510375 25.3680195
13.571531499999999 25.3582615 16.305411499999998
13.166532499999999 25.3620935 28.4476255
13.345630499999999 22.3284045 31.0340725
10.6918125 25.2476095 31.1888185
13.3422475 25.4609865 34.35160549999999
10.2942285 25.290044499999997 13.2574525
13.2817255 31.2332035 10.5817885
13.611836499999999 28.1305575 13.4906445
10.6433435 31.3772065 13.461810499999999
13.3529675 22.2849455 13.6705635
13.4775485 25.3519355 10.6121005
13.4610635 13.199099499999999 34.39318949999999
13.2768575 31.0598995 16.2816745
10.514642499999999 31.2895735 19.5990645
13.357519499999999 19.5276575 34.302933499999995
13.3913035 31.2362295 22.5207625
13.586285499999999 28.1151925 25.3463775
10.5299515 31.2282695 25.124349499999997
13.1595385 31.363950499999998 28.2410635
13.2711465 28.1823335 31.081518499999998
10.5761825 31.2709475 31.1113235
10.4000115 19.2213945 31.5229845
13.334232499999999 31.4054255 34.1223825
13.4538055 34.0387755 13.226886499999999
13.411284499999999 16.5938415 31.4447015
13.3697425 34.1050685 19.2427005
13.6795405 19.3286525 28.2732785
13.374779499999999 28.109326499999998 19.1652205
19.403615499999997 19.4724585 28.4647145
19.3640695 16.5581685 19.1384275
19.2833415 28.4955125 13.517004499999999
13.5680195 10.5189655 25.1913575
16.1254445 25.189272499999998 31.260751499999998
13.592024499999999 13.579922499999999 22.2691615
19.478067499999998 25.1650825 34.3973115
19.1849675 31.2077545 10.4899515
19.5150035 16.4812315 31.1844525
16.2870265 31.3493025 13.285062499999999
19.5189365 31.3176955 16.216817499999998
10.6144725 13.5123415 19.4976455
19.4936015 28.1477075 19.229601499999998
16.256991499999998 31.2398825 19.5785735
19.2318145 31.3746725 22.235964499999998
13.5588895 10.335136499999999 19.5118895
19.5036065 28.5175125 25.3488485
16.3662295 31.0847505 25.3592555
19.3091305 31.115481499999998 28.4228885
13.4460525 13.236295499999999 16.5205535
19.4995705 28.190817499999998 31.0932065
16.2383925 31.2083835 31.3919815
19.276449500000002 31.1662445 34.43887049999999
10.607433499999999 13.5752065 13.586022499999999
19.442573499999998 34.0388545 13.524566499999999
19.5267485 34.130788499999994 19.4068655
13.3491715 10.517794499999999 13.244410499999999
19.5726865 34.0687355 25.3941765
13.4579265 13.158227499999999 10.5485405
19.589491499999998 34.2588605 31.3321645
19.477659499999998 22.4282515 31.1289645
19.4336135 25.5234835 28.4503125
10.4456495 25.499937499999998 19.2679045
16.6157555 25.1909545 25.3360505
19.3246025 19.6120485 34.138426499999994
16.6031765 25.3241785 19.1606095
19.328636499999998 22.5301185 13.462614499999999
19.4276995 25.3930175 16.1650335
19.570199499999998 25.3636335 10.3496825
13.2759645 10.5762775 31.4173135
16.2791865 25.2220615 13.2695815
10.4925005 13.6875065 31.1595035
16.3703775 19.1640235 31.3132065
19.6186105 22.359405499999998 25.263156499999997
10.2873495 13.489860499999999 25.4671725
13.2128395 13.287250499999999 28.2812455
19.2857885 25.2069515 22.5019935
19.4328935 22.166074499999997 19.439988500000002
34.12310049999999 28.6034435 10.2056015
34.5501665 28.2315795 16.8620695
10.763344499999999 10.360502499999999 16.8445405
33.998270500000004 10.874036499999999 28.3028945
33.983898499999995 22.6328555 33.8036235
10.5298035 16.0890465 9.993475499999999
34.497367499999996 28.0705945 22.6342775
28.039727499999998 34.471149499999996 34.56747349999999
28.282884499999998 21.888233500000002 34.3064085
10.7575865 22.0964395 16.1184755
34.0447985 28.7893055 28.5405005
34.37443449999999 10.4825825 22.8939345
34.0520815 28.5352565 34.4470525
34.0516755 34.571879499999994 16.7981815
27.9471235 27.9496725 10.7231525
10.2500505 21.992061500000002 10.7372195
27.9663985 28.4690945 16.0566155
34.150636500000005 21.9862355 28.5975535
10.5149195 16.8420855 22.0643465
34.6648945 16.531038499999998 28.1824345
28.5780275 27.9851955 27.9266265
28.4503795 28.499792499999998 33.8472845
34.09845849999999 15.9627455 33.8542145
10.5373465 16.0357785 16.7063515
10.1693465 10.7695685 21.9208205
33.8376655 16.2953015 16.4858945
28.645615499999998 33.9023495 10.2664385
10.8522245 16.1522825 28.1481035
34.638101500000005 22.7195025 16.4339135
28.2152365 28.559202499999998 22.757167499999998
10.723649499999999 10.1824605 28.1040065
27.8415645 34.211999500000005 16.0682155
33.8899825 22.6681645 22.414574499999997
10.6831595 16.2606865 34.6360165
27.8767005 34.5746395 22.2728535
34.537077499999995 16.0927065 10.5476885
33.817488499999996 15.978012499999998 22.2389465
28.609516499999998 34.0085995 28.5919155
34.5973465 10.7232775 16.571730499999997
21.915148499999997 10.2699085 10.4464585
10.729832499999999 22.0246505 22.520038500000002
16.2163555 27.8434375 10.6309995
16.6671675 22.1859525 33.87073649999999
22.3380275 16.8031825 34.0085265
22.4432345 22.0070785 10.0232855
16.2704105 22.7362875 28.696447499999998
22.0127045 22.5904855 16.789157499999998
22.3636755 16.8012385 28.1778535
16.581172499999997 22.658095499999998 22.1067755
16.249581499999998 22.7601475 16.6355825
21.9118975 21.9535905 28.2278985
16.5147115 22.8289585 10.3622715
22.6492275 21.9995245 34.3106755
16.8304965 16.3764055 34.1970505
22.5304185 28.4985765 10.174132499999999
22.1786185 22.5427915 22.6366315
16.3223415 16.643914499999998 27.9540265
16.6915865 27.9198365 16.0991645
15.9996555 28.3258615 22.2627925
16.304806499999998 33.7405315 33.9309425
21.9924435 10.4569685 16.6645955
15.9626065 34.3451075 28.5617815
16.7830255 34.249878499999994 22.5977285
22.2977165 9.9684455 22.5671455
16.6888635 34.49735149999999 16.3729265
21.9773965 16.5594555 22.5936095
16.3312755 33.87112549999999 10.545225499999999
16.7010315 27.9077445 34.34482849999999
34.533615499999996 33.869868499999995 22.6050705
22.6942275 10.8627715 34.457654500000004
22.3056755 16.1064455 10.171253499999999
16.0180595 28.1894565 28.7074175
22.2326755 16.012800499999997 16.1101055
22.010522499999997 10.4901425 28.5670095
22.3982555 27.997732499999998 16.6316135
16.6627725 16.1916545 22.5974775
22.555137499999997 28.0643665 22.5881935
28.0569315 16.679146499999998 10.1871645
10.1256355 33.9663475 16.5978895
27.9722995 16.0892145 16.5722685
10.6381185 28.0431085 33.736650499999996
27.9842045 16.3210815 22.5368645
9.9957865 28.4424395 22.1058195
10.2439425 34.00513649999999 22.1117645
27.9808935 16.1051275 28.5665175
28.772336499999998 16.2525765 34.45652749999999
28.5633045 21.9395375 10.432653499999999
10.2760945 28.6082685 10.7582065
28.4233005 22.0801055 16.705004499999998
10.7296365 22.0219445 34.166411499999995
28.6323055 22.030875499999997 22.1854595
9.9917375 27.943295499999998 16.5939315
10.1769245 34.11071249999999 28.0263885
16.1588365 10.155507499999999 10.1123285
27.9656265 10.7666145 28.0226585
16.6916295 16.074872499999998 16.1236745
22.0131835 27.881490499999998 28.4290925
16.6129445 16.0215335 10.316798499999999
22.077325499999997 27.8468505 33.908148499999996
22.6188115 33.97134249999999 10.0648615
16.4608315 10.760925499999999 34.024195500000005
22.493889499999998 33.7873735 22.1757655
22.6849225 33.84689949999999 28.0698955
22.6745185 34.30083449999999 34.5160185
27.8978105 10.521459499999999 10.1214295
16.012946499999998 10.1695425 28.1672795
28.5155705 10.6633745 16.1995025
16.0438745 10.8464685 22.3900605
28.4522585 10.5613285 21.9661485
16.0745625 10.172798499999999 16.3358995
27.8882975 22.6698535 28.0873855
33.94108249999999 34.2627105 28.6151315
13.3443325 13.2133805 13.2098595
19.5771645 19.2385165 13.1957035
19.565866500000002 13.4920215 31.5410455
31.1939735 13.520564499999999 13.076259499999999
19.332279500000002 13.2346445 25.4741985
31.3429075 13.2497145 19.5238995
19.5058325 13.5376795 19.5396695
31.3974585 13.244453499999999 25.4490765
19.2202125 13.206894499999999 13.4231745
31.3864785 13.5967915 31.1863065
31.4208785 19.2733195 13.2703645
31.2261025 19.134807499999997 19.2029095
13.6836405 31.3444345 31.168183499999998
31.166614499999998 19.1355765 25.2969125
13.484472499999999 31.095840499999998 25.1878095
31.0927695 19.2382365 31.136325499999998
13.318951499999999 31.4814845 19.3320245
31.4682855 25.3506565 13.1233895
13.2505565 31.0146685 13.4866295
31.3615205 25.3648465 19.6176725
13.6608425 25.5492495 31.3692325
31.2142945 25.5076395 25.1351305
25.098204499999998 31.1733035 31.442687499999998
19.474831499999997 19.5238795 19.159550499999998
25.0555995 31.1173575 25.339886500000002
19.2894285 19.4511555 25.6322705
25.1763995 13.657349499999999 19.3672565
25.1630215 13.5058835 25.462839499999998
25.3249635 13.5910975 31.0155595
25.4803465 19.5350445 13.4076835
19.374623500000002 31.4710915 31.1023225
25.525325499999997 19.3545155 19.1485115
19.1772905 31.0742185 25.4982145
25.152934499999997 19.0916565 25.1640065
19.2238475 30.9974375 19.554318499999997
25.2818775 19.4040535 31.0202375
13.2334955 25.2536765 25.6144225
19.5734495 31.1172455 13.2512245
19.637776499999998 25.287210499999997 31.0281285
25.4542595 25.1400745 19.2360375
19.4116505 25.5818205 25.2624065
25.0689625 25.165587499999997 25.4635105
19.5173925 25.2367805 19.6395595
25.1525845 25.227846500000002 31.095595499999998
19.165602500000002 25.5206185 13.4196405
25.5104055 31.4019965 13.169352499999999
19.3260855 19.472648500000002 31.4579935
25.3289035 31.3902245 19.5973225
25.521630499999997 25.5528385 13.584840499999999
31.0989905 25.0233545 31.3735855
25.0545275 13.5379525 13.3176145
31.4729855 31.0688715 25.2901745
13.273417499999999 13.215448499999999 19.5065505
31.4472815 31.448963499999998 31.040598499999998
13.7498375 19.286934499999997 25.4130535
13.4907185 25.069214499999998 13.523284499999999
13.4722475 13.4785975 31.4774775
31.0184905 31.0612705 19.445438499999998
31.0933225 31.4353615 13.4541095
13.2720465 19.3673875 19.5457165
13.6036425 19.3407555 13.6119715
13.218536499999999 19.5292055 31.1649145
13.1763205 25.2332745 19.100174499999998
13.3907665 13.5574725 25.0960285
