3_train/204_cspbbr3_MA-Pyr-2-COO_4_0.60\204_cspbbr3_MA-Pyr-2-COO_4_0.60.xyz
1.0
48.059188 0 0
0 48.059188 0
0 0 48.059188
Br C Cs H N O Pb 
180 351 61 546 111 120 64 
Cartesian
15.104593999999999 15.104593999999999 18.079594
12.129593999999999 15.104593999999999 21.054594
15.104593999999999 15.104593999999999 24.029593999999996
15.104593999999999 12.129593999999999 27.004593999999997
15.104593999999999 15.104593999999999 29.979594
15.104593999999999 12.129593999999999 32.954594
15.104593999999999 18.079594 15.104593999999999
15.104593999999999 21.054594 18.079594
15.104593999999999 18.079594 21.054594
15.104593999999999 21.054594 24.029593999999996
15.104593999999999 18.079594 27.004593999999997
12.129593999999999 21.054594 27.004593999999997
15.104593999999999 21.054594 29.979594
15.104593999999999 18.079594 32.954594
15.104593999999999 21.054594 35.929594
15.104593999999999 27.004593999999997 12.129593999999999
15.104593999999999 24.029593999999996 15.104593999999999
15.104593999999999 27.004593999999997 18.079594
15.104593999999999 24.029593999999996 21.054594
15.104593999999999 27.004593999999997 24.029593999999996
15.104593999999999 24.029593999999996 27.004593999999997
15.104593999999999 27.004593999999997 29.979594
15.104593999999999 24.029593999999996 32.954594
12.129593999999999 27.004593999999997 32.954594
15.104593999999999 27.004593999999997 35.929594
15.104593999999999 29.979594 15.104593999999999
12.129593999999999 32.954594 15.104593999999999
15.104593999999999 32.954594 18.079594
15.104593999999999 29.979594 21.054594
15.104593999999999 32.954594 24.029593999999996
15.104593999999999 29.979594 27.004593999999997
12.129593999999999 32.954594 27.004593999999997
15.104593999999999 32.954594 29.979594
15.104593999999999 29.979594 32.954594
12.129593999999999 32.954594 32.954594
15.104593999999999 35.929594 15.104593999999999
15.104593999999999 35.929594 21.054594
15.104593999999999 35.929594 32.954594
21.054594 15.104593999999999 12.129593999999999
21.054594 12.129593999999999 15.104593999999999
18.079594 15.104593999999999 15.104593999999999
21.054594 15.104593999999999 18.079594
18.079594 15.104593999999999 21.054594
21.054594 15.104593999999999 24.029593999999996
18.079594 15.104593999999999 27.004593999999997
21.054594 15.104593999999999 29.979594
18.079594 15.104593999999999 32.954594
21.054594 21.054594 12.129593999999999
21.054594 18.079594 15.104593999999999
18.079594 21.054594 15.104593999999999
21.054594 21.054594 18.079594
21.054594 18.079594 21.054594
18.079594 21.054594 21.054594
21.054594 21.054594 24.029593999999996
21.054594 18.079594 27.004593999999997
18.079594 21.054594 27.004593999999997
21.054594 21.054594 29.979594
21.054594 18.079594 32.954594
18.079594 21.054594 32.954594
21.054594 21.054594 35.929594
21.054594 24.029593999999996 15.104593999999999
18.079594 27.004593999999997 15.104593999999999
21.054594 27.004593999999997 18.079594
21.054594 24.029593999999996 21.054594
18.079594 27.004593999999997 21.054594
21.054594 27.004593999999997 24.029593999999996
21.054594 24.029593999999996 27.004593999999997
18.079594 27.004593999999997 27.004593999999997
21.054594 27.004593999999997 29.979594
21.054594 24.029593999999996 32.954594
18.079594 27.004593999999997 32.954594
21.054594 32.954594 12.129593999999999
21.054594 29.979594 15.104593999999999
18.079594 32.954594 15.104593999999999
21.054594 32.954594 18.079594
21.054594 29.979594 21.054594
18.079594 32.954594 21.054594
21.054594 32.954594 24.029593999999996
21.054594 29.979594 27.004593999999997
18.079594 32.954594 27.004593999999997
21.054594 32.954594 29.979594
21.054594 29.979594 32.954594
18.079594 32.954594 32.954594
24.029593999999996 15.104593999999999 15.104593999999999
27.004593999999997 15.104593999999999 18.079594
24.029593999999996 15.104593999999999 21.054594
27.004593999999997 15.104593999999999 24.029593999999996
24.029593999999996 15.104593999999999 27.004593999999997
27.004593999999997 15.104593999999999 29.979594
27.004593999999997 12.129593999999999 32.954594
24.029593999999996 15.104593999999999 32.954594
27.004593999999997 18.079594 15.104593999999999
24.029593999999996 21.054594 15.104593999999999
27.004593999999997 21.054594 18.079594
27.004593999999997 18.079594 21.054594
24.029593999999996 21.054594 21.054594
27.004593999999997 21.054594 24.029593999999996
27.004593999999997 18.079594 27.004593999999997
24.029593999999996 21.054594 27.004593999999997
27.004593999999997 21.054594 29.979594
27.004593999999997 18.079594 32.954594
24.029593999999996 21.054594 32.954594
27.004593999999997 24.029593999999996 15.104593999999999
24.029593999999996 27.004593999999997 15.104593999999999
27.004593999999997 27.004593999999997 18.079594
27.004593999999997 24.029593999999996 21.054594
24.029593999999996 27.004593999999997 21.054594
27.004593999999997 27.004593999999997 24.029593999999996
27.004593999999997 24.029593999999996 27.004593999999997
24.029593999999996 27.004593999999997 27.004593999999997
27.004593999999997 27.004593999999997 29.979594
27.004593999999997 24.029593999999996 32.954594
24.029593999999996 27.004593999999997 32.954594
27.004593999999997 27.004593999999997 35.929594
27.004593999999997 29.979594 15.104593999999999
24.029593999999996 32.954594 15.104593999999999
27.004593999999997 32.954594 18.079594
27.004593999999997 29.979594 21.054594
24.029593999999996 32.954594 21.054594
27.004593999999997 32.954594 24.029593999999996
27.004593999999997 29.979594 27.004593999999997
24.029593999999996 32.954594 27.004593999999997
27.004593999999997 32.954594 29.979594
27.004593999999997 29.979594 32.954594
24.029593999999996 32.954594 32.954594
27.004593999999997 35.929594 27.004593999999997
27.004593999999997 35.929594 32.954594
32.954594 15.104593999999999 12.129593999999999
32.954594 12.129593999999999 15.104593999999999
29.979594 15.104593999999999 15.104593999999999
32.954594 15.104593999999999 18.079594
29.979594 15.104593999999999 21.054594
32.954594 15.104593999999999 24.029593999999996
32.954594 12.129593999999999 27.004593999999997
29.979594 15.104593999999999 27.004593999999997
32.954594 15.104593999999999 29.979594
29.979594 15.104593999999999 32.954594
32.954594 15.104593999999999 35.929594
32.954594 18.079594 15.104593999999999
29.979594 21.054594 15.104593999999999
32.954594 21.054594 18.079594
32.954594 18.079594 21.054594
29.979594 21.054594 21.054594
32.954594 21.054594 24.029593999999996
32.954594 18.079594 27.004593999999997
29.979594 21.054594 27.004593999999997
32.954594 21.054594 29.979594
32.954594 18.079594 32.954594
29.979594 21.054594 32.954594
32.954594 21.054594 35.929594
32.954594 24.029593999999996 15.104593999999999
29.979594 27.004593999999997 15.104593999999999
32.954594 27.004593999999997 18.079594
32.954594 24.029593999999996 21.054594
29.979594 27.004593999999997 21.054594
32.954594 27.004593999999997 24.029593999999996
32.954594 24.029593999999996 27.004593999999997
29.979594 27.004593999999997 27.004593999999997
32.954594 27.004593999999997 29.979594
32.954594 24.029593999999996 32.954594
29.979594 27.004593999999997 32.954594
32.954594 32.954594 12.129593999999999
32.954594 29.979594 15.104593999999999
29.979594 32.954594 15.104593999999999
32.954594 32.954594 18.079594
32.954594 29.979594 21.054594
29.979594 32.954594 21.054594
32.954594 32.954594 24.029593999999996
32.954594 29.979594 27.004593999999997
29.979594 32.954594 27.004593999999997
32.954594 32.954594 29.979594
32.954594 29.979594 32.954594
29.979594 32.954594 32.954594
32.954594 35.929594 21.054594
35.929594 15.104593999999999 27.004593999999997
35.929594 21.054594 27.004593999999997
35.929594 21.054594 32.954594
35.929594 27.004593999999997 15.104593999999999
35.929594 32.954594 21.054594
35.929594 32.954594 27.004593999999997
20.721185999999996 33.319368 39.608678999999995
20.309193 33.707659 38.326357
21.054594 32.954594 37.40086599999999
21.702174 32.329266 39.452663
21.054594 32.954594 35.929594
27.135945999999997 14.628182999999998 39.608678999999995
27.326628 14.095127 38.326357
27.004593999999997 15.104593999999999 37.40086599999999
26.711690999999995 15.955829999999999 39.452663
27.004593999999997 15.104593999999999 35.929594
26.52178 21.160002999999996 39.608678999999995
25.961219 21.239250999999996 38.326357
27.004593999999997 21.054594 37.40086599999999
27.894354999999997 20.917777 39.452663
27.004593999999997 21.054594 35.929594
33.165297 27.451611999999997 39.608678999999995
33.367886999999996 27.980257 38.326357
32.954594 27.004593999999997 37.40086599999999
32.622279999999996 26.167957 39.452663
32.954594 27.004593999999997 35.929594
14.71041 15.402652999999999 39.608678999999995
14.234672999999999 15.709546 38.326357
15.104593999999999 15.104593999999999 37.40086599999999
15.855094999999999 14.60746 39.452663
15.104593999999999 15.104593999999999 35.929594
15.575071999999999 33.105827 39.608678999999995
16.099654 33.318717 38.326357
15.104593999999999 32.954594 37.40086599999999
14.266402999999999 32.626218 39.452663
15.104593999999999 32.954594 35.929594
26.811122999999995 33.409335 39.608678999999995
26.551322 33.912338999999996 38.326357
27.004593999999997 32.954594 37.40086599999999
27.407973999999996 32.149809 39.452663
27.004593999999997 32.954594 35.929594
21.543568999999998 15.176179 39.608678999999995
22.096074 15.299655999999999 38.326357
21.054594 15.104593999999999 37.40086599999999
20.17373 14.918923999999999 39.452663
21.054594 15.104593999999999 35.929594
32.605022 32.60528 39.608678999999995
32.235454 32.176411 38.326357
32.954594 32.954594 37.40086599999999
33.550477 33.629366 39.452663
32.954594 32.954594 35.929594
21.279674999999997 26.564639999999997 39.608678999999995
21.574326 26.081226 38.326357
21.054594 27.004593999999997 37.40086599999999
20.595424 27.778905 39.452663
21.054594 27.004593999999997 35.929594
15.141131 33.447428 8.450508999999998
15.224896 34.007332 9.732831
15.104593999999999 32.954594 10.658321999999998
14.982206999999999 32.062733 8.606525
15.104593999999999 32.954594 12.129593999999999
21.385888 27.371288999999997 8.450508999999998
21.795629999999996 27.761955 9.732831
21.054594 27.004593999999997 10.658321999999998
20.410639 26.375533999999995 8.606525
21.054594 27.004593999999997 12.129593999999999
32.463007 26.953969 8.450508999999998
31.897095999999998 26.938052999999996 9.732831
32.954594 27.004593999999997 10.658321999999998
33.854084 27.040814999999995 8.606525
32.954594 27.004593999999997 12.129593999999999
26.989215 27.498542 8.450508999999998
27.013767 28.064144 9.732831
27.004593999999997 27.004593999999997 10.658321999999998
26.976465999999995 26.104814999999995 8.606525
27.004593999999997 27.004593999999997 12.129593999999999
27.069373 32.464670999999996 8.450508999999998
27.101600999999995 31.899454 9.732831
27.004593999999997 32.954594 10.658321999999998
26.942451 33.852666 8.606525
27.004593999999997 32.954594 12.129593999999999
27.484916 21.170832999999995 8.450508999999998
28.043552999999996 21.262667999999998 9.732831
27.004593999999997 21.054594 10.658321999999998
26.118133999999998 20.897802999999996 8.606525
27.004593999999997 21.054594 12.129593999999999
15.545798 14.881974 8.450508999999998
16.030851 14.590027999999998 9.732831
15.104593999999999 15.104593999999999 10.658321999999998
14.327730999999998 15.559432 8.606525
15.104593999999999 15.104593999999999 12.129593999999999
26.853575 15.575140999999999 8.450508999999998
26.721174999999995 16.125576 9.732831
27.004593999999997 15.104593999999999 10.658321999999998
27.225727 14.231957 8.606525
27.004593999999997 15.104593999999999 12.129593999999999
15.314936 20.607405999999997 8.450508999999998
15.517099 20.078597000000002 9.732831
15.104593999999999 21.054594 10.658321999999998
14.772955 21.891498999999996 8.606525
15.104593999999999 21.054594 12.129593999999999
32.838128 21.534861 8.450508999999998
32.74603 22.093454 9.732831
32.954594 21.054594 10.658321999999998
33.111804 20.168208 8.606525
32.954594 21.054594 12.129593999999999
8.450508999999998 21.282309999999995 20.615997999999998
9.732831 21.505055 20.095523999999997
10.658321999999998 21.054594 21.054594
8.606525 20.690391999999996 21.877849999999995
12.129593999999999 21.054594 21.054594
8.450508999999998 26.756918 27.432235
9.732831 26.510436 27.941897999999995
10.658321999999998 27.004593999999997 27.004593999999997
8.606525 27.406329 26.198986999999995
12.129593999999999 27.004593999999997 27.004593999999997
8.450508999999998 14.678702999999999 32.70392
9.732831 14.170784999999999 32.453863999999996
10.658321999999998 15.104593999999999 32.954594
8.606525 15.907359 33.361979
12.129593999999999 15.104593999999999 32.954594
8.450508999999998 26.905851999999996 21.538815999999997
9.732831 26.834339999999997 22.100415999999996
10.658321999999998 27.004593999999997 21.054594
8.606525 27.129131 20.163030999999997
12.129593999999999 27.004593999999997 21.054594
8.450508999999998 27.268358999999997 14.686684
9.732831 27.534048999999996 14.186767
10.658321999999998 27.004593999999997 15.104593999999999
8.606525 26.572503999999995 15.894336
12.129593999999999 27.004593999999997 15.104593999999999
8.450508999999998 14.74401 15.442528
9.732831 14.360890999999999 15.859335999999999
10.658321999999998 15.104593999999999 15.104593999999999
8.606525 15.721791 14.449259999999999
12.129593999999999 15.104593999999999 15.104593999999999
8.450508999999998 20.566405 15.181356999999998
9.732831 20.015239 15.310680999999999
10.658321999999998 21.054594 15.104593999999999
8.606525 21.933440999999995 14.9096
12.129593999999999 21.054594 15.104593999999999
8.450508999999998 14.628036999999999 27.135414999999995
9.732831 14.094769 27.325503999999995
10.658321999999998 15.104593999999999 27.004593999999997
8.606525 15.956154999999999 26.712638999999996
12.129593999999999 15.104593999999999 27.004593999999997
8.450508999999998 21.093111999999998 33.447278
9.732831 21.179127 34.00684
10.658321999999998 21.054594 32.954594
8.606525 20.928621999999997 32.063233
12.129593999999999 21.054594 32.954594
8.450508999999998 32.739979999999996 20.609440999999997
9.732831 32.456842 20.119194
10.658321999999998 32.954594 21.054594
8.606525 33.395326 21.839546
12.129593999999999 32.954594 21.054594
39.608678999999995 32.588247 14.772915
38.326357 32.198012 14.362763
37.40086599999999 32.954594 15.104593999999999
39.452663 33.582978 15.749208999999999
35.929594 32.954594 15.104593999999999
39.608678999999995 26.511165 26.977229
38.326357 25.949801 26.903891
37.40086599999999 27.004593999999997 27.004593999999997
39.452663 27.898576999999996 27.110374
35.929594 27.004593999999997 27.004593999999997
39.608678999999995 20.653861999999997 20.765397999999998
38.326357 20.220722 20.400844999999997
37.40086599999999 21.054594 21.054594
39.452663 21.750315999999998 21.625876999999996
35.929594 21.054594 21.054594
39.608678999999995 27.425596999999996 32.695794
38.326357 27.928624 32.436039
37.40086599999999 27.004593999999997 32.954594
39.452663 26.209792999999998 33.377306
35.929594 27.004593999999997 32.954594
39.608678999999995 15.594380999999998 32.888794
38.326357 16.159529 32.855388
37.40086599999999 15.104593999999999 32.954594
39.452663 14.206653999999999 33.018609
35.929594 15.104593999999999 32.954594
39.608678999999995 15.557552999999999 15.302202999999999
38.326357 16.058166999999997 15.566577999999998
37.40086599999999 15.104593999999999 15.104593999999999
39.452663 14.303519999999999 14.693893999999998
35.929594 15.104593999999999 15.104593999999999
39.608678999999995 14.614429999999999 20.991664999999998
38.326357 14.059828 20.877977
37.40086599999999 15.104593999999999 21.054594
39.452663 15.988603 21.224660999999998
35.929594 15.104593999999999 21.054594
39.608678999999995 33.232677 32.546072
38.326357 33.585198 32.103084
37.40086599999999 32.954594 32.954594
39.452663 32.402631 33.665742
35.929594 32.954594 32.954594
39.608678999999995 20.564391 15.167214
38.326357 19.999037 15.196950999999999
37.40086599999999 21.054594 15.104593999999999
39.452663 21.952931 15.046408
35.929594 21.054594 15.104593999999999
39.608678999999995 27.372425999999997 21.384625
38.326357 27.764499 21.793020999999996
37.40086599999999 27.004593999999997 21.054594
39.452663 26.373323 20.412807
35.929594 27.004593999999997 21.054594
21.538817 8.450508999999998 21.153332
22.083577999999996 9.732831 21.307421999999995
21.054594 10.658321999999998 21.054594
20.185453 8.606525 20.820099
21.054594 12.129593999999999 21.054594
15.367225999999999 8.450508999999998 14.685970999999999
15.702955999999999 9.732831 14.230127
15.104593999999999 10.658321999999998 15.104593999999999
14.579576 8.606525 15.835859999999998
15.104593999999999 12.129593999999999 15.104593999999999
26.524085 8.450508999999998 27.120058
25.965300999999997 9.732831 27.210989999999995
27.004593999999997 10.658321999999998 27.004593999999997
27.891306 8.606525 26.849233999999996
27.004593999999997 12.129593999999999 27.004593999999997
20.565702 8.450508999999998 27.076744999999995
20.001035 9.732831 27.117481999999995
21.054594 10.658321999999998 27.004593999999997
21.951628 8.606525 26.928931999999996
21.054594 12.129593999999999 27.004593999999997
32.641293 8.450508999999998 32.572412
32.315964 9.732831 32.109087
32.954594 10.658321999999998 32.954594
33.480802 8.606525 33.685004
32.954594 12.129593999999999 32.954594
33.429825 8.450508999999998 20.919036
33.984294 9.732831 20.804697999999995
32.954594 10.658321999999998 21.054594
32.075196 8.606525 21.247085999999996
32.954594 12.129593999999999 21.054594
20.670685999999996 8.450508999999998 33.265778
20.20557 9.732831 33.58854
21.054594 10.658321999999998 32.954594
21.787901999999995 8.606525 32.432432
21.054594 12.129593999999999 32.954594
27.493913999999997 8.450508999999998 21.123779999999996
28.047019 9.732831 21.244543999999998
27.004593999999997 10.658321999999998 21.054594
26.12283 8.606525 20.873247999999997
27.004593999999997 12.129593999999999 21.054594
26.739788999999995 8.450508999999998 14.687342
26.472853999999998 9.732831 14.188087999999999
27.004593999999997 10.658321999999998 15.104593999999999
27.438649999999996 8.606525 15.893257
27.004593999999997 12.129593999999999 15.104593999999999
15.416039 8.450508999999998 21.438289999999995
15.739118 9.732831 21.903185999999998
15.104593999999999 10.658321999999998 21.054594
14.581932 8.606525 20.321641999999997
15.104593999999999 12.129593999999999 21.054594
21.388385999999997 39.608678999999995 27.369017
21.800787999999997 38.326357 27.756873
21.054594 37.40086599999999 27.004593999999997
20.406356 39.452663 26.379948999999996
21.054594 35.929594 27.004593999999997
21.386736999999997 39.608678999999995 20.688668
21.734977 38.326357 20.242308
21.054594 37.40086599999999 21.054594
20.492283999999998 39.452663 21.757588999999996
21.054594 35.929594 21.054594
32.460457999999996 39.608678999999995 27.011663999999996
31.896554000000002 38.326357 27.061878
32.954594 37.40086599999999 27.004593999999997
33.852168 39.452663 26.935631
32.954594 35.929594 27.004593999999997
20.818430999999997 39.608678999999995 33.3887
20.585653999999998 38.326357 33.904765
21.054594 37.40086599999999 32.954594
21.434663 39.452663 32.138542
21.054594 35.929594 32.954594
21.396805 39.608678999999995 14.748066
21.757348 38.326357 14.311582
21.054594 37.40086599999999 15.104593999999999
20.472913 39.452663 15.791647
21.054594 35.929594 15.104593999999999
33.445968 39.608678999999995 33.00725
34.011808 38.326357 33.025504
32.954594 37.40086599999999 32.954594
32.055261 39.452663 32.914657
32.954594 35.929594 32.954594
15.215148 39.608678999999995 26.522931999999997
15.300374 38.326357 25.963248999999998
15.104593999999999 37.40086599999999 27.004593999999997
14.958291 39.452663 27.892845
15.104593999999999 35.929594 27.004593999999997
27.465207 39.608678999999995 21.233637
28.006684 38.326357 21.398899
27.004593999999997 37.40086599999999 21.054594
26.146834999999996 39.452663 20.781382999999998
27.004593999999997 35.929594 21.054594
26.934546999999995 39.608678999999995 15.593791
26.896239 38.326357 16.158628999999998
27.004593999999997 37.40086599999999 15.104593999999999
27.076397 39.452663 14.207243
27.004593999999997 35.929594 15.104593999999999
33.232938 39.608678999999995 15.512939
33.585741 38.326357 15.955701
32.954594 37.40086599999999 15.104593999999999
32.402177 39.452663 14.393797999999999
32.954594 35.929594 15.104593999999999
36.973044 36.973044 18.079594
24.029593999999996 24.029593999999996 37.405255
24.029593999999996 37.405255 24.029593999999996
29.979594 11.086143999999999 11.086143999999999
29.979594 36.973044 11.086143999999999
11.086143999999999 36.973044 24.029593999999996
24.029593999999996 10.653932999999999 24.029593999999996
24.029593999999996 36.973044 11.086143999999999
10.653932999999999 18.079594 29.979594
37.405255 29.979594 29.979594
11.086143999999999 18.079594 36.973044
37.405255 24.029593999999996 18.079594
29.979594 10.653932999999999 18.079594
24.029593999999996 10.653932999999999 18.079594
11.086143999999999 24.029593999999996 36.973044
24.029593999999996 11.086143999999999 36.973044
29.979594 18.079594 37.405255
18.079594 24.029593999999996 37.405255
29.979594 10.653932999999999 24.029593999999996
37.405255 18.079594 18.079594
18.079594 24.029593999999996 10.653932999999999
36.973044 36.973044 24.029593999999996
24.029593999999996 24.029593999999996 10.653932999999999
36.973044 11.086143999999999 29.979594
24.029593999999996 11.086143999999999 11.086143999999999
18.079594 11.086143999999999 11.086143999999999
29.979594 24.029593999999996 37.405255
18.079594 29.979594 37.405255
11.086143999999999 11.086143999999999 18.079594
37.405255 18.079594 24.029593999999996
24.029593999999996 37.405255 29.979594
10.653932999999999 29.979594 29.979594
11.086143999999999 18.079594 11.086143999999999
36.973044 29.979594 11.086143999999999
11.086143999999999 36.973044 18.079594
18.079594 10.653932999999999 29.979594
36.973044 11.086143999999999 18.079594
24.029593999999996 29.979594 37.405255
29.979594 24.029593999999996 10.653932999999999
36.973044 29.979594 36.973044
18.079594 37.405255 29.979594
29.979594 37.405255 24.029593999999996
29.979594 37.405255 18.079594
36.973044 24.029593999999996 11.086143999999999
24.029593999999996 18.079594 37.405255
37.405255 24.029593999999996 24.029593999999996
11.086143999999999 29.979594 11.086143999999999
10.653932999999999 24.029593999999996 29.979594
18.079594 10.653932999999999 18.079594
37.405255 29.979594 24.029593999999996
29.979594 10.653932999999999 29.979594
12.129593999999999 12.129593999999999 24.029593999999996
12.129593999999999 12.129593999999999 29.979594
12.129593999999999 18.079594 18.079594
12.129593999999999 24.029593999999996 12.129593999999999
12.129593999999999 24.029593999999996 18.079594
12.129593999999999 24.029593999999996 24.029593999999996
12.129593999999999 29.979594 18.079594
12.129593999999999 29.979594 24.029593999999996
12.129593999999999 29.979594 35.929594
12.129593999999999 35.929594 29.979594
18.079594 12.129593999999999 24.029593999999996
18.079594 12.129593999999999 35.929594
18.079594 18.079594 12.129593999999999
18.079594 18.079594 18.079594
18.079594 18.079594 24.029593999999996
18.079594 18.079594 29.979594
18.079594 18.079594 35.929594
18.079594 24.029593999999996 18.079594
18.079594 24.029593999999996 24.029593999999996
18.079594 24.029593999999996 29.979594
18.079594 29.979594 12.129593999999999
18.079594 29.979594 18.079594
18.079594 29.979594 24.029593999999996
18.079594 29.979594 29.979594
18.079594 35.929594 18.079594
18.079594 35.929594 24.029593999999996
18.079594 35.929594 35.929594
24.029593999999996 12.129593999999999 29.979594
24.029593999999996 18.079594 12.129593999999999
24.029593999999996 18.079594 18.079594
24.029593999999996 18.079594 24.029593999999996
24.029593999999996 18.079594 29.979594
24.029593999999996 24.029593999999996 18.079594
24.029593999999996 24.029593999999996 24.029593999999996
24.029593999999996 24.029593999999996 29.979594
24.029593999999996 29.979594 12.129593999999999
24.029593999999996 29.979594 18.079594
24.029593999999996 29.979594 24.029593999999996
24.029593999999996 29.979594 29.979594
24.029593999999996 35.929594 18.079594
29.979594 18.079594 12.129593999999999
29.979594 18.079594 18.079594
29.979594 18.079594 24.029593999999996
29.979594 18.079594 29.979594
29.979594 24.029593999999996 18.079594
29.979594 24.029593999999996 24.029593999999996
29.979594 24.029593999999996 29.979594
29.979594 29.979594 12.129593999999999
29.979594 29.979594 18.079594
29.979594 29.979594 24.029593999999996
29.979594 29.979594 29.979594
29.979594 29.979594 35.929594
29.979594 35.929594 35.929594
35.929594 12.129593999999999 24.029593999999996
35.929594 18.079594 12.129593999999999
35.929594 18.079594 29.979594
35.929594 18.079594 35.929594
35.929594 24.029593999999996 29.979594
35.929594 24.029593999999996 35.929594
35.929594 29.979594 18.079594
35.929594 35.929594 29.979594
22.251889 31.758083999999997 40.195387999999994
20.362271 33.701679999999996 40.559188
19.564825999999996 34.449664999999996 38.056038
22.511586 31.449756999999998 37.68549
26.481381999999996 16.714377 40.195387999999994
27.282055999999997 14.124560999999998 40.559188
27.652763 13.095980999999998 38.056038
26.39006 17.107019 37.68549
28.672948999999996 20.768682 40.195387999999994
26.008012 21.265008 40.559188
24.925072 21.415475 38.056038
29.062989 20.666818999999997 37.68549
32.302856999999996 25.442417999999996 40.195387999999994
33.382528 27.928888999999998 40.559188
33.771344 28.950761 38.056038
32.116355999999996 25.085032999999996 37.68549
16.499516999999997 14.145770999999998 40.195387999999994
14.287953 15.71332 40.559188
13.36778 16.303812 38.056038
16.810954 13.889812999999998 37.68549
13.518191999999999 32.364271 40.195387999999994
16.072116 33.272949 40.559188
17.084229 33.686505 38.056038
13.129729 32.256549 37.68549
27.737003 31.428576999999997 40.195387999999994
26.599409 33.889085 40.559188
26.095357 34.859308 38.056038
27.879672 31.051544999999997 37.68549
19.392567999999997 14.783937 40.195387999999994
22.061366999999997 15.259054999999998 40.559188
23.127817 15.50006 38.056038
18.99166 14.741743 37.68549
34.096624999999996 34.203961 40.195387999999994
32.239065 32.229703 40.559188
31.527316 31.399754 38.056038
34.393086 34.477125 37.68549
20.216316999999997 28.475119 40.195387999999994
21.524718 26.101026999999995 40.559188
22.095984 25.168796 38.056038
20.047396 28.841143000000002 37.68549
14.903265 31.273933999999997 7.8637999999999995
15.186872999999999 33.969818 7.499999999999999
15.351220999999999 35.050739 10.00315
14.889766 30.871038 10.373698
19.864233999999996 25.801184 7.8637999999999995
21.742587999999998 27.755668999999997 7.499999999999999
22.535697 28.508251 10.00315
19.606324 25.491361999999995 10.373698
34.644483 27.101695999999997 7.8637999999999995
31.940706999999996 26.907213999999996 7.499999999999999
30.847724999999997 26.879083 10.00315
35.043483 27.159197999999996 10.373698
26.980728999999997 25.312086 7.8637999999999995
26.979890999999995 28.022847 7.499999999999999
27.02991 29.115046 10.00315
27.009580999999997 24.909998 10.373698
26.858803 34.64098 7.8637999999999995
27.131169999999997 31.943937 7.499999999999999
27.190807 30.852221 10.00315
26.789819 35.038156 10.373698
25.343091 20.731237 7.8637999999999995
27.996192 21.287366 7.499999999999999
29.075474999999997 21.462148 10.00315
24.955439999999996 20.620628 10.373698
13.629409999999998 15.934645999999999 7.8637999999999995
16.010772 14.639524 7.499999999999999
16.94618 14.073472999999998 10.00315
13.262448999999998 16.101519 10.373698
27.448468 13.471153 7.8637999999999995
26.700002999999995 16.076537000000002 7.499999999999999
26.446841 17.140168 10.00315
27.587100999999997 13.092619 10.373698
14.454118 22.617295 7.8637999999999995
15.531782 20.129953999999998 7.499999999999999
15.919773 19.107768 10.00315
14.267904999999999 22.974830999999995 10.373698
33.278735 19.393243 7.8637999999999995
32.721354 22.046082 7.499999999999999
32.546063 23.125282 10.00315
33.389527 19.005645 10.373698
7.8637999999999995 20.343339 22.590584999999997
7.499999999999999 21.517711999999996 20.147416
10.00315 21.945487999999997 19.141232
10.373698 20.143248999999997 22.940543999999996
7.8637999999999995 27.785841999999995 25.502992999999996
7.499999999999999 26.500183 27.889477
10.00315 26.026514999999996 28.874890999999998
10.373698 28.001838999999997 25.162622
7.8637999999999995 16.600668999999996 33.746372
7.499999999999999 14.223275999999998 32.443979
10.00315 13.241214999999999 31.9634
10.373698 16.939515 33.964755
7.8637999999999995 27.267477 19.382455999999998
7.499999999999999 26.807939999999995 22.053981999999998
10.00315 26.672418 23.138894
10.373698 27.363952999999995 18.991048999999997
7.8637999999999995 26.16679 16.575389
7.499999999999999 27.542302 14.239538999999999
10.00315 28.053112 13.272858
10.373698 25.938001 16.907297
7.8637999999999995 16.286068 13.892458999999999
7.499999999999999 14.366207 15.806187999999999
10.00315 13.628231999999999 16.612906
10.373698 16.591129 13.628934
7.8637999999999995 22.713128999999995 14.766342999999999
7.499999999999999 20.049515 15.269715
10.00315 18.985678 15.522008