133_cspbbr3_3\133_cspbbr3_3.xyz
1.0
38.545294 0 0
0 38.545294 0
0 0 38.545294
Br Cs Pb 
108 54 27 
Cartesian
13.125936 16.434974 19.120725999999998
25.296947 10.166600999999998 13.151400999999998
25.277055999999998 13.340176 10.069644999999998
22.094799 25.239707 25.076531
25.457584 25.052235 28.262165
19.276774 28.340063999999998 24.959203999999996
25.116706999999998 28.347358 13.240364999999999
19.395692 28.322855999999998 19.366863
19.203528 28.024206999999997 13.149671999999999
13.449183999999999 19.448173 16.249526
19.132742999999998 25.318195999999997 27.991875999999998
25.308455999999996 28.389401999999997 19.457741
19.323376 22.368558999999998 25.014813999999998
22.401949 13.510589999999999 13.286578999999998
19.125956999999996 25.187478 22.108814
16.355033 25.148501999999997 19.436830999999998
19.297059 22.126260999999996 19.132274
19.178651999999996 25.084926 16.146214
25.437299 28.353717999999997 25.198984999999997
16.275302999999997 25.032524 13.397084999999999
19.420042999999996 22.142836999999997 13.379696999999998
19.422766999999997 25.335815 10.477773
13.409194999999999 13.249166999999998 22.057751
28.397685 13.234737999999998 13.266585
19.121652 19.283523999999996 28.008508
16.385668999999996 25.120513999999996 25.004777
25.428780999999997 22.443661 25.220729
10.341724 13.282992999999998 19.040941999999998
25.276853 13.179371999999999 16.140645
25.342557 25.108358 10.24786
10.416021999999998 13.552912 13.380871999999998
25.101775999999997 19.025685 28.264243999999998
13.065572999999999 10.454843999999998 13.306142999999999
22.112298 19.110367999999998 25.155207
25.038943999999997 16.348283 25.266139
25.09678 19.383945 22.442161
25.082089999999997 25.07032 16.345814999999998
25.076769 22.27246 19.509691999999998
22.315658 19.521075999999997 19.265376
25.383912999999996 16.35193 19.423386999999998
25.028432999999996 19.317922 16.296553
25.310157 22.377661999999997 13.170729999999999
22.346673999999997 25.360272 19.405072999999998
25.148597 16.172880999999997 13.446486999999998
25.25075 19.046885 10.259623999999999
13.527531999999999 13.229347999999998 16.109242
25.236105 13.597829999999998 28.304005999999998
13.352318999999998 13.498003999999998 10.235466999999998
22.051859999999998 13.127889999999999 25.303256
25.061243 10.417853 25.260737
25.315352999999998 13.137420999999998 22.438055
13.457800999999998 10.471400999999998 19.277103
25.120169 25.33568 22.149451
22.326258999999997 13.289210999999998 19.535608999999997
25.450622 10.191837999999999 19.305314
22.359042 19.114552 13.147343999999999
16.22647 19.346386999999996 25.372978999999997
22.053669 25.361444 13.322784999999998
19.26786 19.111556999999998 22.350185999999997
28.411786 19.295945 19.128860999999997
16.422181 13.394579999999998 13.445307999999999
19.231825999999998 10.355268999999998 13.578772999999998
19.12269 13.537916 10.371049
13.167233 19.070460999999998 10.442477999999998
19.110097999999997 16.446505 25.188945
13.558710999999999 28.327098999999997 25.239064
28.414984999999998 19.385018 25.229747999999997
13.483431999999999 28.249139999999997 19.091373
13.284499999999998 28.343760999999997 13.442987999999998
13.301279999999998 19.490994999999998 28.256251
13.411726999999999 25.040108 28.072350999999998
10.529796999999999 25.284375 25.416000999999998
13.378812999999997 22.420709 25.227211
13.335147999999998 24.962405 22.285794
13.051238999999999 16.424519999999998 13.336182999999998
13.540038 25.222663999999998 10.549905999999998
28.012155999999997 25.284529 13.145795999999999
10.370717999999998 25.428966 19.436317999999996
13.490230999999998 22.098081999999998 19.204106
13.408281999999998 25.030199 16.253822999999997
10.240242999999998 19.155385 13.106834999999998
28.334017 25.096339999999998 19.482936
13.247024999999999 22.523798 13.291896999999999
19.052317 13.452974999999999 16.403067999999998
16.163652 13.245673999999998 19.033815999999998
13.392412999999998 10.449925999999998 25.068938
28.037260999999997 13.150253999999999 19.312077999999996
16.124039999999997 19.206867999999996 19.485193
19.515627 16.3783 19.203872
19.415916 19.410515 16.305442
10.441479999999999 13.555879 25.184440999999996
10.328394999999999 19.126352 19.043207999999996
16.177768 19.296122 13.162070999999997
19.081134 16.147496999999998 13.203909
19.338258999999997 19.184969999999996 10.520171999999999
19.044487999999998 10.391605999999998 19.215028999999998
13.372207999999999 13.491409999999998 28.384041999999997
28.195033 13.228869999999999 24.967834
19.407465 13.197596999999998 28.036185999999997
13.243640999999998 16.425024999999998 25.002191999999997
16.426606 13.136256999999999 25.064384
19.403567 10.505518999999998 25.116981999999997
19.174927 13.112164999999997 22.413028999999998
28.042268 19.402979999999996 13.182868999999998
10.138234999999998 19.239002 25.219866
28.105828 25.022443 25.163463999999998
13.474922 19.117183 22.141924999999997
10.165761999999999 25.043114999999997 13.182903999999999
28.393093999999998 21.864563999999998 22.173056
28.463261 21.925456999999998 28.212949
28.212808 16.193756999999998 22.816536
21.816523999999998 22.262090999999998 21.852647
28.442566 22.537097 10.089831999999998
28.055556999999997 16.280638 27.833969
22.031983999999998 28.358832 10.080237999999998
22.301163999999996 28.465272 16.584054
28.282398999999998 16.814536999999998 16.229542
28.224391999999998 16.796834 10.614542999999998
22.47724 27.918286 22.713745999999997
22.444709999999997 27.97551 28.490779999999997
27.77552 10.561164999999999 21.971275
27.876431 22.063819999999996 16.075429
28.297562 10.773953999999998 16.438506
15.782480999999999 28.039305 10.238148999999998
21.952726 15.981859999999998 28.180128
16.709583 16.139225999999997 10.375015999999999
16.183594 10.766153 27.853581
10.613062 16.466835999999997 10.629222999999998
16.517091999999998 10.244559999999998 21.940364999999996
15.808119999999999 10.267149999999999 16.623077
16.258029999999998 9.974783999999998 10.710909999999998
10.555772 27.874837999999997 22.236797999999997
10.673409999999999 28.391941 16.716205
9.949615999999999 22.682436999999997 28.215467999999998
10.466216999999999 21.978382 22.029521999999996
10.734640999999998 21.816067999999998 16.182145
10.470724999999998 15.848468999999998 16.552939
10.680826999999999 22.295635 10.793369999999998
10.427492999999998 15.925586999999998 28.067408999999998
10.150873999999998 16.429063 21.897083999999996
16.718076 16.051004999999996 16.036009
16.392681 15.818658999999998 22.175672
15.928799999999999 16.743064 28.204621999999997
15.921937999999997 22.668606 10.452894999999998
10.390135999999998 10.173704999999998 15.929022
22.615281999999997 16.069446 22.331981
22.455194 15.934024999999998 16.616956
22.410442 15.981791999999999 10.576844999999999
22.21483 10.595331999999999 27.697972999999998
21.887398 10.630804999999999 22.490371
22.399720999999996 10.589113999999999 16.532042
22.574678 21.747199 16.230014999999998
10.693157999999999 9.963277999999999 22.239271
16.111124999999998 28.470661999999997 28.018985999999998
16.623037999999998 28.21558 22.048332999999996
16.264077 27.905193999999998 15.76578
15.827711999999998 22.616431 28.305473
16.542880999999998 22.065859 22.000308999999998
28.066361999999998 28.480739 16.496342
16.175324999999997 22.736501999999998 16.521341
22.410315999999998 10.656187 10.233275999999998
27.905044 28.508571999999997 21.979622
13.145487999999999 13.441864999999998 13.504143
13.390437999999998 25.445528999999997 19.224285
13.449360999999998 25.286852 25.409848
19.09958 13.171731999999999 13.391646999999999
19.089989999999997 13.280437999999998 19.06047
19.029917 13.355505999999998 25.438881999999996
19.348195 19.375432 13.535993999999999
19.520248 19.183108 19.248172
19.452406 19.205088 25.453763
19.523967 25.064359 13.507470999999999
19.500387 25.165415 25.08281
25.087979 13.060304999999998 13.122896999999998
25.054903999999997 13.170914999999999 19.134345
25.177359 13.448552 24.919155999999997
25.137089 19.569689999999998 13.408382999999999
25.514495999999998 19.373010999999998 19.097942999999997
25.397654 19.119069999999997 25.179208
25.380762 25.129530999999997 13.538220999999998
25.346251 25.35771 19.493738999999998
25.180075 24.952749999999998 25.135256
13.354992999999999 25.461284 13.486845999999998
13.514622 19.293407 25.447905
19.322259999999996 25.017878999999997 19.447649
13.437686999999999 19.139008 19.438921999999998
13.356069999999999 19.027504999999998 13.432887999999998
13.483014999999998 13.381614999999998 24.904118
13.048644 13.531614999999999 19.263302
