3_train/260_cspbbr3_MA-1T_4_0.40\260_cspbbr3_MA-1T_4_0.40.xyz
1.0
45.990402 0 0
0 45.990402 0
0 0 45.990402
Br C Cs H N Pb S 
198 202 78 372 34 64 42 
Cartesian
14.070200999999999 11.095201 14.070200999999999
11.095201 14.070200999999999 14.070200999999999
14.070200999999999 14.070200999999999 17.045201
14.070200999999999 14.070200999999999 22.995200999999998
14.070200999999999 11.095201 25.970201
11.095201 14.070200999999999 25.970201
14.070200999999999 14.070200999999999 28.945201
14.070200999999999 11.095201 31.920201
14.070200999999999 20.020201 11.095201
14.070200999999999 17.045201 14.070200999999999
14.070200999999999 20.020201 17.045201
14.070200999999999 17.045201 20.020201
14.070200999999999 20.020201 22.995200999999998
14.070200999999999 17.045201 25.970201
11.095201 20.020201 25.970201
14.070200999999999 20.020201 28.945201
14.070200999999999 17.045201 31.920201
11.095201 20.020201 31.920201
14.070200999999999 20.020201 34.895201
14.070200999999999 25.970201 11.095201
14.070200999999999 22.995200999999998 14.070200999999999
11.095201 25.970201 14.070200999999999
14.070200999999999 25.970201 17.045201
14.070200999999999 22.995200999999998 20.020201
11.095201 25.970201 20.020201
14.070200999999999 25.970201 22.995200999999998
14.070200999999999 22.995200999999998 25.970201
14.070200999999999 25.970201 28.945201
14.070200999999999 22.995200999999998 31.920201
11.095201 25.970201 31.920201
14.070200999999999 25.970201 34.895201
14.070200999999999 28.945201 14.070200999999999
14.070200999999999 31.920201 17.045201
14.070200999999999 28.945201 20.020201
11.095201 31.920201 20.020201
14.070200999999999 31.920201 22.995200999999998
14.070200999999999 28.945201 25.970201
14.070200999999999 31.920201 28.945201
14.070200999999999 28.945201 31.920201
11.095201 31.920201 31.920201
14.070200999999999 34.895201 14.070200999999999
14.070200999999999 34.895201 20.020201
20.020201 14.070200999999999 11.095201
20.020201 11.095201 14.070200999999999
17.045201 14.070200999999999 14.070200999999999
20.020201 14.070200999999999 17.045201
20.020201 11.095201 20.020201
17.045201 14.070200999999999 20.020201
20.020201 14.070200999999999 22.995200999999998
20.020201 11.095201 25.970201
17.045201 14.070200999999999 25.970201
20.020201 14.070200999999999 28.945201
20.020201 11.095201 31.920201
17.045201 14.070200999999999 31.920201
20.020201 17.045201 14.070200999999999
17.045201 20.020201 14.070200999999999
20.020201 20.020201 17.045201
20.020201 17.045201 20.020201
17.045201 20.020201 20.020201
20.020201 20.020201 22.995200999999998
20.020201 17.045201 25.970201
17.045201 20.020201 25.970201
20.020201 20.020201 28.945201
20.020201 17.045201 31.920201
17.045201 20.020201 31.920201
20.020201 25.970201 11.095201
20.020201 22.995200999999998 14.070200999999999
17.045201 25.970201 14.070200999999999
20.020201 25.970201 17.045201
20.020201 22.995200999999998 20.020201
17.045201 25.970201 20.020201
20.020201 25.970201 22.995200999999998
20.020201 22.995200999999998 25.970201
17.045201 25.970201 25.970201
20.020201 25.970201 28.945201
20.020201 22.995200999999998 31.920201
17.045201 25.970201 31.920201
20.020201 25.970201 34.895201
20.020201 31.920201 11.095201
20.020201 28.945201 14.070200999999999
17.045201 31.920201 14.070200999999999
20.020201 31.920201 17.045201
20.020201 28.945201 20.020201
17.045201 31.920201 20.020201
20.020201 31.920201 22.995200999999998
20.020201 28.945201 25.970201
17.045201 31.920201 25.970201
20.020201 31.920201 28.945201
20.020201 28.945201 31.920201
17.045201 31.920201 31.920201
20.020201 34.895201 20.020201
20.020201 34.895201 31.920201
25.970201 14.070200999999999 11.095201
22.995200999999998 14.070200999999999 14.070200999999999
25.970201 14.070200999999999 17.045201
22.995200999999998 14.070200999999999 20.020201
25.970201 14.070200999999999 22.995200999999998
22.995200999999998 14.070200999999999 25.970201
25.970201 14.070200999999999 28.945201
22.995200999999998 14.070200999999999 31.920201
25.970201 20.020201 11.095201
25.970201 17.045201 14.070200999999999
22.995200999999998 20.020201 14.070200999999999
25.970201 20.020201 17.045201
25.970201 17.045201 20.020201
22.995200999999998 20.020201 20.020201
25.970201 20.020201 22.995200999999998
25.970201 17.045201 25.970201
22.995200999999998 20.020201 25.970201
25.970201 20.020201 28.945201
25.970201 17.045201 31.920201
22.995200999999998 20.020201 31.920201
25.970201 20.020201 34.895201
25.970201 25.970201 11.095201
25.970201 22.995200999999998 14.070200999999999
22.995200999999998 25.970201 14.070200999999999
25.970201 25.970201 17.045201
25.970201 22.995200999999998 20.020201
22.995200999999998 25.970201 20.020201
25.970201 25.970201 22.995200999999998
25.970201 22.995200999999998 25.970201
22.995200999999998 25.970201 25.970201
25.970201 25.970201 28.945201
25.970201 22.995200999999998 31.920201
22.995200999999998 25.970201 31.920201
25.970201 25.970201 34.895201
25.970201 28.945201 14.070200999999999
22.995200999999998 31.920201 14.070200999999999
25.970201 31.920201 17.045201
25.970201 28.945201 20.020201
22.995200999999998 31.920201 20.020201
25.970201 31.920201 22.995200999999998
25.970201 28.945201 25.970201
22.995200999999998 31.920201 25.970201
25.970201 31.920201 28.945201
25.970201 28.945201 31.920201
22.995200999999998 31.920201 31.920201
25.970201 31.920201 34.895201
25.970201 34.895201 20.020201
25.970201 34.895201 25.970201
25.970201 34.895201 31.920201
28.945201 14.070200999999999 14.070200999999999
31.920201 14.070200999999999 17.045201
31.920201 11.095201 20.020201
28.945201 14.070200999999999 20.020201
31.920201 14.070200999999999 22.995200999999998
31.920201 11.095201 25.970201
28.945201 14.070200999999999 25.970201
31.920201 14.070200999999999 28.945201
28.945201 14.070200999999999 31.920201
31.920201 14.070200999999999 34.895201
31.920201 17.045201 14.070200999999999
28.945201 20.020201 14.070200999999999
31.920201 20.020201 17.045201
31.920201 17.045201 20.020201
28.945201 20.020201 20.020201
31.920201 20.020201 22.995200999999998
31.920201 17.045201 25.970201
28.945201 20.020201 25.970201
31.920201 20.020201 28.945201
31.920201 17.045201 31.920201
28.945201 20.020201 31.920201
31.920201 22.995200999999998 14.070200999999999
28.945201 25.970201 14.070200999999999
31.920201 25.970201 17.045201
31.920201 22.995200999999998 20.020201
28.945201 25.970201 20.020201
31.920201 25.970201 22.995200999999998
31.920201 22.995200999999998 25.970201
28.945201 25.970201 25.970201
31.920201 25.970201 28.945201
31.920201 22.995200999999998 31.920201
28.945201 25.970201 31.920201
31.920201 25.970201 34.895201
31.920201 31.920201 11.095201
31.920201 28.945201 14.070200999999999
28.945201 31.920201 14.070200999999999
31.920201 31.920201 17.045201
31.920201 28.945201 20.020201
28.945201 31.920201 20.020201
31.920201 31.920201 22.995200999999998
31.920201 28.945201 25.970201
28.945201 31.920201 25.970201
31.920201 31.920201 28.945201
31.920201 28.945201 31.920201
28.945201 31.920201 31.920201
31.920201 31.920201 34.895201
31.920201 34.895201 14.070200999999999
31.920201 34.895201 31.920201
34.895201 14.070200999999999 14.070200999999999
34.895201 14.070200999999999 20.020201
34.895201 14.070200999999999 25.970201
34.895201 20.020201 14.070200999999999
34.895201 20.020201 20.020201
34.895201 25.970201 14.070200999999999
34.895201 25.970201 20.020201
34.895201 31.920201 14.070200999999999
34.895201 31.920201 31.920201
31.920201 20.020201 37.454766000000006
31.92149 21.387221999999998 37.059324000000004
31.9228 21.537864 35.691304
31.919052 19.162204 36.378716
20.020201 31.920201 37.454766000000006
20.02149 33.287222 37.059324000000004
20.0228 33.437864000000005 35.691304
20.019052 31.062203999999998 36.378716
14.070200999999999 31.920201 37.454766000000006
14.071489999999999 33.287222 37.059324000000004
14.072799999999999 33.437864000000005 35.691304
14.069052 31.062203999999998 36.378716
20.020201 14.070200999999999 37.454766000000006
20.02149 15.437221999999998 37.059324000000004
20.0228 15.587864 35.691304
20.019052 13.212204 36.378716
25.970201 14.070200999999999 37.454766000000006
25.97149 15.437221999999998 37.059324000000004
25.9728 15.587864 35.691304
25.969052 13.212204 36.378716
14.070200999999999 14.070200999999999 37.454766000000006
14.071489999999999 15.437221999999998 37.059324000000004
14.072799999999999 15.587864 35.691304
14.069052 13.212204 36.378716
20.020201 20.020201 37.454766000000006
20.02149 21.387221999999998 37.059324000000004
20.0228 21.537864 35.691304
20.019052 19.162204 36.378716
25.970201 31.920201 8.535636
25.968912 33.287222 8.931078
25.967602 33.437864000000005 10.299097999999999
25.971349999999997 31.062203999999998 9.611685999999999
14.070200999999999 31.920201 8.535636
14.068912 33.287222 8.931078
14.067601999999999 33.437864000000005 10.299097999999999
14.071349999999999 31.062203999999998 9.611685999999999
20.020201 20.020201 8.535636
20.018912 21.387221999999998 8.931078
20.017602 21.537864 10.299097999999999
20.02135 19.162204 9.611685999999999
14.070200999999999 14.070200999999999 8.535636
14.068912 15.437221999999998 8.931078
14.067601999999999 15.587864 10.299097999999999
14.071349999999999 13.212204 9.611685999999999
31.920201 20.020201 8.535636
31.918912 21.387221999999998 8.931078
31.917602 21.537864 10.299097999999999
31.92135 19.162204 9.611685999999999
31.920201 25.970201 8.535636
31.918912 27.337222 8.931078
31.917602 27.487864 10.299097999999999
31.92135 25.112204000000002 9.611685999999999
31.920201 14.070200999999999 8.535636
31.918912 15.437221999999998 8.931078
31.917602 15.587864 10.299097999999999
31.92135 13.212204 9.611685999999999
8.535636 14.070200999999999 20.020201
8.931078 15.437221999999998 20.02149
10.299097999999999 15.587864 20.0228
9.611685999999999 13.212204 20.019052
8.535636 20.020201 20.020201
8.931078 21.387221999999998 20.02149
10.299097999999999 21.537864 20.0228
9.611685999999999 19.162204 20.019052
8.535636 20.020201 14.070200999999999
8.931078 21.387221999999998 14.071489999999999
10.299097999999999 21.537864 14.072799999999999
9.611685999999999 19.162204 14.069052
8.535636 31.920201 14.070200999999999
8.931078 33.287222 14.071489999999999
10.299097999999999 33.437864000000005 14.072799999999999
9.611685999999999 31.062203999999998 14.069052
8.535636 25.970201 25.970201
8.931078 27.337222 25.97149
10.299097999999999 27.487864 25.9728
9.611685999999999 25.112204000000002 25.969052
8.535636 14.070200999999999 31.920201
8.931078 15.437221999999998 31.92149
10.299097999999999 15.587864 31.9228
9.611685999999999 13.212204 31.919052
8.535636 31.920201 25.970201
8.931078 33.287222 25.97149
10.299097999999999 33.437864000000005 25.9728
9.611685999999999 31.062203999999998 25.969052
37.454766000000006 31.920201 20.020201
37.059324000000004 33.287222 20.018912
35.691304 33.437864000000005 20.017602
36.378716 31.062203999999998 20.02135
37.454766000000006 20.020201 25.970201
37.059324000000004 21.387221999999998 25.968912
35.691304 21.537864 25.967602
36.378716 19.162204 25.971349999999997
37.454766000000006 25.970201 31.920201
37.059324000000004 27.337222 31.918912
35.691304 27.487864 31.917602
36.378716 25.112204000000002 31.92135
37.454766000000006 31.920201 25.970201
37.059324000000004 33.287222 25.968912
35.691304 33.437864000000005 25.967602
36.378716 31.062203999999998 25.971349999999997
37.454766000000006 20.020201 31.920201
37.059324000000004 21.387221999999998 31.918912
35.691304 21.537864 31.917602
36.378716 19.162204 31.92135
37.454766000000006 14.070200999999999 31.920201
37.059324000000004 15.437221999999998 31.918912
35.691304 15.587864 31.917602
36.378716 13.212204 31.92135
37.454766000000006 25.970201 25.970201
37.059324000000004 27.337222 25.968912
35.691304 27.487864 25.967602
36.378716 25.112204000000002 25.971349999999997
25.970201 8.535636 14.070200999999999
25.97149 8.931078 15.437221999999998
25.9728 10.299097999999999 15.587864
25.969052 9.611685999999999 13.212204
25.970201 8.535636 31.920201
25.97149 8.931078 33.287222
25.9728 10.299097999999999 33.437864000000005
25.969052 9.611685999999999 31.062203999999998
25.970201 8.535636 20.020201
25.97149 8.931078 21.387221999999998
25.9728 10.299097999999999 21.537864
25.969052 9.611685999999999 19.162204
31.920201 8.535636 31.920201
31.92149 8.931078 33.287222
31.9228 10.299097999999999 33.437864000000005
31.919052 9.611685999999999 31.062203999999998
14.070200999999999 8.535636 20.020201
14.071489999999999 8.931078 21.387221999999998
14.072799999999999 10.299097999999999 21.537864
14.069052 9.611685999999999 19.162204
25.970201 8.535636 25.970201
25.97149 8.931078 27.337222
25.9728 10.299097999999999 27.487864
25.969052 9.611685999999999 25.112204000000002
31.920201 8.535636 14.070200999999999
31.92149 8.931078 15.437221999999998
31.9228 10.299097999999999 15.587864
31.919052 9.611685999999999 13.212204
14.070200999999999 37.454766000000006 25.970201
14.071489999999999 37.059324000000004 24.60318
14.072799999999999 35.691304 24.452538
14.069052 36.378716 26.828197999999997
25.970201 37.454766000000006 14.070200999999999
25.97149 37.059324000000004 12.70318
25.9728 35.691304 12.552538
25.969052 36.378716 14.928198
31.920201 37.454766000000006 25.970201
31.92149 37.059324000000004 24.60318
31.9228 35.691304 24.452538
31.919052 36.378716 26.828197999999997
20.020201 37.454766000000006 14.070200999999999
20.02149 37.059324000000004 12.70318
20.0228 35.691304 12.552538
20.019052 36.378716 14.928198
14.070200999999999 37.454766000000006 31.920201
14.071489999999999 37.059324000000004 30.55318
14.072799999999999 35.691304 30.402538
14.069052 36.378716 32.778198
31.920201 37.454766000000006 20.020201
31.92149 37.059324000000004 18.65318
31.9228 35.691304 18.502538
31.919052 36.378716 20.878198
20.020201 37.454766000000006 25.970201
20.02149 37.059324000000004 24.60318
20.0228 35.691304 24.452538
20.019052 36.378716 26.828197999999997
9.61954 28.945201 28.945201
9.61954 17.045201 22.995200999999998
22.995200999999998 10.051751 10.051751
35.93865100000001 35.93865100000001 22.995200999999998
10.051751 35.93865100000001 17.045201
28.945201 28.945201 9.61954
22.995200999999998 9.61954 17.045201
9.61954 17.045201 28.945201
22.995200999999998 36.370862 28.945201
17.045201 36.370862 28.945201
36.370862 22.995200999999998 22.995200999999998
17.045201 35.93865100000001 10.051751
28.945201 36.370862 22.995200999999998
36.370862 28.945201 17.045201
28.945201 10.051751 35.93865100000001
10.051751 10.051751 28.945201
36.370862 22.995200999999998 28.945201
17.045201 28.945201 9.61954
17.045201 36.370862 22.995200999999998
28.945201 17.045201 9.61954
35.93865100000001 22.995200999999998 35.93865100000001
28.945201 9.61954 22.995200999999998
17.045201 35.93865100000001 35.93865100000001
22.995200999999998 28.945201 36.370862
9.61954 28.945201 17.045201
22.995200999999998 10.051751 35.93865100000001
9.61954 22.995200999999998 17.045201
17.045201 9.61954 28.945201
35.93865100000001 17.045201 35.93865100000001
10.051751 35.93865100000001 22.995200999999998
10.051751 28.945201 35.93865100000001
35.93865100000001 17.045201 10.051751
35.93865100000001 22.995200999999998 10.051751
10.051751 10.051751 22.995200999999998
11.095201 11.095201 17.045201
11.095201 17.045201 11.095201
11.095201 17.045201 17.045201
11.095201 17.045201 34.895201
11.095201 22.995200999999998 11.095201
11.095201 22.995200999999998 22.995200999999998
11.095201 22.995200999999998 28.945201
11.095201 22.995200999999998 34.895201
11.095201 28.945201 11.095201
11.095201 28.945201 22.995200999999998
11.095201 34.895201 28.945201
17.045201 11.095201 17.045201
17.045201 11.095201 22.995200999999998
17.045201 11.095201 34.895201
17.045201 17.045201 17.045201
17.045201 17.045201 22.995200999999998
17.045201 17.045201 28.945201
17.045201 17.045201 34.895201
17.045201 22.995200999999998 11.095201
17.045201 22.995200999999998 17.045201
17.045201 22.995200999999998 22.995200999999998
17.045201 22.995200999999998 28.945201
17.045201 22.995200999999998 34.895201
17.045201 28.945201 17.045201
17.045201 28.945201 22.995200999999998
17.045201 28.945201 28.945201
17.045201 28.945201 34.895201
17.045201 34.895201 17.045201
22.995200999999998 11.095201 28.945201
22.995200999999998 17.045201 11.095201
22.995200999999998 17.045201 17.045201
22.995200999999998 17.045201 22.995200999999998
22.995200999999998 17.045201 28.945201
22.995200999999998 17.045201 34.895201
22.995200999999998 22.995200999999998 11.095201
22.995200999999998 22.995200999999998 17.045201
22.995200999999998 22.995200999999998 22.995200999999998
22.995200999999998 22.995200999999998 28.945201
22.995200999999998 28.945201 11.095201
22.995200999999998 28.945201 17.045201
22.995200999999998 28.945201 22.995200999999998
22.995200999999998 28.945201 28.945201
22.995200999999998 34.895201 11.095201
22.995200999999998 34.895201 22.995200999999998
22.995200999999998 34.895201 34.895201
28.945201 11.095201 11.095201
28.945201 11.095201 17.045201
28.945201 11.095201 28.945201
28.945201 17.045201 17.045201
28.945201 17.045201 22.995200999999998
28.945201 17.045201 28.945201
28.945201 17.045201 34.895201
28.945201 22.995200999999998 11.095201
28.945201 22.995200999999998 17.045201
28.945201 22.995200999999998 22.995200999999998
28.945201 22.995200999999998 28.945201
28.945201 22.995200999999998 34.895201
28.945201 28.945201 17.045201
28.945201 28.945201 22.995200999999998
28.945201 28.945201 28.945201
28.945201 28.945201 34.895201
28.945201 34.895201 11.095201
28.945201 34.895201 17.045201
28.945201 34.895201 28.945201
28.945201 34.895201 34.895201
34.895201 11.095201 17.045201
34.895201 11.095201 22.995200999999998
34.895201 11.095201 28.945201
34.895201 17.045201 17.045201
34.895201 17.045201 22.995200999999998
34.895201 17.045201 28.945201
34.895201 22.995200999999998 17.045201
34.895201 28.945201 11.095201
34.895201 28.945201 22.995200999999998
34.895201 28.945201 28.945201
34.895201 28.945201 34.895201
34.895201 34.895201 17.045201
34.895201 34.895201 28.945201
31.92065 22.226606 37.754361
31.92858 22.456025 35.110582
31.921635 19.681026 38.490402
31.918435 18.075781 36.378451
20.02065 34.126605999999995 37.754361
20.02858 34.356025 35.110582
20.021635 31.581025999999998 38.490402
20.018435 29.975780999999998 36.378451
14.070649999999999 34.126605999999995 37.754361
14.078579999999999 34.356025 35.110582
14.071634999999999 31.581025999999998 38.490402
14.068435 29.975780999999998 36.378451
20.02065 16.276606 37.754361
20.02858 16.506025 35.110582
20.021635 13.731026 38.490402
20.018435 12.125781 36.378451
25.97065 16.276606 37.754361
25.978579999999997 16.506025 35.110582
25.971635 13.731026 38.490402
25.968435 12.125781 36.378451
14.070649999999999 16.276606 37.754361
14.078579999999999 16.506025 35.110582
14.071634999999999 13.731026 38.490402
14.068435 12.125781 36.378451
20.02065 22.226606 37.754361
20.02858 22.456025 35.110582
20.021635 19.681026 38.490402
20.018435 18.075781 36.378451
25.969752 34.126605999999995 8.236041
25.961822 34.356025 10.879819999999999
25.968767 31.581025999999998 7.5
25.971967 29.975780999999998 9.611951
14.069752 34.126605999999995 8.236041
14.061822 34.356025 10.879819999999999
14.068767 31.581025999999998 7.5
14.071966999999999 29.975780999999998 9.611951
20.019752 22.226606 8.236041
20.011822 22.456025 10.879819999999999
20.018767 19.681026 7.5
20.021967 18.075781 9.611951
14.069752 16.276606 8.236041
14.061822 16.506025 10.879819999999999
14.068767 13.731026 7.5
14.071966999999999 12.125781 9.611951
31.919752 22.226606 8.236041
31.911822 22.456025 10.879819999999999
31.918767 19.681026 7.5
31.921967 18.075781 9.611951
31.919752 28.176606 8.236041
31.911822 28.406025 10.879819999999999
31.918767 25.631026000000002 7.5
31.921967 24.025781 9.611951
31.919752 16.276606 8.236041
31.911822 16.506025 10.879819999999999
31.918767 13.731026 7.5
31.921967 12.125781 9.611951
8.236041 16.276606 20.02065
10.879819999999999 16.506025 20.02858
7.5 13.731026 20.021635
9.611951 12.125781 20.018435
8.236041 22.226606 20.02065
10.879819999999999 22.456025 20.02858
7.5 19.681026 20.021635
9.611951 18.075781 20.018435
8.236041 22.226606 14.070649999999999
10.879819999999999 22.456025 14.078579999999999
7.5 19.681026 14.071634999999999
9.611951 18.075781 14.068435
8.236041 34.126605999999995 14.070649999999999
10.879819999999999 34.356025 14.078579999999999
7.5 31.581025999999998 14.071634999999999
9.611951 29.975780999999998 14.068435
8.236041 28.176606 25.97065
10.879819999999999 28.406025 25.978579999999997
7.5 25.631026000000002 25.971635
9.611951 24.025781 25.968435
8.236041 16.276606 31.92065
10.879819999999999 16.506025 31.92858
7.5 13.731026 31.921635
9.611951 12.125781 31.918435
8.236041 34.126605999999995 25.97065
10.879819999999999 34.356025 25.978579999999997
7.5 31.581025999999998 25.971635
9.611951 29.975780999999998 25.968435
37.754361 34.126605999999995 20.019752
35.110582 34.356025 20.011822
38.490402 31.581025999999998 20.018767
36.378451 29.975780999999998 20.021967
37.754361 22.226606 25.969752
35.110582 22.456025 25.961822
38.490402 19.681026 25.968767
36.378451 18.075781 25.971967
37.754361 28.176606 31.919752
35.110582 28.406025 31.911822
38.490402 25.631026000000002 31.918767
36.378451 24.025781 31.921967
37.754361 34.126605999999995 25.969752
35.110582 34.356025 25.961822
38.490402 31.581025999999998 25.968767
36.378451 29.975780999999998 25.971967
37.754361 22.226606 31.919752
35.110582 22.456025 31.911822
38.490402 19.681026 31.918767
36.378451 18.075781 31.921967
37.754361 16.276606 31.919752
35.110582 16.506025 31.911822
38.490402 13.731026 31.918767
36.378451 12.125781 31.921967
37.754361 28.176606 25.969752
35.110582 28.406025 25.961822
38.490402 25.631026000000002 25.968767
36.378451 24.025781 25.971967
25.97065 8.236041 16.276606
25.978579999999997 10.879819999999999 16.506025
25.971635 7.5 13.731026
25.968435 9.611951 12.125781
25.97065 8.236041 34.126605999999995
25.978579999999997 10.879819999999999 34.356025
25.971635 7.5 31.581025999999998
25.968435 9.611951 29.975780999999998
25.97065 8.236041 22.226606
25.978579999999997 10.879819999999999 22.456025
25.971635 7.5 19.681026
25.968435 9.611951 18.075781
31.92065 8.236041 34.126605999999995
31.92858 10.879819999999999 34.356025
31.921635 7.5 31.581025999999998
31.918435 9.611951 29.975780999999998
14.070649999999999 8.236041 22.226606
14.078579999999999 10.879819999999999 22.456025
14.071634999999999 7.5 19.681026
14.068435 9.611951 18.075781
25.97065 8.236041 28.176606
25.978579999999997 10.879819999999999 28.406025
25.971635 7.5 25.631026000000002
25.968435 9.611951 24.025781
31.92065 8.236041 16.276606
31.92858 10.879819999999999 16.506025
31.921635 7.5 13.731026
31.918435 9.611951 12.125781
14.070649999999999 37.754361 23.763796
14.078579999999999 35.110582 23.534377
14.071634999999999 38.490402 26.309375999999997
14.068435 36.378451 27.914621
25.97065 37.754361 11.863795999999999
25.978579999999997 35.110582 11.634376999999999
25.971635 38.490402 14.409376
25.968435 36.378451 16.014620999999998
31.92065 37.754361 23.763796
31.92858 35.110582 23.534377
31.921635 38.490402 26.309375999999997
31.918435 36.378451 27.914621
20.02065 37.754361 11.863795999999999
20.02858 35.110582 11.634376999999999
20.021635 38.490402 14.409376
20.018435 36.378451 16.014620999999998
14.070649999999999 37.754361 29.713796
14.078579999999999 35.110582 29.484377
14.071634999999999 38.490402 32.259376
14.068435 36.378451 33.864621
31.92065 37.754361 17.813796
31.92858 35.110582 17.584377
31.921635 38.490402 20.359376
31.918435 36.378451 21.964620999999998
20.02065 37.754361 23.763796
20.02858 35.110582 23.534377
20.021635 38.490402 26.309375999999997
20.018435 36.378451 27.914621
9.285619 28.039495 28.435474
9.285619 28.956616999999998 29.984429
9.285619 29.839489999999998 28.4157
11.469943 29.779904 29.414968
11.469943 28.934679 27.987443
11.469943 28.121019 29.433192
9.285619 16.139495 22.485474
9.285619 17.056617 24.034429
9.285619 17.93949 22.465700000000002
11.469943 17.879904 23.464968
11.469943 17.034679 22.037443
11.469943 16.221019 23.483192
22.485474 10.456064 9.175203
24.034429 9.807561 9.823706
22.465700000000002 9.183274999999998 10.447990999999998
23.464968 10.769959 11.950408
22.037443 11.367624 11.352744
23.483192 11.942967999999999 10.777398999999999
36.372758000000005 35.97677900000001 23.996063
36.688674000000006 35.660863000000006 22.252283000000002
35.462873 36.886663999999996 22.737257
34.44775 34.812687 22.072801000000002
34.1566 35.103836 23.679878
35.286305 33.974132 23.232924
9.107917 35.467051999999995 17.3252
10.340955999999998 36.700091 17.771974
9.998028 36.357163 16.038429
12.012419 35.282454 16.787152
10.876044 34.146079 16.375404
11.192087999999998 34.462123 17.973047
29.454928 28.039495 9.285619
27.905973 28.956616999999998 9.285619
29.474702 29.839489999999998 9.285619
28.475434 29.779904 11.469943
29.902959 28.934679 11.469943
28.45721 28.121019 11.469943
22.485474 9.285619 16.139495
24.034429 9.285619 17.056617
22.465700000000002 9.285619 17.93949
23.464968 11.469943 17.879904
22.037443 11.469943 17.034679
23.483192 11.469943 16.221019
9.285619 16.139495 28.435474
9.285619 17.056617 29.984429
9.285619 17.93949 28.4157
11.469943 17.879904 29.414968
11.469943 17.034679 27.987443
11.469943 16.221019 29.433192
22.485474 36.704783000000006 29.850907
24.034429 36.704783000000006 28.933785
22.465700000000002 36.704783000000006 28.050912
23.464968 34.520459 28.110498
22.037443 34.520459 28.955723
23.483192 34.520459 29.769382999999998
16.535474 36.704783000000006 29.850907
18.084429 36.704783000000006 28.933785
16.5157 36.704783000000006 28.050912
17.514968 34.520459 28.110498
16.087443 34.520459 28.955723
17.533192 34.520459 29.769382999999998
36.704783000000006 22.089495 23.504928
36.704783000000006 23.006617 21.955973
36.704783000000006 23.88949 23.524702
34.520459 23.829904 22.525434
34.520459 22.984679 23.952959
34.520459 22.171018999999998 22.507209999999997
16.535474 36.81519900000001 10.456064
18.084429 36.166696 9.807561
16.5157 35.542411 9.183274999999998
17.514968 34.039994 10.769959
16.087443 34.637658 11.367624
17.533192 35.213003 11.942967999999999
28.435474 36.704783000000006 23.900907
29.984429 36.704783000000006 22.983785
28.4157 36.704783000000006 22.100911999999997
29.414968 34.520459 22.160498
27.987443 34.520459 23.005723
29.433192 34.520459 23.819383
36.704783000000006 28.039495 17.554928
36.704783000000006 28.956616999999998 16.005972999999997
36.704783000000006 29.839489999999998 17.574702
34.520459 29.779904 16.575434
34.520459 28.934679 18.002959
34.520459 28.121019 16.557209999999998
28.435474 9.175203 35.534338
29.984429 9.823706 36.182840999999996
28.4157 10.447990999999998 36.807126999999994
29.414968 11.950408 35.220443
27.987443 11.352744 34.622778
29.433192 10.777398999999999 34.047433999999996
10.013622999999999 9.617643999999999 27.944339
10.329539 9.301727999999999 29.688119
9.103738 10.527529 29.203145
11.177715 11.542652 29.867601
10.886565999999998 11.833801999999999 28.260524
12.016269999999999 10.704096999999999 28.707478
36.704783000000006 22.089495 29.454928
36.704783000000006 23.006617 27.905973
36.704783000000006 23.88949 29.474702
34.520459 23.829904 28.475434
34.520459 22.984679 29.902959
34.520459 22.171018999999998 28.45721
17.554928 28.039495 9.285619
16.005972999999997 28.956616999999998 9.285619
17.574702 29.839489999999998 9.285619
16.575434 29.779904 11.469943
18.002959 28.934679 11.469943
16.557209999999998 28.121019 11.469943
16.535474 36.704783000000006 23.900907
18.084429 36.704783000000006 22.983785
16.5157 36.704783000000006 22.100911999999997
17.514968 34.520459 22.160498
16.087443 34.520459 23.005723
17.533192 34.520459 23.819383
29.454928 16.139495 9.285619
27.905973 17.056617 9.285619
29.474702 17.93949 9.285619
28.475434 17.879904 11.469943
29.902959 17.034679 11.469943
28.45721 16.221019 11.469943
35.814336999999995 22.089495 36.5352
36.909614000000005 23.006617 35.439923
35.800354999999996 23.88949 36.549182
34.962394 23.829904 34.298043
33.952981 22.984679 35.307455000000004
34.97528 22.171018999999998 34.285157
28.435474 9.285619 22.089495
29.984429 9.285619 23.006617
28.4157 9.285619 23.88949
29.414968 11.469943 23.829904
27.987443 11.469943 22.984679
29.433192 11.469943 22.171018999999998
16.535474 35.534338 36.81519900000001
18.084429 36.182840999999996 36.166696
16.5157 36.807126999999994 35.542411
17.514968 35.220443 34.039994
16.087443 34.622778 34.637658
17.533192 34.047433999999996 35.213003
22.485474 28.039495 36.704783000000006
24.034429 28.956616999999998 36.704783000000006
22.465700000000002 29.839489999999998 36.704783000000006
23.464968 29.779904 34.520459
22.037443 28.934679 34.520459
23.483192 28.121019 34.520459
9.285619 28.039495 16.535474
9.285619 28.956616999999998 18.084429
9.285619 29.839489999999998 16.5157
11.469943 29.779904 17.514968
11.469943 28.934679 16.087443
11.469943 28.121019 17.533192
22.485474 9.175203 35.534338
24.034429 9.823706 36.182840999999996
22.465700000000002 10.447990999999998 36.807126999999994
23.464968 11.950408 35.220443
22.037443 11.352744 34.622778
23.483192 10.777398999999999 34.047433999999996